# LAMMPS data file written by OVITO Basic 3.7.6
8000 atoms
1 atom types
-0.2895226748 65.2895226747 xlo xhi
9.6476049946 55.3523950054 ylo yhi
-3.1632845791 68.1632845791 zlo zhi
0.0 0.0 -15.7913571554 xy xz yz

Masses

1 18.0153

Atoms  # atomic

264 1 12.0964 17.3001099892 -2.06753
3566 1 1.37956 13.6860099892 3.30891
7458 1 10.8002 13.947247058 -1.6264691582
6741 1 6.41749 11.009247058 -0.1939691582
6901 1 4.41696 17.417247058 -2.1580691582
7222 1 15.4557 14.8524099892 -0.995874
816 1 10.7156 19.7253099892 -2.17829
4008 1 9.10404 13.1569099892 1.39279
6562 1 14.9023 17.5351099892 -1.85537
3134 1 10.6705 11.405247058 -0.2799691582
2501 1 0.677759 12.2664099892 -2.3248
2708 1 3.43461 20.2820370688 -1.9009691582
2822 1 7.00044 16.2360370688 -1.6989691582
6678 1 11.2904 18.3144099892 2.23159
7634 1 5.5425546505 14.774247058 1.2373308418
3503 1 4.26447 11.8792099892 4.37263
4017 1 13.176 12.109247058 0.9248308418
7286 1 8.34338 18.5083099892 1.86869
1773 1 5.2844546505 15.595247058 3.9292308418
5674 1 14.7044 16.4939099892 2.92298
7785 1 2.5781546505 15.5584099892 4.90525
6184 1 15.3389 19.1293099892 2.95131
6093 1 2.1144546505 18.0474099892 3.60868
7832 1 1.33175 18.7624 -1.06999
7117 1 6.33707 13.5512099892 -1.26021
2899 1 4.97409 18.3790099892 3.95756
5646 1 8.38942 18.7780099892 -1.10153
6501 1 1.21404 14.6490370688 -0.5712691582
1542 1 11.1116 16.1118099892 0.267077
855 1 9.45734 10.5906099892 -2.72257
2247 1 5.63646 19.2696099892 1.39221
1753 1 8.31302 15.8716099892 0.855536
3638 1 6.52418 12.4062099892 2.41872
7800 1 4.19424 17.0084099892 0.579744
3978 1 13.4344 14.9799099892 0.946767
4040 1 1.24767 16.9811 1.03174
6920 1 12.0773 16.2814199784 3.96896
7610 1 2.9954546505 13.410247058 1.0751308418
1762 1 10.0788 14.5124199784 3.80097
6702 1 11.4427 12.2299099892 3.06582
6890 1 7.99935 16.4146099892 3.69512
2390 1 14.1936 11.1770370688 -1.7341691582
715 1 2.50689 15.4600370688 -2.7939691582
4339 1 2.97291 10.7239099892 -2.09237
7904 1 1.58216 11.4384199784 4.93633
4057 1 9.86425 9.8864199784 3.34444
246 1 4.36242 9.6247099892 2.78302
3088 1 8.70098 9.7284099892 0.713209
1165 1 13.4209 13.7600099892 -2.551
3768 1 8.48845 13.1471099892 -3.02413
7523 1 15.2955 11.4790099892 2.60426
4996 1 13.6543 12.1694099892 4.90671
2602 1 6.95425 9.3644099892 2.88176
4975 1 11.3517 18.7144199784 5.23014
4742 1 15.1778 20.2499099892 -0.682939
6453 1 0.739706 9.5901099892 2.84923
5258 1 3.57653 10.7452099892 0.58132
6790 1 4.13165 13.1456 -2.7499
7484 1 6.75261 8.0982199784 5.47077
5165 1 13.3097 20.5751 -2.76836
2385 1 8.69468 18.3675099892 5.46813
7163 1 12.8057 14.7044199784 6.06523
5951 1 9.46429 16.3584199784 14.2123
6761 1 1.91463 15.9074199784 9.32068
1125 1 3.55079 17.6984199784 7.67382
2882 1 0.1303546505 12.1664199784 11.0834
5802 1 2.0056546505 16.8254199784 11.8781
6610 1 10.5421 14.3724199784 8.07979
5893 1 1.0083 16.9488099892 6.84894
2324 1 6.11464 16.7194199784 7.89076
2598 1 6.27987 15.8884199784 10.4484
6576 1 3.51342 13.5747099892 6.86679
1031 1 2.5138 10.4474199784 14.4518
976 1 14.6952 16.6274199784 7.21616
1444 1 8.87863 13.6874199784 6.0463
3843 1 14.8417 14.7364199784 9.34602
6869 1 5.00411 7.7909199784 12.236
463 1 1.22397 10.4434199784 7.69975
1881 1 9.34108 8.2195199784 6.66501
7317 1 11.3404 8.4356299675 11.0859
5719 1 4.1673546505 14.2084199784 9.78316
3125 1 2.72934 14.8394199784 13.6137
6294 1 4.0705 10.4964199784 12.2122
5063 1 0.3969546505 8.6866299675 13.1486
6973 1 13.9205 12.4474199784 7.83164
7271 1 5.35359 7.9037199784 9.29427
6085 1 2.70721 12.8474199784 11.6881
5571 1 5.13081 11.6904199784 8.61417
6321 1 12.074 9.0074199784 6.33424
3410 1 7.68151 8.3005199784 12.7706
5255 1 13.0364 14.3674199784 11.2934
7702 1 13.1583 8.6204199784 8.87235
7261 1 8.40905 14.1564199784 9.98179
5107 1 1.1626546505 13.1694199784 8.46889
1970 1 13.9849 10.9994199784 10.2074
6872 1 5.44438 15.6584199784 13.2507
4198 1 3.20305 9.8044199784 9.59921
6070 1 12.5135 18.1674199784 7.58796
3382 1 0.903546 8.0969099892 6.3122
1339 1 6.22388 14.4803099892 6.30963
3643 1 12.1489 12.0344199784 12.242
2946 1 11.1535 11.5754199784 7.65473
3475 1 12.9912 9.2526299675 13.2189
350 1 7.34335 13.6064199784 12.8264
4238 1 6.1468546505 10.8234199784 6.04089
3728 1 15.7184 8.6296299675 12.6685
7931 1 10.5213 15.6324199784 11.4288
2076 1 10.4075 10.9784199784 10.1995
7311 1 1.4434546505 7.8787199784 10.616
2266 1 6.7777 10.8664199784 12.1394
4102 1 10.4052 17.1004199784 8.95516
1941 1 13.9044 16.3624199784 12.9738
574 1 8.84815 6.9484199784 10.599
6165 1 10.2091 13.6574199784 13.5515
7814 1 7.79907 8.7714199784 8.89592
3689 1 7.76303 11.3354199784 9.71183
2529 1 0.1726 14.2146299675 14.6088
2558 1 15.8123 7.9989199784 8.77725
4375 1 -0.207522 11.5484199784 13.9395
7623 1 13.9606 11.6054199784 14.3218
161 1 8.98489 10.9524199784 5.77123
3309 1 15.8005 16.6604199784 10.9993
4566 1 15.9049 15.4174199784 14.6312
4690 1 14.6501 9.7414199784 5.76702
874 1 10.2467 6.2856299675 19.9091
1904 1 7.43116 5.3366299675 16.5042
2944 1 3.66813 12.7844199784 15.1911
2124 1 2.41968 9.3008399567 23.2389
2326 1 14.9215 5.8128399567 20.4775
843 1 4.67141 15.9346299675 17.3581
923 1 6.97074 16.2956299675 15.444
486 1 3.1886 13.5596299675 17.7805
3128 1 3.16493 11.7336299675 21.7099
7729 1 12.7611 9.1976299675 17.4392
833 1 0.453824 14.0086299675 17.2831
7057 1 2.26616 9.2556299675 18.1111
2171 1 7.33174 8.1696299675 16.946
5216 1 12.3971 13.7456299675 15.3391
5226 1 9.4416546505 15.1566299675 18.4339
6357 1 9.01767 10.5206299675 20.6187
747 1 5.47913 11.1906299675 20.4613
6566 1 14.7466 12.9676299675 18.6628
2657 1 11.5401 8.1746299675 15.2733
5591 1 13.6146 9.8656299675 22.1557
4462 1 6.54548 12.4466299675 15.3218
4240 1 12.9582 12.0816299675 20.5513
4478 1 2.44421 14.2076299675 20.4811
4219 1 5.60705 9.8566299675 15.9355
6540 1 4.3297546505 10.9236299675 18.0992
2304 1 2.61093 6.8246299675 16.9023
7196 1 -0.0116453495 15.6396299675 20.2155
568 1 6.06724 8.7288399567 21.47
3918 1 7.49945 12.8786299675 20.0941
668 1 6.93376 14.1056299675 17.4902
3908 1 5.58252 14.7348399567 23.3086
703 1 14.2842 15.1594199784 17.1345
5454 1 11.1279 10.7486299675 19.0667
1556 1 12.1098 13.9966299675 22.4631
1935 1 13.5282 5.3776299675 23.1289
1860 1 0.2670546505 10.4396299675 16.7451
5290 1 14.857 10.8706299675 16.9372
7736 1 10.7144 12.9126299675 17.4676
4609 1 9.12284 11.6796299675 15.3865
1282 1 8.05977 8.0496299675 19.5925
5108 1 7.97218 14.7026299675 22.1469
2295 1 4.15082 5.3916299675 22.993
7855 1 8.2423 4.8118399567 21.5513
1707 1 12.143 7.5496299675 21.7951
7625 1 1.1599546505 8.6526299675 20.5601
4550 1 3.70952 7.4388399567 21.3426
7300 1 3.96872 5.9236299675 19.0575
5292 1 0.194869 6.3479199784 18.7345
460 1 6.69514 5.5056299675 19.2212
2771 1 12.8621 7.1156299675 19.1309
5275 1 9.22216 10.1518399567 23.3138
7330 1 8.9927 9.0496299675 14.9349
5615 1 0.26076 11.3766299675 21.2793
5250 1 3.8536 8.1866299675 14.8987
1535 1 12.3368 16.6196299675 15.2397
320 1 1.6719546505 4.0268399567 23.1864
3064 1 13.9101 5.2416299675 17.0168
6490 1 0.663284 6.2096299675 14.6774
3237 1 14.355 15.0936299675 23.4126
5432 1 16.0897 9.3936299675 21.0733
3518 1 2.79039 16.9076299675 15.5269
198 1 10.0133 5.2126299675 17.2609
6825 1 12.9629 2.8808399567 29.1526
3969 1 15.5286 13.0708399567 32.1284
153 1 6.5572 9.0298399567 24.201
6461 1 -0.2316453495 7.4878399567 29.9819
6110 1 4.80529 12.5118399567 26.7568
3748 1 2.65057 12.7398399567 28.4288
4214 1 13.129 12.2888399567 26.2757
201 1 1.5259546505 14.4586299675 24.3634
4088 1 8.76205 13.4178399567 25.8419
6324 1 3.7063546505 12.9988399567 24.1801
2233 1 4.33903 10.2566299675 24.9144
4147 1 6.56722 3.0578399567 28.1596
4169 1 6.57751 11.2258399567 28.4544
7660 1 1.13493 6.6576299675 24.0752
2168 1 14.2593 13.4828399567 29.9117
721 1 0.386273 10.9048399567 27.8791
7017 1 11.2487 6.7978399567 32.1069
3241 1 6.14775 12.7160499459 31.6603
5890 1 14.4189 9.3426299675 24.8035
2768 1 0.454472 6.0428399567 27.6839
2622 1 10.9524 10.8906299675 27.2429
2930 1 7.72006 13.7268399567 29.4122
1791 1 11.9318 8.7126299675 25.8902
6723 1 7.44298 9.3308399567 30.4567
3348 1 8.21964 10.5148399567 25.9834
787 1 2.98521 6.4956299675 26.4575
1975 1 5.33694 6.6198399567 25.1855
6733 1 7.115 5.9448399567 27.3759
3183 1 10.2262 6.8040499459 29.414
6958 1 4.64907 9.2808399567 29.4102
738 1 11.3571 5.3158399567 25.0653
6001 1 7.85979 6.5178399567 30.9258
2418 1 2.99076 4.6958399567 30.1679
3240 1 15.0121 7.9348399567 31.8732
4405 1 3.69809 11.6618399567 30.7314
6279 1 8.72881 4.4958399567 25.5467
4677 1 4.77752 6.4828399567 28.7045
1415 1 14.7727 6.6858399567 28.0518
4293 1 0.2941546505 8.5318399567 26.1567
4399 1 10.5117 3.9518399567 29.4653
5564 1 2.7670546505 7.4938399567 30.7052
5116 1 1.39636 9.9148399567 30.4188
5781 1 9.47089 10.9578399567 31.3999
800 1 1.02543 3.3648399567 28.4071
7681 1 11.3691 9.5758399567 29.7661
3442 1 10.3607 13.5538399567 28.0556
1457 1 14.8345 11.3608399567 28.4268
5914 1 14.9053 5.3658399567 25.5079
7367 1 12.1068 6.5458399567 27.435
2886 1 14.5401 4.7660499459 30.1923
3953 1 6.00139 4.4888399567 30.4045
7268 1 13.9945 9.0978399567 29.5476
6179 1 8.51561 8.3308399567 27.9125
325 1 2.95608 9.4088399567 27.0544
4530 1 9.84366 2.6600499459 31.9633
4787 1 15.9068 11.6398399567 25.8168
4153 1 2.56584 3.6428399567 25.9863
1028 1 11.6844 11.5056299675 23.8133
5522 1 10.34 7.7376299675 23.8949
436 1 -0.134516 10.5886299675 24.153
3854 1 5.35594 9.1268399567 32.4616
6516 1 9.96318 14.9036299675 23.8937
3671 1 7.93079 6.4398399567 23.6368
7128 1 1.46614 1.7700499459 36.7963
6944 1 8.01147 3.6780499459 33.9365
3736 1 9.25499 3.8292599351 40.8509
409 1 5.02613 2.5590499459 35.4591
2815 1 3.41051 1.4410499459 38.8506
7375 1 0.403528 10.7278399567 32.8234
1566 1 9.15714 1.5580499459 35.4394
7401 1 11.8391 2.8750499459 40.2561
2240 1 5.96849 2.4580499459 38.2783
7663 1 11.2204 3.2830499459 36.3744
5645 1 3.24899 4.3738399567 32.8821
4900 1 2.55354 3.9330499459 35.5526
2663 1 11.9849 3.4168399567 33.659
7172 1 1.19719 5.7092599351 41.1155
5792 1 8.35799 1.1780499459 40.6847
4345 1 8.13357 0.6030499459 37.833
6739 1 12.203 1.1830499459 37.9881
4425 1 5.45111 3.6882599351 40.8539
5578 1 15.4784 3.7170499459 40.3814
7629 1 5.50776 11.1940499459 41.0249
909 1 16.0579 1.9148399567 32.7028
3210 1 6.88127 4.6530499459 36.3901
3367 1 -0.0773453495 2.2882599351 41.0969
4100 1 13.429 4.9510499459 36.8249
4797 1 6.37303 8.9490499459 36.5624
1348 1 7.42724 7.8100499459 40.5739
3823 1 13.6548 5.4810499459 32.7322
1467 1 11.5586 9.5060499459 32.7814
343 1 13.3744 5.3190499459 39.6297
4312 1 9.2109 10.6158399567 34.285
3800 1 2.34658 10.6230499459 35.0642
7753 1 1.3328 9.6680499459 37.8289
3166 1 8.84827 6.2810499459 33.5186
1993 1 10.3472 7.2150499459 35.7167
2605 1 15.6917 3.5990499459 36.3267
6653 1 7.40767 5.1520499459 39.3211
2971 1 0.054338 4.5380499459 34.4862
6012 1 5.50806 2.8428399567 32.6784
3699 1 13.8355 7.5880499459 37.9416
4420 1 1.62955 7.9760499459 35.3844
4642 1 13.3012 7.3760499459 35.0752
4175 1 9.55362 5.2350499459 37.507
6361 1 10.688 6.2480499459 40.1338
1538 1 4.99796 6.6770499459 35.8024
733 1 2.63875 6.0320499459 37.1671
3062 1 7.45408 8.6320499459 33.9679
3587 1 3.53401 7.1010499459 33.4832
2678 1 3.49029 6.9120499459 39.741
7756 1 12.3527 9.3730499459 39.47
6547 1 9.64891 8.9900499459 39.6548
3329 1 4.40449 11.5398399567 33.5841
3505 1 2.62373 3.1970499459 41.0241
7410 1 9.1914 9.3940499459 36.9085
6003 1 5.9022546505 11.5540499459 36.0451
2042 1 13.6527 10.1280499459 34.5978
3177 1 12.7084 11.0120499459 37.2269
2804 1 3.70927 11.0840499459 37.9328
7688 1 5.2487 9.0130499459 39.2176
1402 1 -0.1945453495 5.5252599351 37.2103
5598 1 15.8434 1.3230499459 39.1753
1423 1 1.17216 8.6012599351 40.3501
4062 1 1.08286 2.6360499459 32.5402
7907 1 8.46308 11.3930499459 40.2894
1027 1 10.9476 0.2862599351 41.1353
531 1 10.2223 12.0730499459 36.5346
6325 1 14.5298 1.0590499459 36.7177
6560 1 13.6445 1.4398399567 34.1482
2139 1 14.0037 -0.3977400649 47.3098
421 1 1.4198546505 -0.5047400649 42.9651
1940 1 4.31166 0.4132599351 46.4577
7491 1 4.04866 0.2142599351 43.7403
6272 1 7.89063 0.5762599351 47.7107
1215 1 8.99471 0.5952599351 45.0253
3839 1 15.1564 0.3360499459 42.7608
1159 1 11.5143 0.8232599351 46.5232
2134 1 6.08777 1.5800499459 42.3885
2372 1 11.541 1.6822599351 43.7967
4065 1 6.29836 -1.2977400649 49.1217
3719 1 2.40705 1.8362599351 48.047
7133 1 0.495929 2.0292599351 44.0531
2289 1 12.8971 10.0502599351 45.8429
5927 1 10.1424 -1.1867400649 47.7848
2359 1 1.61515 -0.0287400649 50.0496
1923 1 10.4739 5.8302599351 45.758
4770 1 13.7967 3.0970499459 42.4943
1636 1 7.40591 2.9882599351 44.5189
220 1 3.06828 2.9342599351 43.873
4018 1 5.95603 2.5262599351 46.8461
962 1 10.4378 6.7762599351 42.9335
2292 1 13.1667 1.0722599351 49.871
6234 1 0.0594546505 5.2242599351 49.154
3248 1 5.16478 5.8852599351 47.6176
5026 1 3.01911 5.9432599351 43.3646
2343 1 9.28637 2.6772599351 48.7172
2798 1 11.9611 3.1802599351 48.3354
2978 1 4.64153 2.9072599351 49.5743
305 1 3.41552 4.1062599351 46.5851
5354 1 14.7154 3.4042599351 49.2051
7322 1 15.1469 3.5862599351 46.4143
5677 1 9.81843 4.0372599351 43.6243
6103 1 12.497 3.8462599351 45.634
5804 1 7.14826 4.3522599351 49.0272
6629 1 1.23784 5.7292599351 46.5897
5754 1 6.97999 5.8942599351 44.3697
7376 1 7.8676 6.3922599351 47.0676
2043 1 5.31119 6.3092599351 41.9359
7047 1 11.5649 5.7282599351 49.5532
5100 1 13.1714 5.7442599351 43.4864
207 1 13.1936 -0.6457400649 44.477
5996 1 5.22131 9.1952599351 43.2327
4631 1 11.8296 -1.5497400649 49.9365
148 1 5.35256 9.5522599351 47.1405
6121 1 1.1453546505 7.8202599351 44.3815
5995 1 14.6592 7.0790499459 41.6503
7718 1 13.507 8.6912599351 49.363
6772 1 14.428 6.1672599351 49.9941
6715 1 4.64087 7.4102599351 45.276
7856 1 14.1234 7.5112599351 45.4487
4534 1 3.76937 7.3822599351 49.6507
1367 1 1.26753 7.9082599351 48.6118
1528 1 0.0077546505 1.4972599351 46.6449
1951 1 11.9631 7.5672599351 47.2881
4194 1 2.50121 9.5892599351 42.8684
4547 1 8.08625 8.5332599351 43.244
7321 1 8.04897 9.0042599351 46.0734
7092 1 2.53344 8.9782599351 46.5174
1356 1 9.02852 7.2382599351 49.4218
898 1 11.8111 9.1160499459 43.2425
6862 1 14.1144 9.7380499459 41.6576
1310 1 0.37222 4.4144699243 56.5865
2612 1 11.1632 -2.9555300757 57.7225
415 1 6.8398546505 -1.8245300757 52.0544
2577 1 13.3751 -1.6447400649 52.3199
2461 1 0.139154 -2.0025300757 56.0547
4673 1 -0.1717453495 -2.2605300757 58.8145
7216 1 4.23258 0.2452599351 50.4969
1224 1 15.194 -1.5497400649 54.517
7095 1 12.9104 -1.1035300757 56.2531
5752 1 4.69279 -0.9945300757 58.1193
1775 1 7.7403 -1.2185300757 55.8493
585 1 11.257 -0.7667400649 54.0507
326 1 10.2335 -0.5895300757 58.8058
2560 1 4.15583 -1.3035300757 52.915
1553 1 1.55102 0.1674699243 52.8157
1234 1 5.04712 -0.1325300757 55.4368
3942 1 15.5036 -0.1247400649 51.2406
634 1 7.47226 0.7922599351 52.507
6190 1 0.844917 0.6794699243 55.5968
4037 1 9.17581 1.1024699243 54.7916
2958 1 12.0428 1.4734699243 52.4465
7764 1 14.8592 1.3382599351 53.5407
1631 1 12.0781 1.2464699243 57.7987
6006 1 3.23181 1.9695328555 54.5129691582
5069 1 9.57993 2.4052599351 51.4527
2068 1 14.0133 2.5624699243 56.0233
5874 1 0.398553 2.4652599351 52.0831
3147 1 5.18872 2.2634699243 52.395
1966 1 6.56193 8.3392599351 51.8973
7381 1 6.74686 2.1344699243 55.7769
7266 1 -0.2856453495 -2.0115300757 53.1002
7258 1 1.2864546505 2.0754699243 58.1286
6551 1 10.2291 2.9734699243 57.1639
5056 1 11.3453 3.0884699243 54.568
3987 1 7.4461546505 -0.4665300757 58.613
1964 1 7.80741 2.3864699243 58.3824
2776 1 15.5483 -1.4485300757 57.6579
5958 1 3.26461 3.7574699243 56.629
5406 1 9.64503 4.8504699243 52.8439
1117 1 5.73859 4.7284699243 55.5398
2227 1 12.9147 5.6774699243 54.856
2475 1 15.643 3.4334699243 51.8853
6476 1 4.08116 -3.6335300757 57.2163
3640 1 14.7022 6.0084699243 52.782
3422 1 2.05268 6.6064699243 53.7134
4421 1 9.99636 5.7784699243 57.2926
3139 1 3.69173 6.5834699243 55.9833
309 1 8.28152 5.7924699243 55.0351
7344 1 14.8846 5.1604699243 56.6131
5654 1 6.6337 4.8644699243 58.066
4199 1 7.49914 5.8814699243 51.348
1479 1 5.46416 4.8934699243 52.8532
2120 1 1.05827 7.1584699243 57.0973
40 1 11.7182 6.3522599351 52.2584
1609 1 9.16795 -2.4907400649 53.5147
1068 1 3.30241 5.6512599351 51.6246
4931 1 0.281426 4.4704699243 53.8992
1579 1 8.15013 7.1784699243 58.9905
7576 1 14.5221 -3.8845300757 58.2574
2438 1 12.1531 7.4614699243 56.9757
56 1 15.8106 8.4784699243 52.7185
6035 1 1.9545546505 3.7302599351 50.3678
5535 1 0.819352 -4.1403200866 62.9155
3540 1 0.1808546505 -3.1651100974 66.4689
6365 1 7.80827 -2.8049571554 65.6060891582
768 1 10.6041 -3.6563200866 62.5661
645 1 14.6945 -3.9344471662 65.8736791582
1047 1 10.6446 -3.4333200866 65.1967
3812 1 6.15249 -1.9165300757 60.7373
3289 1 12.7505 -3.4025300757 60.1528
3574 1 15.1528 -4.4935300757 63.2313
1146 1 5.0847 -3.2735300757 66.0844
3678 1 3.12847 -3.9995300757 61.5002
1180 1 7.69334 -5.2423200866 64.1183
3993 1 10.3484 -1.0205300757 61.5627
1080 1 7.9125 -1.4255300757 63.0133
5393 1 0.516636 -1.5003200866 63.3663
1733 1 12.7554 -1.8533200866 66.0519
5580 1 13.1607 -0.9875300757 61.4379
7954 1 4.0388 -1.3075300757 62.4778
6197 1 1.7763546505 -0.2815300757 61.1399
2617 1 14.2004 -0.5963200866 64.0659
3381 1 1.30244 -0.6893200866 65.9
4851 1 3.9336 -1.0013200866 65.1959
5370 1 0.39313 1.4251428446 67.7787691582
4508 1 15.968 2.7894699243 60.1042
282 1 0.3873546505 6.4274699243 59.8578
7138 1 6.63416 3.4149428446 67.9695491582
7215 1 14.8115 3.6484699243 62.8409
3857 1 2.49885 -2.3915300757 59.4664
7739 1 10.7904 4.3494699243 59.6728
6809 1 5.61869 2.5764699243 60.5945
235 1 1.65395 4.1504699243 60.4166
4865 1 4.24557 3.2696799134 64.7225
519 1 11.4333 5.6714699243 63.1854
7417 1 10.9349 1.9602528338 65.4289391582
6647 1 2.63864 4.8244699243 62.9868
750 1 8.48397 5.7424699243 62.7182
5656 1 13.6604 2.1224699243 64.9636
2129 1 10.8688 -0.0880471662 67.3694791582
3520 1 3.04854 4.9846799134 66.7779
4701 1 9.12616 3.8156799134 66.8034
3323 1 14.0214 4.9676799134 65.9412
769 1 0.5498546505 2.1354428446 62.1640891582
7669 1 0.217464 5.5864699243 64.1542
6057 1 8.05405 -0.0103200866 66.8543
777 1 10.0426 1.6234699243 62.7414
2565 1 7.64232 1.0764699243 64.1759
1738 1 5.15385 1.2784699243 62.8942
4849 1 7.29013 3.9956799134 64.5391
7582 1 13.423 1.4664699243 60.1768
612 1 8.60126 3.2484699243 61.1097
396 1 15.6893 1.7726799134 66.8295
6005 1 12.1421 3.1334699243 61.9975
7671 1 1.89124 1.8614699243 64.6171
5398 1 5.49412 1.2243428446 66.3734891582
5080 1 0.46991 3.6526799134 66.2255
4828 1 15.776 -1.1225300757 60.5951
5584 1 4.1869546505 4.5814699243 59.3093
5833 1 3.62072 0.9984699243 59.469
3012 1 13.8208 4.7734699243 59.4057
6337 1 10.6132 24.4811099892 2.52943
2302 1 8.91499 28.1732099892 4.92943
3035 1 5.70629 30.8468099892 3.41519
4713 1 9.13759 31.3920370688 -1.7887691582
3656 1 14.0863 24.0996099892 0.314016
3683 1 7.33324 23.508 -2.78059
2992 1 7.97398 26.1281 -2.92102
7510 1 3.73074 27.1945099892 -2.47295
3985 1 6.88889 23.2290370688 0.0357308418
2063 1 0.358571 30.3802099892 -2.0611
3411 1 12.2056 28.1088 -2.40092
5520 1 15.1379 30.6573 -2.30902
3624 1 1.6265 22.3498 -1.46553
139 1 0.835849 24.6583 -2.8974
6791 1 13.4516 26.6734099892 -0.40884
3723 1 1.4858546505 30.3617099892 3.30769
5762 1 13.8393 27.5727099892 2.34001
5625 1 11.1585 27.1126099892 3.29057
5553 1 13.3016 20.2392099892 1.55849
734 1 10.7353 24.0472 -2.43808
4893 1 15.736 26.8584099892 -1.90565
6455 1 6.05072 20.6692099892 -0.900489
2126 1 14.3166 30.1875099892 2.49759
2972 1 8.44513 30.4906099892 3.42202
2225 1 3.73524 29.08 1.96231
5121 1 13.3473 23.2557 -2.17126
2526 1 3.9861546505 23.5370099892 0.180477
5229 1 3.8315546505 26.305247058 1.0758308418
1907 1 2.33458 25.3994 3.12557
6468 1 1.10454 24.0599 0.841317
5906 1 4.68099 28.1751099892 4.46444
1870 1 4.59734 24.5400370688 -2.3783691582
657 1 6.9612 26.5828099892 3.80419
2814 1 1.77414 27.7281099892 4.6672
3514 1 6.78745 29.8532 -1.17658
7110 1 11.2326 30.2470370688 -0.7671691582
2542 1 4.09987 29.3070099892 -0.898985
3396 1 9.55014 23.5944099892 0.0886341
889 1 1.55319 26.3484099892 -0.75389
6796 1 9.68915 28.8790099892 1.4462
3682 1 6.60822 25.9188099892 1.05243
3910 1 10.7428 26.4073 0.442457
5771 1 8.19238 27.5231099892 -0.508326
3707 1 7.43693 22.3080099892 2.7497
3957 1 8.51561 24.3286099892 4.43185
6040 1 10.9624 21.1880099892 0.171651
7094 1 0.447335 21.9015099892 2.35914
6942 1 14.9206 24.1949099892 3.83332
5845 1 14.831 26.8824199784 4.76358
1686 1 11.6712 21.3954199784 4.94945
3322 1 6.84144 20.3296099892 4.78352
288 1 3.60537 23.4364099892 4.47931
3324 1 4.58383 21.6806099892 2.42738
6891 1 12.8611 22.7833099892 2.70286
4158 1 2.3541546505 20.7391099892 4.30967
3595 1 2.70451 31.8714 -1.51101
2893 1 9.87428 20.8561099892 2.69719
6 1 16.0648 25.6127099892 1.59917
6972 1 11.6536 31.0980370688 1.9685308418
7061 1 12.3277 28.2640099892 5.74617
2661 1 5.89189 24.452247058 5.6342308418
462 1 15.9682 30.6881 0.375079
6105 1 4.09369 27.6864199784 10.6419
4278 1 2.3215546505 27.4124199784 7.29775
4915 1 11.5009 27.9544199784 10.203
3927 1 8.36341 25.7594199784 9.00777
7303 1 5.2822 26.9224199784 7.15389
5976 1 12.3533 26.3694199784 7.79715
1727 1 10.7301 18.5214199784 11.2771
3648 1 1.58675 26.7624199784 10.1097
3651 1 9.69516 25.8894199784 6.70292
4218 1 14.697 24.8094199784 6.78304
782 1 6.6314 29.1904199784 8.18819
7076 1 15.1353 19.5864199784 10.9462
4433 1 4.49312 18.4244199784 12.4597
194 1 5.6488 25.6384199784 9.55554
1192 1 15.6782 20.8414199784 7.64532
4025 1 5.02778 21.3354199784 13.2498
6071 1 3.4588546505 19.3594199784 9.74997
2547 1 9.94966 21.3614199784 13.5136
7767 1 11.7172 23.7964199784 8.75678
4660 1 4.22 20.0265099892 6.20389
5040 1 3.94655 27.8046299675 13.3823
4553 1 6.39618 25.3934199784 12.1916
4608 1 12.5385 26.3944199784 14.3673
1429 1 13.3272 22.3294199784 6.89256
4795 1 2.46199 21.8194199784 12.354
4575 1 1.88454 23.9944199784 10.768
1803 1 2.2734546505 24.5612099892 6.72434
3523 1 8.9083 28.4004199784 9.52729
2953 1 7.03822 22.1950099892 6.78722
1459 1 8.78219 26.7014199784 12.7749
3868 1 13.1415 20.4764199784 9.15205
7960 1 6.5499 21.2774199784 10.7532
6766 1 0.924425 20.1084199784 10.6628
4653 1 4.37215 25.2404199784 14.1806
4841 1 4.96831 21.3888099892 8.46385
972 1 12.3713 25.6924199784 11.7201
1485 1 9.78618 22.9884199784 6.68295
3327 1 1.7824546505 24.3084199784 13.5585
5903 1 14.1021 28.3794199784 9.13713
2441 1 13.0985 18.9194199784 12.5685
3687 1 0.127177 19.3264199784 7.96921
5768 1 8.06948 23.1724199784 12.3005
2022 1 10.1684 29.3302099892 7.25464
6484 1 8.68372 21.3010099892 8.881
7406 1 8.60403 18.8144199784 13.1388
817 1 13.1748 22.8614199784 11.1246
142 1 10.7261 21.1874199784 10.7336
7235 1 3.76607 23.7798099892 8.85241
7450 1 6.98893 18.5064199784 10.9868
3668 1 12.9029 21.6134199784 13.7952
6543 1 15.952 23.5684199784 10.8672
654 1 9.96994 24.7084199784 10.9695
5751 1 14.9219 26.2964199784 10.9167
2248 1 0.2555546505 28.2604199784 11.8239
5060 1 14.388 30.3124099892 6.24541
2681 1 0.0268746 21.1118099892 5.98212
1659 1 -0.220103 22.5554199784 9.83562
5557 1 1.2732546505 28.3004199784 14.6017
430 1 10.5977 28.6044199784 14.218
4197 1 -0.2517453495 23.5894199784 7.15452
2071 1 8.06624 18.6841099892 8.33855
3376 1 15.5219 20.8776299675 18.9692
3143 1 13.6032 19.7016299675 23.0271
1376 1 11.394 25.8116299675 18.5065
2159 1 11.5321 19.7396299675 17.4679
1584 1 5.3064 19.8676299675 18.8379
4578 1 11.5161 20.1456299675 21.2347
3066 1 6.41046 23.3154199784 14.9153
7224 1 9.48394 20.6686299675 19.3914
1462 1 3.44966 21.1626299675 16.9474
6135 1 7.59141 22.6966299675 18.5894
7997 1 14.8378 22.3116299675 15.7131
7909 1 1.30076 25.8734199784 16.1689
1905 1 1.4804546505 22.9846299675 20.4487
7547 1 14.034 25.9996299675 17.5792
2674 1 11.1716 15.9416299675 20.6552
4665 1 8.3604 21.6074199784 16.0737
3583 1 1.4218546505 22.9236299675 23.232
2391 1 7.91882 26.6936299675 17.8987
5600 1 5.47296 24.4456299675 22.3288
7643 1 4.2298546505 26.1316299675 16.7916
6354 1 11.1669 22.1104199784 16.1536
6124 1 5.10836 23.4264199784 17.4066
5366 1 3.82176 26.6146299675 19.4943
1890 1 13.9068 23.1556299675 18.3814
4814 1 6.37685 26.3916299675 20.3565
4099 1 6.04453 21.8146299675 20.8456
4930 1 10.4678 25.4866299675 22.03
7721 1 8.90494 24.7906299675 19.758
5228 1 4.04514 23.8234199784 19.9757
5058 1 11.1759 22.9226299675 19.0926
4335 1 14.225 24.3996299675 20.9675
7778 1 7.27231 19.1056299675 15.5901
6565 1 13.409 19.2016299675 19.4551
6046 1 2.27 20.4346299675 19.3982
5741 1 9.95065 17.4174199784 16.9489
3625 1 4.5414 19.2544199784 15.1992
6585 1 12.0425 23.0206299675 22.0355
915 1 7.9077 20.1216299675 21.8785
3895 1 5.60867 18.4246299675 22.3636
1788 1 1.49175 21.6186299675 14.9946
3409 1 3.72348 20.5736299675 22.0003
3907 1 13.2403 19.1854199784 15.5208
5799 1 1.9872 26.6606299675 21.4806
425 1 13.6549 16.5296299675 19.4774
3230 1 7.86004 18.8676299675 18.3229
7556 1 7.84716 16.8976299675 20.364
1591 1 13.0083 26.9296299675 21.4772
7824 1 1.39177 19.2546299675 22.6192
5279 1 10.6401 24.8224199784 15.9508
5469 1 9.92593 18.1156299675 22.0936
1346 1 0.1870546505 27.2586299675 18.2814
3266 1 1.92297 17.7676299675 20.1912
6052 1 4.94055 17.2516299675 19.7969
7879 1 7.99415 24.4526299675 23.3928
5701 1 15.0263 25.1634199784 15.1195
1925 1 3.64432 16.1966299675 22.1021
6240 1 -0.287938 25.4856299675 20.2931
333 1 8.20697 25.5396299675 15.3601
459 1 15.8942 19.8134199784 16.4245
7106 1 0.8572546505 16.8536299675 17.6269
4093 1 15.836 16.1896299675 21.0862
2606 1 -0.1264453495 23.4554199784 16.5119
834 1 15.8823 20.3546299675 21.7869
3537 1 0.7439546505 18.9336299675 14.7699
2490 1 8.24229 15.5388399567 31.7245
6327 1 15.4103 23.4676299675 25.2555
7900 1 1.32367 24.3998399567 27.4896
3639 1 9.83063 19.0328399567 32.2182
629 1 14.0126 23.5626299675 27.7421
2816 1 0.7487546505 25.4958399567 23.8969
2701 1 3.2804546505 25.0578399567 25.5244
73 1 6.41646 21.6536299675 25.4367
3859 1 9.24046 24.2798399567 28.1841
7654 1 4.04151 24.7878399567 28.2746
1740 1 10.6793 23.4306299675 25.6514
3216 1 3.72961 20.7098399567 26.3891
3555 1 1.0669546505 21.4956299675 26.5774
4282 1 6.45441 23.7988399567 27.0462
5868 1 1.2423 14.8858399567 27.2413
5320 1 14.4468 23.9168399567 31.9223
7560 1 7.48088 26.0638399567 25.5414
7425 1 9.68446 20.9436299675 26.5597
5745 1 11.5719 22.5448399567 28.4225
3194 1 5.2483 19.6698399567 30.2651
2596 1 15.5884 16.7336299675 30.6069
134 1 8.7715 21.7716299675 23.8986
5570 1 0.4461546505 13.4728399567 32.4058
7356 1 13.6385 15.1218399567 26.3178
2969 1 1.97691 21.3618399567 30.7751
4010 1 4.09538 21.8058399567 28.9588
7891 1 11.382 20.3648399567 30.1766
6717 1 5.92134 17.1176299675 24.7654
3065 1 8.45656 20.8618399567 29.2369
4757 1 7.16253 18.4378399567 28.6983
6469 1 11.6506 14.2328399567 30.5047
6889 1 11.9278 24.2618399567 30.6642
7863 1 2.87437 24.0178399567 31.7594
2306 1 0.00668251 22.2498399567 29.1796
1498 1 0.784023 19.1498399567 27.8707
1038 1 1.0070546505 16.8758399567 31.1715
6113 1 11.929 17.8628399567 28.9338
599 1 15.5026 15.1068399567 28.1411
6473 1 10.0578 17.6396299675 24.8583
6032 1 11.1792 16.0428399567 27.1308
7157 1 5.25481 15.4708399567 31.6881
3452 1 2.62277 18.6758399567 29.8624
2845 1 7.74646 18.8616299675 25.7883
6881 1 2.59369 14.5068399567 30.744
4592 1 11.7177 25.7996299675 24.6715
6313 1 9.32042 17.4038399567 30.0714
2645 1 15.534 21.2616299675 28.3563
3937 1 13.0139 22.1826299675 24.4397
2541 1 3.3205546505 16.2938399567 28.5288
4776 1 3.71632 17.9806299675 26.2249
2693 1 6.65498 22.9046299675 29.757
3099 1 6.05663 15.9358399567 28.8888
4299 1 4.01237 22.5976299675 24.0648
3325 1 12.8212 16.6108399567 31.1779
829 1 14.2268 17.5556299675 24.8728
4029 1 13.9116 18.9688399567 27.4634
1684 1 14.2092 21.1718399567 30.9036
2339 1 12.0009 19.7546299675 25.5196
3341 1 1.93867 17.1968399567 24.2601
7765 1 6.46739 14.8576299675 26.2046
3866 1 6.19181 21.5068399567 32.2259
5369 1 -0.219568 17.3046299675 26.2189
38 1 9.95026 13.4830499459 32.4557
2775 1 13.1838 12.4100499459 41.3639
1911 1 4.57822 21.3688399567 36.7729
779 1 7.01022 22.7758399567 36.5684
6578 1 5.47327 24.1618399567 32.868
5613 1 3.36926 13.9710499459 37.9281
7464 1 14.4689 22.6550499459 39.3301
4699 1 7.70137 12.6880499459 37.9201
4187 1 1.6560546505 13.2790499459 35.687
99 1 5.84491 14.1210499459 39.2264
628 1 11.1719 13.8410499459 38.5827
3151 1 15.2809 13.8798399567 36.3488
5693 1 10.4873 23.6858399567 33.0745
6069 1 13.9613 13.2340499459 38.7729
4785 1 11.1279 20.2270499459 37.6811
6116 1 6.9111 20.1620499459 39.8704
3613 1 12.9881 23.1840499459 34.4348
366 1 14.9919 15.7780499459 39.4578
3104 1 0.719 21.3730499459 41.1061
7921 1 8.89898 21.3828399567 33.06
2238 1 1.64938 24.0148399567 34.2398
5313 1 12.0227 16.4770499459 35.3164
7592 1 11.4332 13.8980499459 34.6275
2896 1 8.36228 18.7640499459 36.0502
1663 1 1.82085 16.7998399567 33.995
7744 1 12.2278 18.2490499459 33.2042
2428 1 4.16849 17.9140499459 35.5143
4024 1 6.04457 18.8400499459 37.4679
3404 1 11.2081 22.9900499459 36.5515
6097 1 7.84964 17.5890499459 33.6881
7034 1 6.92108 16.7120499459 39.2323
6900 1 9.11307 21.3468399567 35.7444
5193 1 9.80547 20.4230499459 40.3003
4239 1 2.14496 21.7950499459 38.6667
5194 1 13.8712 20.5388399567 33.5741
6264 1 2.3282546505 19.4200499459 36.969
1186 1 8.89907 15.3960499459 37.8147
7793 1 1.3396546505 18.2390499459 39.397
1947 1 13.9328 20.2358399567 36.5555
376 1 11.6745 16.5790499459 39.5553
5249 1 10.4443 17.5410499459 37.1764
7964 1 4.90042 15.2310499459 35.9762
6910 1 1.58072 21.2788399567 33.533
5783 1 7.61995 15.4000499459 35.4156
2511 1 4.15411 20.5730499459 34.0659
4842 1 14.7665 22.9830499459 36.7012
924 1 13.9415 18.4280499459 38.8398
4264 1 1.2803546505 15.5490499459 39.1683
4073 1 14.3673 16.4868399567 36.6571
1702 1 12.6715 20.6940499459 40.1753
5242 1 3.47317 14.3680499459 33.7282
2019 1 0.3523546505 19.1838399567 34.9087
1424 1 9.22926 17.5400499459 40.7403
3550 1 5.29589 18.1928399567 32.7691
4868 1 2.9108546505 12.3440499459 40.4885
5357 1 10.5368 13.1480499459 41.302
5052 1 7.58406 12.9070499459 33.9928
2392 1 14.0 12.8448399567 34.3479
6374 1 4.23146 22.3200499459 40.4559
3356 1 -0.2185453495 14.9658399567 34.6221
2805 1 6.7504 22.9060499459 39.2961
135 1 7.44661 11.2760499459 43.1559
5540 1 9.05665 19.0870499459 44.0774
7828 1 9.78542 21.8470499459 43.0575
7565 1 11.5125 14.5932599351 46.7532
2872 1 1.11489 10.3612599351 50.1016
2680 1 4.5195 20.6792599351 47.7626
4506 1 7.09606 11.3812599351 48.7883
6269 1 3.30627 11.9372599351 48.8615
7880 1 13.9831 14.2332599351 47.9904
1497 1 4.92584 15.4072599351 49.2508
3738 1 10.9413 14.3952599351 49.5256
739 1 7.34895 18.1372599351 46.2775
2140 1 9.89821 16.9210499459 47.0832
5942 1 9.91747 12.5232599351 45.9078
3120 1 0.219698 15.8212599351 47.8498
1999 1 3.17609 12.3950499459 43.4007
7065 1 6.15319 16.6320499459 44.1667
5746 1 5.04534 14.0700499459 41.8789
3219 1 15.7963 11.4140499459 43.3965
2926 1 14.9521 16.1972599351 49.7859
57 1 6.90103 19.4362599351 48.8398
1417 1 4.46955 13.5980499459 46.8755
1532 1 9.3674 15.3840499459 42.5695
591 1 9.3320546505 10.0202599351 49.7491
4431 1 10.3395 9.9952599351 47.1956
2616 1 1.55697 13.7182599351 46.1392
3831 1 0.317541 12.4782599351 44.0542
4623 1 15.3263 12.6262599351 46.1252
192 1 2.7021546505 18.6402599351 47.4678
1662 1 1.53459 16.6140499459 43.7922
69 1 14.3132 17.9452599351 47.7175
4031 1 0.9129546505 11.2282599351 47.3357
1872 1 2.3387 16.7372599351 49.68
329 1 4.63914 16.6152599351 46.6952
7661 1 13.2451 15.2252599351 44.5603
5992 1 3.6771 15.0310499459 44.4046
1306 1 13.1731 12.2750499459 44.1925
7742 1 7.29479 14.1542599351 43.7141
7396 1 10.3684 11.4870499459 43.4882
7445 1 10.9799 16.9952599351 44.3714
4960 1 14.8057 14.6690499459 42.068
2442 1 15.3892 19.7932599351 49.7522
5851 1 7.33762 13.1042599351 46.491
3432 1 7.45013 15.6042599351 47.8739
6375 1 12.8896 16.9280499459 42.2285
7808 1 1.18278 19.2800499459 45.0211
3559 1 15.5771 15.7272599351 46.1767
908 1 14.1686 19.2750499459 42.2308
5106 1 10.99 18.8212599351 49.0702
2394 1 5.57058 20.9350499459 42.5143
5423 1 15.115 10.4882599351 47.8899
5876 1 2.7717 20.5090499459 43.0436
5586 1 6.1109 20.6992599351 45.353
7518 1 7.16249 18.6382599351 42.189
6472 1 13.696 20.8772599351 45.4452
2246 1 5.19444 11.4140499459 45.0439
5417 1 12.035 18.8002599351 46.4415
939 1 12.7124 21.6220499459 42.927
5854 1 0.679561 19.9702599351 48.892
2817 1 10.115 21.0562599351 45.9657
4063 1 14.1957 12.2952599351 49.9444
5940 1 2.5741546505 18.1170499459 41.8294
4470 1 4.9473546505 9.8332599351 50.0481
1307 1 15.9096 19.1370499459 44.3633
7331 1 -0.160735 15.5970499459 41.7436
5531 1 0.3478546505 11.2770499459 41.5318
4248 1 5.07597 16.7682599351 41.4546
3357 1 8.30654 9.6574699243 57.6362
7014 1 8.779 9.8974699243 52.5564
4838 1 13.4042 16.9774699243 58.5079
4414 1 5.56752 8.5034699243 54.5855
4331 1 12.8447 20.4422599351 50.6126
1961 1 4.82374 11.2584699243 54.324
1840 1 10.7445 9.6504699243 55.8608
2505 1 4.46526 10.8354699243 57.0579
596 1 1.89988 10.0134699243 56.6513
6333 1 5.67282 8.3054699243 57.6137
573 1 8.38271 8.5034699243 54.9838
2497 1 1.4375546505 9.2364699243 53.9451
1930 1 4.1769546505 15.5674699243 53.3866
4495 1 6.71631 16.6334699243 58.3802
1232 1 6.98307 12.2004699243 57.8785
449 1 15.0687 14.2074699243 51.7648
5805 1 12.1802 16.6882599351 50.4299
1170 1 8.76241 18.2352599351 50.6555
1382 1 0.5809546505 14.8834699243 53.949
3612 1 8.38653 19.0772599351 55.09
5691 1 5.19564 19.4602599351 51.1722
3787 1 10.0057 12.5032599351 52.8656
1958 1 8.41724 15.4212599351 50.5786
6893 1 7.61942 13.4874699243 55.4648
6316 1 12.7108 12.5704699243 57.7476
6570 1 7.18313 12.1312599351 53.1672
905 1 11.5371 8.8802599351 53.0867
6411 1 13.556 10.1882599351 51.8986
6706 1 14.7074 16.6604699243 53.3079
3519 1 9.79013 15.3684699243 53.0441
5683 1 11.9825 17.2842599351 53.0491
3087 1 7.58864 16.7924699243 53.9615
5359 1 2.3015546505 18.7412599351 51.757
4444 1 10.1782 14.6074699243 55.643
3802 1 6.1625 16.9152599351 51.5761
803 1 2.25792 17.2304699243 54.224
7502 1 0.5712546505 12.3744699243 55.6889
6613 1 6.55231 13.3072599351 50.7034
2470 1 4.02983 13.8884699243 57.1848
1598 1 0.9894546505 14.8822599351 51.236
290 1 11.7955 16.9032599351 55.9214
6993 1 2.98264 13.4464699243 54.7138
6452 1 9.42811 16.5524699243 57.751
3650 1 13.9487 10.2794699243 58.4393
5608 1 11.6253 12.2854699243 55.1407
5917 1 4.09851 17.9994699243 56.2733
3337 1 14.0108 12.5694699243 53.6671
1398 1 5.74765 15.5804699243 55.8343
6373 1 3.68792 13.5644699243 51.2396
6303 1 14.6893 14.4604699243 58.1361
3946 1 3.1656 10.7344699243 52.1735
5360 1 2.0322546505 15.4034699243 58.6218
3506 1 1.45758 17.6014699243 56.9818
521 1 13.8909 14.9984699243 55.3605
1222 1 10.0206 19.3012599351 52.9798
3209 1 14.7151 19.1182599351 54.6667
4687 1 0.413865 10.9534699243 58.9087
6519 1 15.1187 7.9214699243 57.268
4200 1 11.4217 11.9472599351 50.6732
1301 1 -0.210702 13.6994699243 58.1247
5732 1 3.08647 12.0004699243 59.2402
1895 1 1.07536 8.2286799134 64.8295
1179 1 1.60107 11.1919428446 67.0992191582
1642 1 12.5478 9.3816799134 66.0413
1779 1 11.515 16.6626799134 64.9119
902 1 6.10114 14.4716799134 67.3721
5887 1 6.67442 10.3726799134 61.9952
6769 1 7.96164 7.4826799134 64.787
140 1 14.9641 9.0420428446 67.4893291582
1624 1 14.5493 12.7753428446 67.3775191582
3290 1 15.3468 9.2196799134 63.758
6159 1 3.03511 11.2398428446 64.6274191582
5909 1 6.0059 5.7786799134 66.5426
3713 1 5.04488 8.0896799134 65.0717
7615 1 10.5192 9.6754699243 62.0231
4938 1 5.93692 10.7916799134 64.734
2574 1 2.88965 7.7836799134 66.8534
1639 1 2.9324 17.0836799134 65.0303
3009 1 12.8428 10.4763428446 63.5560891582
7951 1 8.83656 10.2826799134 64.141
5780 1 14.1387 15.3034699243 64.6939
3118 1 5.87884 11.7689428446 67.1897391582
2231 1 9.38037 6.5316799134 67.2046
5475 1 11.7844 6.7914699243 65.9177
7276 1 9.66872 12.6486799134 65.6784
5733 1 6.82276 7.4724699243 61.4327
3455 1 10.2696 7.0176799134 60.9595
7191 1 4.88143 13.1046799134 63.3496
3354 1 5.18119 15.4556799134 64.6992
4066 1 12.2706 8.5614699243 59.8203
6999 1 4.18835 7.0118428446 62.6962691582
6189 1 7.03128 13.0824699243 61.532
2224 1 12.6891 12.8936799134 65.4203
5269 1 2.47031 9.2456799134 62.7889
5703 1 8.77695 15.0697428446 66.6787991582
1730 1 4.41472 7.2814699243 59.8073
6463 1 1.08832 13.1576799134 64.2396
1302 1 12.5602 12.6844699243 61.8175
7083 1 1.0647 14.9074699243 62.0195
5743 1 10.5323 10.7306799134 67.6238
4954 1 4.16435 10.0784699243 60.7483
6858 1 8.76964 11.0964699243 60.0513
5950 1 10.9776 14.2654699243 63.5379
1901 1 1.5573546505 17.2924699243 60.6106
2362 1 10.813 12.9444699243 59.6062
7958 1 7.21144 17.3586799134 61.009
4480 1 0.46937 15.8494699243 65.3456
7167 1 7.81127 16.6254699243 64.5608
2841 1 3.5916546505 14.1895428446 60.8808691582
1820 1 14.8806 13.7424699243 60.9544
6485 1 0.378118 9.0126799134 60.8403
6176 1 11.956 17.5184699243 60.9466
5985 1 4.79996 16.4454699243 62.0241
687 1 14.1005 16.2544699243 62.1415
3529 1 10.1863 15.5254699243 60.0224
4148 1 8.49027 15.2974699243 62.3078
5460 1 14.3659 7.1064699243 60.709
1057 1 14.211 6.4014699243 63.4482
899 1 5.88264 14.2086799134 59.388
6151 1 9.48321 32.8697099892 2.48241
4359 1 11.8312 38.0117099892 4.94533
1258 1 12.1266 35.667 -0.0649303
956 1 15.4997 31.9612099892 4.32745
6835 1 4.36352 41.6414700108 -2.8959
5126 1 1.1254546505 35.2147099892 3.34825
4546 1 2.9578546505 36.2598270796 -2.6940691582
1160 1 14.8577 34.2200370688 -2.7604691582
3394 1 15.1747 40.7457099892 1.76494
5298 1 7.29129 35.6557 1.97193
4473 1 1.0388546505 38.4058 -1.86451
1606 1 14.6327 41.9093 -1.83558
4974 1 2.1470546505 36.9901099892 1.53677
2730 1 13.1132 39.4238 -2.03207
7710 1 1.15991 40.1051099892 4.95983
4336 1 5.22814 39.5964099892 2.96484
3056 1 11.8452 30.9347099892 4.7966
2435 1 10.0548 39.3831 2.00643
273 1 6.32683 34.5450370688 -1.7465691582
2113 1 11.8168 34.8518 2.83041
7456 1 5.569 37.6546099892 5.07306
5787 1 7.79903 40.7282 3.27966
3040 1 9.60059 36.8929 3.40024
3109 1 2.1159546505 42.1073 -1.34082
4759 1 13.1762 33.3743099892 4.85818
3157 1 3.44735 41.5868099892 2.46771
3079 1 2.90894 38.2958099892 3.88055
5592 1 10.7624 41.0058 -1.23878
1316 1 4.79906 40.0090370688 -0.6639691582
5311 1 9.52458 35.7582 -0.793236
440 1 14.0022 36.5552099892 3.8057
2155 1 4.28279 35.9040370688 -0.2581691582
5158 1 12.5961 40.0316 0.768457
132 1 14.7763 41.7424099892 4.44885
5231 1 6.38203 42.3103099892 -0.117966
3276 1 8.49646 38.2487099892 -0.223783
583 1 6.04974 37.9147 0.872772
1503 1 2.2034 39.7821099892 0.433912
4491 1 13.6512 37.5291 1.25486
7876 1 8.70758 39.774 -2.55597
3208 1 11.4409 40.7668099892 4.14972
6814 1 8.93489 41.7617 0.826118
4544 1 7.15686 42.076 -2.97761
6362 1 13.339 36.6657 -2.61251
795 1 4.40442 32.9563099892 4.88195
1633 1 8.17844 37.9175099892 5.52782
1610 1 3.8348546505 33.2807099892 0.599682
7628 1 15.6457 38.8041 3.96842
3923 1 16.1029 39.4707 -1.79807
6599 1 8.24933 33.6069099892 0.192497
464 1 15.9617 33.3030099892 1.72083
7283 1 1.21321 34.0650370688 -2.2026691582
5358 1 13.2203 33.232 0.789599
7422 1 9.03161 34.5277099892 4.85707
418 1 6.16134 35.0200099892 4.33061
2568 1 2.57585 32.9247099892 2.9011
2239 1 6.28189 31.7940099892 0.818526
4684 1 12.9236 32.3390370688 -1.9380691582
5900 1 10.9774 42.9840370688 -3.1201691582
1882 1 -0.262805 40.7684 1.65715
2609 1 0.7067546505 31.8023099892 5.66198
7102 1 12.4046 37.9555099892 7.89723
6818 1 12.4456 40.3339099892 9.37214
3361 1 13.6034 39.1904199784 14.0209
5312 1 0.732957 31.1884199784 13.7614
54 1 14.8649 38.5798099892 6.76351
6708 1 15.8384 39.8634199784 12.5104
4750 1 0.884944 39.8518099892 7.69057
6737 1 12.4225 30.6584199784 8.46975
397 1 3.37948 40.1470099892 8.95721
4397 1 6.26795 37.6141099892 11.465
2264 1 8.54917 38.8591099892 9.86335
3496 1 4.01829 37.6303099892 7.46741
5649 1 8.83853 36.7576099892 8.09647
6495 1 2.9944 32.7534199784 14.1193
7490 1 0.1206546505 37.1136099892 7.64364
7141 1 5.04848 30.5114199784 6.26586
4205 1 5.98764 36.2837099892 8.9801
6996 1 4.7735546505 34.2924199784 10.6356
2683 1 6.13283 40.4702099892 10.1537
6047 1 2.60804 30.3033099892 7.31504
3507 1 14.7908 32.2303099892 8.27197
766 1 10.6319 39.7644199784 11.4738
7700 1 2.8479546505 31.1217099892 9.95475
5969 1 13.4332 35.5654199784 13.7908
4222 1 7.66536 32.6814199784 14.5708
6688 1 15.3177 30.4904199784 10.6745
1912 1 5.40342 30.1974199784 10.4826
2563 1 8.24038 37.6244199784 13.3566
3214 1 9.05812 31.8544199784 12.0766
3223 1 13.4863 34.740247058 7.3973308418
6019 1 12.3554 37.6744099892 11.9637
3277 1 10.9137 33.1234199784 7.71278
698 1 13.9335 41.3433099892 7.15087
6068 1 9.99036 33.9964199784 14.0207
4227 1 7.76719 29.3104199784 12.0199
4070 1 15.7917 35.9165099892 6.06674
6544 1 4.5743546505 35.8524199784 12.8882
3445 1 11.0948 35.8205099892 6.56369
5597 1 11.443 32.5114199784 10.4869
7199 1 1.3961546505 37.3134199784 12.0906
1293 1 13.8881 36.4184199784 9.74991
3243 1 2.19398 33.6698099892 9.49232
7130 1 10.1002 36.0674199784 12.031
1792 1 13.4976 34.1304199784 11.3355
2273 1 2.13796 36.6273099892 9.5745
4386 1 1.97384 35.1884199784 13.7371
5912 1 9.5465546505 34.5954199784 9.83734
4325 1 2.38103 33.7355099892 6.76402
7574 1 7.21922 33.0004199784 10.222
3853 1 7.20582 31.9180099892 7.70347
1967 1 7.11891 34.5809099892 6.98045
1508 1 3.86057 38.6970099892 13.0244
65 1 14.0057 30.9424199784 12.9506
1075 1 5.37107 32.2034199784 12.5658
4426 1 15.9721 32.7864199784 13.89
4126 1 11.5432 30.1044199784 12.1414
1403 1 0.299426 30.9554199784 11.0506
4167 1 9.3987 31.7108099892 5.93449
6007 1 2.6087546505 40.5764199784 11.5935
4039 1 16.0918 37.6694199784 10.777
7398 1 -0.0687393 39.8654199784 12.2455
6030 1 2.07396 36.2740099892 5.91154
1821 1 14.3308 28.6344199784 14.3821
2921 1 9.12558 40.5185099892 5.83001
1221 1 16.0126 33.1204199784 10.8806
7277 1 9.49287 40.0284199784 14.1991
5124 1 5.4018546505 29.8724199784 14.5731
3344 1 12.497 32.9454199784 14.6669
2198 1 5.72785 28.5844199784 17.2238
2035 1 11.383 34.6626299675 20.2801
2707 1 14.6674 35.1194199784 19.5986
4936 1 0.824242 31.8426299675 20.385
1585 1 5.49513 31.7436299675 19.2207
6227 1 7.43715 37.1854199784 16.0178
7713 1 8.43483 32.8944199784 17.1747
42 1 3.51238 37.1494199784 17.5088
5828 1 4.20097 26.9166299675 23.4305
7203 1 5.88563 34.9994199784 15.0784
4761 1 14.7347 37.4396299675 21.1454
6155 1 10.2169 38.4164199784 16.3671
3691 1 9.12149 36.4196299675 19.3241
728 1 14.7089 33.5674199784 16.3089
3840 1 11.0908 38.2346299675 20.3601
930 1 1.32182 36.2814199784 16.0413
1491 1 2.41927 38.4794199784 19.6112
7015 1 4.09181 34.4774199784 17.5303
3254 1 9.77688 35.4474199784 16.6244
7930 1 6.23661 37.2624199784 18.5781
4098 1 2.03188 32.0878399567 23.0194
1406 1 4.69895 35.5616299675 21.9249
513 1 1.77751 36.3244199784 21.3744
5672 1 12.8741 37.3484199784 16.2563
4116 1 12.362 34.9054199784 17.6827
3677 1 10.3269 32.0114199784 19.8069
2237 1 10.8363 36.2176299675 22.5609
3499 1 0.1367546505 34.7256299675 18.0035
526 1 13.6894 33.0194199784 21.1063
4788 1 4.04813 31.7544199784 16.5549
1242 1 11.2186 32.3134199784 17.1218
5960 1 4.09803 32.9646299675 21.284
7995 1 2.24359 34.2026299675 19.6814
4985 1 8.25548 37.1896299675 23.3878
3817 1 6.64568 34.4794199784 18.7428
755 1 0.735871 29.1096299675 21.8089
7709 1 1.4418546505 30.6086299675 16.5193
2229 1 15.1952 31.2856299675 17.783
402 1 10.1289 28.3554199784 18.5539
265 1 13.4316 38.5334199784 18.9969
3093 1 8.20123 29.8274199784 14.7838
3901 1 7.89728 32.5236299675 22.5252
7543 1 7.93888 30.7844199784 20.2636
5328 1 11.5349 29.5944199784 16.6283
4042 1 10.4715 28.1946299675 21.3416
7620 1 14.1455 28.7564199784 17.1725
4319 1 14.2581 28.8266299675 20.1062
6557 1 12.266 30.5906299675 21.1285
6559 1 7.40137 35.0654199784 21.4619
2101 1 15.7265 31.2456299675 20.6178
4071 1 7.54174 28.4406299675 21.8529
5288 1 8.13989 30.1104199784 17.5941
5453 1 15.6339 37.1036299675 17.544
3117 1 4.1499 29.3506299675 19.5784
1392 1 4.9295546505 29.5396299675 22.184
5595 1 1.53848 29.3816299675 19.0517
5238 1 3.89467 39.3074199784 15.8656
525 1 4.81931 38.1286299675 21.0692
753 1 13.8916 34.1866299675 23.5591
5248 1 13.9957 28.6006299675 23.543
3399 1 4.5567 35.6166299675 24.5879
6018 1 12.2612 30.0598399567 31.7703
1973 1 15.4176 37.2036299675 25.6645
7358 1 9.37064 36.3476299675 25.8199
2480 1 1.10453 34.4566299675 26.0477
6079 1 13.3981 37.0856299675 23.5965
2748 1 3.44606 33.0936299675 25.3842
6339 1 6.56581 25.5758399567 30.6864
7038 1 0.0140557 34.3306299675 30.9592
3152 1 13.8935 36.5438399567 27.868
3830 1 11.1372 34.5516299675 24.8976
7874 1 6.63713 35.6746299675 26.4916
5797 1 12.0587 34.6178399567 27.5915
2742 1 9.40513 35.1546299675 28.649
6391 1 2.6348 37.6426299675 24.0398
6077 1 4.03788 32.8138399567 31.6495
3231 1 3.3218 30.4668399567 26.4858
2934 1 12.5359 27.9016299675 30.0839
6248 1 4.68083 30.1328399567 30.5811
4878 1 0.4608546505 33.2588399567 28.4343
2492 1 2.63197 35.2328399567 32.1764
4492 1 4.01742 28.4918399567 28.4154
5117 1 6.12929 30.1716299675 25.7888
470 1 9.09844 27.0966299675 27.51
3160 1 14.3778 25.6708399567 29.54
5156 1 7.44092 29.6358399567 30.5302
7263 1 3.46415 36.0586299675 29.5956
3215 1 10.7703 28.1996299675 25.4272
2973 1 6.6319 27.4828399567 28.6183
4418 1 4.56482 34.0818399567 27.8313
7137 1 11.6051 34.3156299675 30.4519
4436 1 8.05629 28.6686299675 24.5556
790 1 0.98912 28.8128399567 26.2102
6965 1 3.76488 26.3568399567 30.5144
3005 1 14.8013 27.8166299675 27.4599
1379 1 5.14315 27.3846299675 26.0056
5742 1 10.1926 26.2766299675 30.1079
4069 1 6.66838 33.4618399567 31.3197
4551 1 13.3387 31.8628399567 27.9203
811 1 8.23502 31.4848399567 26.8012
1708 1 1.02637 25.6458399567 30.089
4903 1 13.9538 31.8946299675 25.1373
2965 1 10.4028 31.8488399567 30.5396
5748 1 14.3057 33.2138399567 30.1788
2200 1 0.9276546505 30.4338399567 30.7408
7411 1 7.22702 33.4838399567 28.509
2589 1 9.68238 32.1526299675 24.6125
4390 1 2.88206 31.9518399567 29.057
3288 1 2.56789 29.3838399567 23.872
1794 1 1.18611 28.3058399567 29.0691
4515 1 9.5605 29.7648399567 28.5056
7827 1 1.52143 36.7306299675 27.784
2918 1 11.9011 30.4866299675 23.9548
5544 1 15.9416 35.1138399567 29.0872
7532 1 12.3209 29.2196299675 27.7321
112 1 -0.13217 36.7266299675 24.699
741 1 15.8408 30.4926299675 27.9297
5588 1 15.2168 27.7758399567 31.4546
3867 1 5.42097 31.7826299675 23.6827
3791 1 8.36506 27.4968399567 32.0223
4887 1 7.43722 35.8968399567 32.4042
2314 1 14.3958 26.3256299675 25.0815
523 1 9.33492 23.2090499459 40.502
3036 1 15.1459 26.8810499459 38.9116
4605 1 11.2255 24.4820499459 38.904
2340 1 7.02361 24.8888399567 34.9489
5524 1 6.5444546505 25.6210499459 39.9898
7496 1 0.670842 24.1898399567 38.3795
2311 1 1.2472546505 26.2950499459 40.1965
7153 1 13.5315 25.0840499459 40.3564
7002 1 4.08497 26.8480499459 40.2448
1082 1 10.1501 35.0268399567 32.9917
1167 1 5.81588 29.0020499459 40.9028
2772 1 14.4326 34.0658399567 33.0144
6819 1 2.87073 29.8290499459 40.4999
3610 1 0.358009 30.0748399567 35.6846
6230 1 3.82373 26.2568399567 37.3426
6335 1 4.3639 34.5478399567 38.1459
5961 1 1.8753 27.8998399567 36.6227
5151 1 9.99388 29.3998399567 33.0888
1569 1 8.10676 27.5238399567 38.7467
5172 1 10.2157 32.6118399567 34.4531
5324 1 10.7119 28.1178399567 35.3737
5445 1 0.5133546505 32.5908399567 37.2866
150 1 14.9771 29.9718399567 33.1626
1878 1 9.39546 25.9498399567 34.1439
5271 1 14.432 25.6250499459 34.339
5178 1 4.53537 34.8658399567 34.4753
2736 1 14.3028 32.9670499459 38.1043
5559 1 6.4927546505 30.9478399567 34.3779
2653 1 3.26825 32.3728399567 37.0073
7190 1 12.9025 31.9358399567 33.8292
4872 1 6.54834 33.0628399567 39.0558
5786 1 4.1547546505 32.1518399567 34.405
993 1 1.0819 35.4088399567 34.6534
6899 1 3.64717 29.7658399567 37.8293
6017 1 6.18678 28.2898399567 33.9611
5549 1 6.28589 27.1618399567 36.4205
1869 1 10.2041 30.7868399567 36.7123
6336 1 8.64105 34.2748399567 36.3379
2765 1 6.26687 29.6428399567 38.1707
922 1 12.8638 31.3268399567 36.4656
4016 1 14.2521 29.1210499459 37.5136
597 1 7.49415 31.7148399567 36.8218
3619 1 13.5263 28.1098399567 34.9621
3150 1 2.0325546505 30.6008399567 33.445
7426 1 8.70152 29.0800499459 41.0436
2552 1 10.5764 27.0140499459 37.9655
3252 1 10.3215 30.8558399567 39.483
7429 1 15.5192 30.8230499459 39.3726
1937 1 12.1322 28.8068399567 39.1614
431 1 1.67483 26.8028399567 34.0795
2354 1 11.0226 33.3530499459 40.7633
7308 1 3.62587 28.2508399567 32.6072
124 1 0.3524546505 30.6240499459 39.467
3316 1 -0.202891 27.9200499459 38.4482
6147 1 0.1772546505 34.4310499459 39.343
3368 1 2.86187 23.8058399567 36.5998
7961 1 8.44178 31.5608399567 32.6015
5464 1 5.2313 26.7202599351 49.2049
5998 1 2.42183 30.9902599351 45.8189
3745 1 4.8075 32.3780499459 46.9915
1097 1 2.92523 26.5790499459 45.6962
3607 1 9.97263 24.5600499459 45.8414
3889 1 6.34178 29.2260499459 48.4487
1766 1 7.81544 22.9052599351 46.2003
5813 1 1.4137546505 23.4460499459 46.923
4179 1 12.2446 22.9432599351 46.6298
1322 1 8.18763 25.4070499459 42.2537
1245 1 7.58165 27.2990499459 46.5383
7363 1 3.6862546505 24.4820499459 41.9886
2070 1 11.7757 27.8060499459 45.2621
1314 1 13.9669 26.1240499459 45.0897
6917 1 11.8483 22.6332599351 49.3171
6674 1 -0.133287 31.3440499459 46.6594
6554 1 10.0931 26.8052599351 47.4378
5463 1 16.0318 27.7850499459 44.8167
1862 1 12.8981 29.2960499459 47.6598
1113 1 2.8164546505 28.8520499459 44.2183
5604 1 12.593 26.7342599351 48.6996
4640 1 15.5949 29.3230499459 47.1199
5113 1 14.3003 24.7342599351 47.4375
3312 1 3.83784 23.4792599351 48.5948
5848 1 9.27968 21.3172599351 48.7962
3596 1 10.8095 24.5070499459 43.3115
3604 1 9.16197 29.0390499459 44.9513
537 1 10.333 29.4712599351 48.6786
7181 1 2.72914 27.8730499459 48.1343
4906 1 0.8396546505 25.0410499459 44.6297
4210 1 13.5899 24.3130499459 42.9436
3971 1 4.68896 24.6340499459 44.5128
2429 1 7.71171 23.6462599351 48.919
6978 1 10.2817 27.4170499459 42.7337
2952 1 3.58171 30.4712599351 48.4601
7630 1 6.5057546505 26.7570499459 43.9826
4233 1 5.75849 24.9950499459 47.1177
1748 1 7.05043 23.1510499459 43.4356
7554 1 1.12682 28.3780499459 42.1518
6173 1 3.3710546505 22.0542599351 45.433
3115 1 0.7777546505 24.1320499459 41.9905
1802 1 8.46636 30.6900499459 47.0014
6722 1 12.9916 30.3050499459 44.8762
6478 1 11.0949 32.1450499459 44.1392
615 1 12.7295 27.5230499459 41.447
673 1 5.41786 29.1628399567 43.7217
6638 1 12.9306 32.0870499459 48.1193
5793 1 6.49114 31.2340499459 45.0793
6701 1 15.4074 31.6880499459 45.6252
1281 1 8.65165 31.0690499459 43.132
444 1 15.1276 31.8000499459 42.0166
4253 1 3.6498546505 32.2600499459 41.8635
7193 1 14.7384 29.2340499459 42.7126
1329 1 13.091 33.4710499459 42.7201
6992 1 0.0350546505 27.7600499459 48.5469
3123 1 9.22934 25.6952599351 49.7837
5650 1 3.71739 33.2440499459 44.586
859 1 15.7253 22.2602599351 47.0088
6668 1 2.90695 21.1482599351 50.1643
3533 1 0.755141 32.8550499459 41.5383
5308 1 6.45782 31.7940499459 41.4869
5101 1 15.9339 30.5010499459 49.809
1868 1 6.86693 31.3142599351 50.27
6824 1 14.37 23.9492599351 50.1782
2393 1 10.9107 22.1502599351 57.7403
986 1 11.8919 30.4574699243 56.4511
1058 1 12.3746 30.0702599351 52.1641
1861 1 2.7496 22.2214699243 57.5438
6526 1 6.0807546505 26.2902599351 58.8683
6084 1 3.89485 20.6984699243 55.5727
3904 1 12.4721 20.6552599351 53.4876
6382 1 14.1234 19.8714699243 58.5238
5824 1 9.78869 19.3744699243 57.7008
4675 1 6.53177 21.3912599351 55.2673
3557 1 9.62975 26.0632599351 58.791
7096 1 15.5504 26.3332599351 51.0627
598 1 1.05133 24.8472599351 51.0838
5923 1 3.02358 31.5552599351 50.8931
3007 1 14.0653 29.7844699243 58.1509
1169 1 2.3540546505 20.9712599351 53.4882
813 1 8.92929 25.4592599351 54.4582
3807 1 6.5175546505 21.4762599351 52.4879
3430 1 8.4675546505 23.6902599351 58.2202
7123 1 13.0581 23.5492599351 56.6658
1185 1 2.83189 26.9582599351 50.7539
646 1 14.9642 22.5834699243 58.2554
6246 1 7.09588 24.0072599351 55.8534
746 1 1.68677 29.1372599351 51.9065
7989 1 9.06864 29.6072599351 54.1442
2226 1 10.5079 26.9222599351 56.1886
1112 1 9.66484 29.7482599351 51.3723
2948 1 3.33222 25.3682599351 54.0797
4594 1 6.41567 29.5444699243 57.2866
4552 1 7.46095 21.0654699243 57.9943
1897 1 15.5286 22.8042599351 52.5978
46 1 12.973 23.4012599351 53.8736
1342 1 13.2889 26.0232599351 53.0099
5898 1 0.0701094 21.3534699243 57.0961
7823 1 -0.245238 21.8502599351 54.4452
216 1 12.0189 28.3952599351 54.3492
2054 1 0.987085 28.5332599351 54.546
2850 1 3.07975 23.2612599351 52.0488
1370 1 5.23666 26.0632599351 52.1809
6383 1 5.50841 28.1912599351 55.1112
2050 1 2.2067546505 24.9414699243 56.7442
6539 1 9.22771 29.4292599351 57.0205
1303 1 1.93297 27.8134699243 57.1091
3447 1 12.3108 19.8472599351 56.3676
7109 1 7.73033 27.8612599351 50.5608
6841 1 5.71529 23.6272599351 50.8063
5143 1 11.6823 24.9682599351 50.7612
1783 1 7.37057 27.4142599351 53.366
6156 1 3.58129 29.8702599351 53.9875
3476 1 0.469502 26.0452599351 53.4235
6754 1 14.5038 28.3184699243 55.6922
4463 1 1.8501 19.7174699243 58.9206
6267 1 5.10245 25.6892599351 56.36
1927 1 9.14539 21.6242599351 51.7029
7639 1 13.1679 26.2714699243 57.0658
4875 1 10.3648 23.7862599351 52.7849
5474 1 5.46933 19.1607328555 58.2757691582
4524 1 4.24469 28.6222599351 58.6526
5030 1 16.0068 30.4162599351 54.826
528 1 16.0822 26.6462599351 53.9023
5427 1 14.0378 28.6442599351 50.4258
820 1 -0.1833453495 24.4232599351 55.4381
5115 1 15.0849 19.9296799134 64.8974
7343 1 10.0979 29.5122599351 61.0094
1291 1 0.477249 20.9396799134 67.0176
191 1 2.65423 25.5344699243 66.15
6945 1 12.6663 20.4284699243 64.0452
5303 1 3.82166 22.7004699243 60.2335
1922 1 15.624 20.4144699243 61.9284
3708 1 4.30898 19.0213428446 66.5543691582
7852 1 6.96389 22.5936799134 67.0547
1216 1 4.31036 20.5004699243 64.2066
2382 1 6.33559 24.0184699243 64.5251
5261 1 8.05628 19.4086799134 64.4299
7449 1 4.4275546505 22.9126799134 68.0849
5550 1 0.209376 23.4751128555 61.1284691582
6029 1 15.3969 22.5354428446 65.9578991582
2173 1 13.9142 24.1814699243 60.2343
509 1 13.2681 24.0716799134 66.5761
2456 1 0.6834546505 25.0156799134 68.0909
1472 1 1.1451546505 21.9576799134 64.5937
1354 1 9.86444 23.2254699243 62.1378
4794 1 4.0692 19.9706799134 60.4921
5723 1 15.3859 17.4054699243 66.0263
2396 1 10.464 23.3694699243 66.4084
3777 1 2.6447546505 23.5457628555 62.7179291582
4541 1 10.0365 25.9114699243 61.627
3494 1 14.3889 24.1794699243 62.9294
6541 1 7.03411 26.6836799134 65.575
3057 1 9.39111 19.1214699243 60.5279
2330 1 3.8829546505 22.9726799134 65.3431
7497 1 9.76908 26.0834699243 65.962
4626 1 8.47022 22.2581428446 64.6493791582
5859 1 8.10339 21.4584699243 60.8341
2290 1 14.0498 26.7474699243 64.2908
1151 1 6.259 19.8184699243 62.2831
7507 1 13.4402 26.8114699243 67.0978
4926 1 0.4164546505 26.9514699243 65.0638
3418 1 0.6007546505 19.6925328555 63.1702591582
1087 1 13.0915 20.2264699243 61.1894
4315 1 11.5116 20.6784699243 66.8079
3877 1 12.1283 22.9624699243 64.0507
5152 1 6.35336 23.7757928555 60.1584691582
713 1 11.7221 22.4372599351 60.3281
3976 1 6.91963 19.7626799134 66.9409
4286 1 9.5155 19.2426799134 67.918
4922 1 10.5846 18.7094699243 63.2861
7050 1 12.9614 28.9654699243 60.6361
4775 1 2.00079 25.0304699243 59.6827
7552 1 0.9623546505 28.1024699243 62.2696
4861 1 2.93322 26.2474699243 63.4138
285 1 11.2836 26.9894699243 63.8197
995 1 6.16947 25.6024699243 62.3337
3958 1 4.09261 26.6482599351 60.8203
108 1 7.96842 27.9299728555 62.1774691582
789 1 14.9778 27.5424699243 61.8165
6078 1 4.5122 27.7629428446 65.4158691582
2626 1 2.94531 18.4764699243 62.6865
2095 1 12.321 26.3864699243 59.7824
5533 1 0.247706 27.3994699243 59.4598
858 1 -0.2405453495 18.2346799134 66.5966
25 1 0.0333546505 20.7758028555 60.8236691582
499 1 3.49794 29.4032599351 61.4672
5980 1 7.9845 28.2424699243 59.3177
4108 1 10.8551 16.9306799134 67.5578
3386 1 4.84185 16.7476428446 68.1118591582
3558 1 9.91407 45.9250370688 -0.4844691582
6203 1 8.32833 48.9922099892 5.33373
1979 1 0.408965 48.7522099892 -0.113705
7821 1 0.913635 50.7430370688 -2.1546691582
2960 1 4.3847 48.9209099892 4.46184
594 1 8.40462 44.3863 -2.32408
3401 1 10.1112 51.5482099892 3.64784
4504 1 10.8546 51.6213099892 -0.105104
3365 1 11.412 48.1174 0.605067
4591 1 5.14511 50.5872 2.22784
6326 1 15.1967 49.1660370688 -1.6847691582
3543 1 0.6490546505 47.6550370688 2.3813308418
3979 1 6.53564 50.0528270796 -2.0757691582
7237 1 7.30909 47.514 -0.822351
935 1 14.2409 50.2689099892 3.74499
3680 1 2.3675 45.6806 1.7519
6546 1 14.2817 45.4148270796 -1.0785691582
379 1 1.59675 49.3809099892 4.31463
1173 1 2.48191 51.5234 2.7437
7598 1 8.63624 48.5682 1.40726
7107 1 11.7259 49.2951099892 3.09336
7760 1 11.8124 45.5701 -2.46769
7382 1 1.69854 44.7254 -2.04547
1516 1 -0.0907453495 45.1984099892 5.16993
667 1 3.64572 50.3120370688 -1.9855691582
330 1 7.25011 52.6591 -1.16457
6398 1 2.50258 47.004 -0.725405
1774 1 9.92999 53.7080370688 -1.6295691582
974 1 11.2573 49.4451 -1.77447
4672 1 7.22211 51.362 4.00194
2202 1 15.0427 51.7347 -0.403563
4076 1 8.41141 51.4361 1.26201
7152 1 5.26103 43.489247058 2.3650308418
716 1 3.89382 53.0501 -0.91062
6660 1 5.76497 53.0010370688 1.3216308418
2125 1 13.0005 52.8464 1.15413
1805 1 4.75907 48.6443 0.272092
1887 1 1.39314 43.2140370688 1.1742308418
2021 1 7.32759 47.2009099892 3.34872
4165 1 0.6222546505 51.7373 0.782845
2409 1 14.1143 47.745 0.523026
7470 1 2.6562546505 42.4214099892 4.89503
7171 1 11.1641 44.9254099892 5.3602
7111 1 10.8171 47.7720099892 4.9515
6344 1 8.78505 45.0494099892 3.8245
62 1 5.09714 46.2163 1.56688
1380 1 2.7902546505 45.2738099892 4.41044
3606 1 6.07355 44.941 -0.91754
6225 1 14.4975 53.1518099892 3.68791
2784 1 2.9727 53.5751 4.49537
6355 1 9.82066 44.2157099892 1.532
2175 1 15.877 49.8663099892 1.4725
5990 1 1.73522 54.2768270796 0.4787308418
7935 1 6.97762 43.0433099892 4.58894
7390 1 13.5423 44.4349099892 4.19743
6609 1 14.7901 46.7033099892 3.02633
2373 1 5.2456546505 46.2952099892 5.08555
2337 1 14.1004 53.0260370688 -2.5940691582
4558 1 11.7935 53.7183099892 3.69538
5711 1 15.8238 48.2612 5.10602
5902 1 9.03097 48.5348270796 -3.0646691582
1778 1 14.5003 43.2423099892 0.623176
5638 1 12.4565 54.8295 -0.878168
3236 1 -0.194007 54.4445 -1.52495
1228 1 6.82858 55.0968270796 -2.4886691582
7945 1 12.2352 42.7592 2.12395
7942 1 4.28126 44.5508270796 -3.0759691582
2746 1 5.90493 50.4030099892 6.44233
7569 1 12.7173 51.8080099892 10.3133
7937 1 12.5013 50.7096099892 7.79087
5024 1 5.09177 50.8633099892 9.84321
4942 1 15.5035 52.0135099892 10.9424
2345 1 7.9066 50.9731099892 8.58393
7791 1 9.94753 51.1285099892 6.56677
6837 1 2.16266 48.7740370688 7.0490308418
6140 1 14.8864 50.6149099892 6.47955
2378 1 4.56541 48.6645099892 8.27038
2986 1 2.05085 51.4932099892 7.70093
1277 1 0.275127 46.4984199784 12.2886
5506 1 12.0453 47.9494199784 7.34224
2217 1 2.43258 51.0724199784 10.5819
7857 1 0.722778 48.8245099892 10.8551
7438 1 2.09948 46.2494199784 14.3906
187 1 11.2818 42.3828099892 6.45399
4320 1 6.48629 49.7834199784 11.9089
7265 1 14.1978 41.5137099892 11.0222
620 1 3.68565 42.5298099892 7.40823
3221 1 10.4955 50.3324199784 10.9505
6580 1 8.38495 48.6254199784 10.0435
4520 1 10.9743 47.0404199784 13.7107
6703 1 4.91321 45.3634199784 13.9843
7844 1 10.0771 49.8074199784 13.5569
6296 1 5.53908 46.0179099892 7.75862
6330 1 7.60287 45.4804199784 13.1264
2790 1 8.09314 47.1563099892 7.6121
7105 1 4.42093 52.6491099892 6.72054
696 1 1.94742 46.0907099892 6.93645
5363 1 6.32252 43.3442099892 7.1989
3239 1 13.5681 50.8176099892 13.0113
1311 1 8.13087 41.4159099892 8.28997
2506 1 0.943705 44.3715099892 10.6174
2982 1 2.6043546505 43.1514199784 12.6406
1259 1 4.62092 47.7611099892 12.4063
4689 1 8.24365 44.1440099892 9.46895
1366 1 3.30839 44.7750099892 9.0341
2186 1 10.7301 42.5023099892 9.20269
3751 1 11.0138 42.6517099892 12.1386
2837 1 12.7315 44.4690099892 9.13748
529 1 11.0048 47.6244199784 10.0406
2576 1 4.64897 44.4434199784 11.3692
6586 1 15.894 47.4491099892 9.69681
3975 1 10.3513 45.7034199784 7.95744
6496 1 2.99485 47.3677099892 10.1822
4352 1 13.501 48.0594199784 13.1519
340 1 14.4901 44.2739099892 6.91236
670 1 6.92249 42.7592099892 11.6602
5400 1 6.60197 46.3664199784 10.6137
7573 1 10.0094 45.3701099892 11.5327
232 1 13.7061 44.2189099892 12.1159
3721 1 14.5577 46.9209099892 7.40068
7388 1 5.96796 40.6853099892 13.18
370 1 8.78418 42.8654199784 13.9287
1465 1 13.4386 46.6523099892 10.872
101 1 7.57279 51.4364199784 13.7374
4186 1 -0.108146 47.6646099892 8.35591
2715 1 3.3250546505 51.5094199784 13.34
4287 1 15.7209 47.2354199784 14.654
7474 1 12.0271 41.2904199784 14.5768
6221 1 15.7763 50.3874199784 14.7613
7122 1 0.2858546505 49.9384199784 16.7159
5527 1 5.76935 44.4326299675 23.2335
7041 1 11.1223 39.9776299675 22.5367
2434 1 7.19752 45.8024199784 19.4071
5807 1 10.8615 44.3774199784 18.1437
136 1 11.1087 44.2004199784 20.9127
6522 1 7.36218 39.9114199784 18.7407
4032 1 12.5045 48.6404199784 22.3487
569 1 3.0973546505 41.7184199784 17.0975
1615 1 8.29178 43.3844199784 18.6487
267 1 13.0716 45.9244199784 22.1309
6020 1 10.1975 48.6534199784 20.8697
3043 1 3.23595 47.8514199784 21.9016
1692 1 9.09131 46.0344199784 21.1248
3781 1 1.90262 43.6774199784 20.5016
2488 1 3.72969 44.4704199784 17.6734
847 1 0.8015546505 41.0074199784 23.4742
3642 1 13.4795 45.1594199784 19.2756
3458 1 10.7123 44.8094199784 15.2357
417 1 2.2753546505 46.3274199784 19.722
6395 1 13.3988 48.3314199784 17.8282
851 1 3.18738 48.9974199784 19.2669
299 1 7.2465 39.3416299675 21.6358
1164 1 6.97512 42.8514199784 16.1597
2892 1 4.74566 44.7444199784 20.4783
3094 1 10.7392 48.4594199784 18.2234
2897 1 1.14811 45.5724199784 17.1291
3849 1 14.3895 45.9994199784 16.7638
4251 1 9.17884 46.4094199784 17.2142
7124 1 6.20499 45.6204199784 16.6179
2465 1 5.80182 49.1454199784 21.9195
3001 1 14.4383 48.7764199784 20.4259
7818 1 5.99668 48.3964199784 19.1542
2587 1 6.1604 48.5974199784 16.3188
3524 1 2.38119 48.1784199784 16.7163
7384 1 0.3654546505 41.6234199784 16.7734
2939 1 3.31009 40.1874199784 22.7044
5470 1 3.46627 41.2814199784 19.9567
369 1 14.2953 41.1584199784 18.4327
5017 1 10.1676 40.0794199784 18.6221
352 1 6.82974 39.9554199784 15.9008
53 1 11.9525 41.7954199784 17.4059
21 1 0.853319 43.7674199784 14.7903
7703 1 15.2165 43.1194199784 19.9917
647 1 6.00395 42.2144199784 19.6865
2080 1 9.74895 41.9104199784 20.8645
3269 1 0.5423546505 43.6046299675 22.8209
4377 1 15.0092 42.3106299675 22.5405
1021 1 15.1022 44.8316299675 23.4116
562 1 7.31082 42.1266299675 22.304
6673 1 -0.0759453495 39.1984199784 18.4817
164 1 4.06935 49.0854199784 14.8092
3439 1 0.7079546505 49.6626299675 20.3483
2967 1 8.39736 47.7044199784 14.7643
1309 1 11.7985 51.2664199784 15.2038
4645 1 13.4169 43.9010099892 14.9723
5260 1 4.48607 42.6124199784 14.7105
555 1 10.4244 46.1284199784 25.7236
4464 1 15.2294 39.8216299675 30.7553
6422 1 0.367248 37.1816299675 31.3959
688 1 0.56418 47.5596299675 24.8454
3453 1 14.8088 45.6266299675 26.0692
64 1 2.06413 46.5236299675 28.1913
2933 1 1.59813 44.9806299675 24.8203
1078 1 4.52789 45.2736299675 27.4688
3730 1 4.73232 47.8316299675 26.0788
6748 1 6.95325 48.4694199784 24.2749
179 1 11.888 48.3114199784 25.1002
3575 1 6.58404 42.3716299675 31.8665
3527 1 5.07087 41.7166299675 24.0934
7938 1 8.14764 46.0824199784 23.7
6994 1 13.0781 38.5938399567 29.2115
5282 1 -0.0199496 42.5206299675 28.597
5952 1 2.2225 41.1388399567 27.1863
4327 1 15.2874 39.9396299675 25.893
5023 1 8.91733 46.0756299675 30.8861
3413 1 4.59576 46.0936299675 31.7561
1514 1 11.6192 40.7296299675 28.2541
1332 1 11.098 41.8986299675 30.7829
5612 1 12.8813 45.9196299675 29.9743
6669 1 8.74103 45.3666299675 28.0617
3605 1 6.00436 38.1156299675 27.3811
3159 1 12.7465 41.9366299675 24.0374
2103 1 9.95666 42.8756299675 27.4007
7183 1 1.98669 46.2666299675 30.8061
844 1 7.21586 39.3648399567 31.5645
7549 1 15.9739 43.4666299675 27.525
1445 1 11.3547 37.9698399567 31.1275
7418 1 10.4039 38.9988399567 26.498
2555 1 8.49558 39.0186299675 28.3324
284 1 13.609 42.1706299675 26.8072
7606 1 1.0206 43.6356299675 31.7701
3091 1 8.91535 42.9536299675 24.5745
6082 1 12.3473 44.8696299675 27.4856
2975 1 8.82454 39.9606299675 24.2558
4168 1 11.0567 44.4918399567 31.4769
3307 1 3.34047 43.1006299675 25.9015
1726 1 8.89713 37.2618399567 30.3645
7023 1 3.29794 38.4858399567 26.605
7064 1 2.75276 42.2296299675 29.9935
5150 1 5.21899 43.2996299675 29.5621
3741 1 6.28357 46.0986299675 29.536
6415 1 6.4062 40.3186299675 25.8428
4905 1 8.48694 41.3018399567 29.8412
6697 1 13.5625 41.4618399567 32.2034
6894 1 6.98343 42.2246299675 27.6514
1287 1 6.91515 44.6136299675 25.9654
60 1 15.1315 45.3018399567 31.2232
8000 1 3.22701 40.0608399567 31.5474
3661 1 12.5754 39.3446299675 24.8848
141 1 4.92768 38.3876299675 30.1434
6250 1 11.364 44.3556299675 23.8063
5915 1 14.1892 48.2956299675 26.6018
4812 1 15.2614 37.5608399567 32.3097
252 1 3.88178 46.2214199784 24.0106
2197 1 -0.1160453495 44.9246299675 27.0879
4400 1 12.8912 36.1958399567 32.4015
4082 1 9.1964 48.1476299675 27.4355
1784 1 6.38571 36.4968399567 37.8619
1523 1 6.63833 44.6758399567 41.1644
1562 1 4.85676 37.0458399567 32.6591
3201 1 3.02065 36.3608399567 36.4531
7927 1 11.4372 37.2898399567 34.6962
2866 1 12.7838 36.4458399567 36.7724
7304 1 8.55785 38.2348399567 38.0469
4343 1 0.475537 36.7790499459 37.7488
6776 1 9.82373 36.0408399567 40.7568
242 1 1.22731 36.3638399567 41.2685
4611 1 10.2014 35.9198399567 37.9907
6561 1 4.24915 38.0798399567 38.6877
1839 1 -0.2629453495 37.8998399567 35.1213
947 1 12.7411 44.5238399567 33.8302
5933 1 7.17386 35.4338399567 40.2918
4752 1 1.4469 38.6410499459 39.5999
3618 1 14.5361 38.3640499459 40.5809
2759 1 7.09744 36.3498399567 35.1881
7810 1 12.7258 34.8808399567 39.1725
7305 1 14.9745 35.5518399567 35.384
610 1 11.2717 43.6218399567 36.2504
1177 1 1.23025 46.1178399567 34.341
7555 1 13.1236 38.6750499459 38.1498
2384 1 3.54735 34.7518399567 40.7721
6856 1 14.4618 39.9868399567 35.9898
4624 1 3.53059 42.0848399567 40.1858
6491 1 12.3961 39.9540499459 34.2978
6725 1 2.93882 41.0718399567 36.0717
1014 1 3.3599 43.8508399567 36.4028
6409 1 0.423426 44.7058399567 36.8895
4475 1 15.5414 44.3938399567 35.932
4902 1 7.06256 45.0626299675 32.7748
1442 1 7.3756 40.4058399567 39.1875
7407 1 6.87712 43.9518399567 37.3183
6212 1 15.3202 43.4468399567 33.3153
249 1 6.27242 41.4678399567 35.5802
4749 1 3.22216 44.2826299675 33.5672
792 1 11.1839 42.4938399567 40.2075
2051 1 3.63528 38.5268399567 34.737
6027 1 0.827974 40.3876299675 37.5751
169 1 4.80782 40.7508399567 38.1615
3213 1 0.907991 42.7438399567 38.9985
4046 1 9.03134 38.5078399567 35.2062
2791 1 10.8705 39.9278399567 38.737
6378 1 4.31759 41.7448399567 33.5573
4830 1 8.39013 43.0578399567 39.6795
7642 1 8.62285 42.2028399567 33.9709
7632 1 10.4248 41.0228399567 36.0356
3871 1 1.37098 39.1048399567 33.2475
3256 1 6.5076546505 38.9958399567 34.3076
4753 1 13.9028 42.8600499459 39.6747
3749 1 5.47385 45.4398399567 35.2731
6043 1 9.7485 44.8616299675 34.0773
7486 1 10.385 44.8508399567 38.5478
5118 1 4.65057 44.6368399567 38.9576
196 1 13.7552 42.5638399567 36.8556
963 1 9.9802 39.8618399567 32.7667
5322 1 1.8728546505 45.1250499459 40.1427
2548 1 13.71 45.5308399567 40.2789
7126 1 4.8682546505 38.6740499459 41.3181
4978 1 -0.265913 41.3118399567 32.5942
1825 1 16.0903 37.9728399567 34.876
5803 1 10.0268 38.9538399567 41.2617
3735 1 7.3355 39.8528399567 41.9161
7683 1 13.3697 39.0570499459 44.3516
4736 1 9.55239 35.3552599351 49.8901
4275 1 5.98509 33.8702599351 49.1728
3525 1 8.18162 37.7770499459 49.1452
1721 1 8.51314 33.4060499459 47.7817
7939 1 8.54734 42.5382599351 49.0459
6939 1 12.0876 36.4960499459 48.7453
2961 1 14.4662 42.4240499459 44.0994
5713 1 13.665 42.7150499459 48.3472
3600 1 1.2040546505 36.9310499459 44.1057
7614 1 4.41249 43.3340499459 42.5001
4196 1 7.13011 37.8438399567 43.8933
4939 1 4.8335546505 40.7270499459 48.6913
2006 1 8.45513 41.0872599351 46.7344
4250 1 5.44921 36.0740499459 42.3723
904 1 0.9333546505 42.8490499459 44.1838
6493 1 9.15989 34.0940499459 42.9578
2371 1 4.89095 38.4840499459 45.5708
7248 1 13.6898 39.9990499459 49.2293
7081 1 9.21546 36.3600499459 44.7653
1998 1 9.45406 38.5470499459 46.8319
903 1 2.45866 39.5360499459 44.7437
1252 1 0.460558 40.1682599351 46.6009
827 1 11.8916 35.9040499459 45.9367
2704 1 2.0783 35.3652599351 48.4375
6847 1 3.82412 35.9700499459 44.6135
2395 1 12.2274 38.8250499459 46.9813
17 1 0.321706 35.3580499459 46.3881
4061 1 1.7067546505 37.8432599351 49.5486
2665 1 4.59171 35.4130499459 47.2829
6092 1 5.4945 37.8332599351 48.4141
4499 1 7.11899 34.9590499459 45.9985
5498 1 14.6332 35.4250499459 49.2828
2476 1 2.10299 40.4762599351 48.8683
498 1 10.9236 33.3660499459 46.6477
5552 1 11.3952 37.3050499459 43.1335
1357 1 14.2265 34.3260499459 45.2586
3860 1 0.9675546505 33.8630499459 44.078
4401 1 12.6404 41.5740499459 46.0429
3054 1 5.86505 41.0980499459 45.9815
4827 1 15.9615 36.0952599351 46.8521
4821 1 3.45616 42.2720499459 44.8975
452 1 11.9006 40.7480499459 42.3974
1240 1 8.45818 44.1590499459 43.557
6614 1 6.64519 41.9760499459 43.5015
3532 1 1.7218546505 43.2490499459 48.7264
2481 1 2.35911 40.0000499459 41.97
6438 1 11.2431 43.6798399567 42.7752
5678 1 13.4284 36.0660499459 41.6308
4708 1 4.29217 43.3412599351 47.336
6690 1 10.1756 42.8720499459 45.4791
1952 1 15.5735 32.8510499459 48.2314
581 1 14.6375 41.0200499459 41.6783
1453 1 15.7058 38.0040499459 48.8726
3149 1 6.48333 33.7740499459 43.5866
5659 1 15.7666 35.6800499459 43.324
7184 1 15.9306 38.2520499459 44.9283
7219 1 -0.2517453495 42.8120499459 46.6436
6740 1 6.58288 41.9142599351 55.9827
1536 1 15.7234 41.2900499459 54.5768
7246 1 11.4302 33.4992599351 54.5119
6886 1 1.70963 33.9732599351 55.7434
6073 1 8.46049 34.3242599351 57.1998
7120 1 10.9358 32.9922599351 57.2262
4873 1 13.0774 34.0242599351 58.7753
7686 1 3.67761 32.0082599351 55.8319
3660 1 7.25785 31.6922599351 54.3383
6695 1 13.4887 31.5912599351 54.244
4946 1 6.28801 32.2552599351 57.0007
3042 1 9.38161 32.5202599351 50.5614
864 1 15.0653 33.8832599351 53.3225
6109 1 9.07574 33.3302599351 53.1474
1338 1 7.96768 36.2412599351 55.2847
3171 1 8.21219 35.8362599351 52.4604
3176 1 0.9113546505 39.1312599351 54.8096
3427 1 3.97947 35.4532599351 58.199
804 1 9.38912 31.3814699243 58.9344
4014 1 11.0883 36.2692599351 52.3282
5500 1 5.68357 35.6260499459 51.3762
605 1 4.67629 39.7852599351 58.64
5215 1 5.97849 39.4412599351 54.7441
3739 1 4.94204 40.1272599351 52.4044
7315 1 15.2358 32.3042599351 58.7072
3579 1 8.93827 39.6672599351 51.0487
7073 1 2.56179 38.6622599351 57.1166
1361 1 15.4218 37.3572599351 53.6256
6584 1 10.8449 36.2272599351 55.1473
3602 1 12.0869 36.4842599351 57.4751
5717 1 14.9127 36.1264699243 57.719
2966 1 10.3897 42.1290499459 51.3278
1842 1 3.03098 42.0092599351 52.9757
3338 1 12.3501 41.2972599351 53.1547
2380 1 14.8163 40.4250499459 51.9437
1576 1 0.8209546505 41.8712599351 51.2071
3756 1 12.8869 38.5250499459 52.9631
3967 1 9.456 41.4102599351 55.6805
2249 1 8.12825 40.7322599351 58.1495
3030 1 13.0695 34.5532599351 51.4982
5722 1 8.35121 38.5772599351 53.5391
5482 1 4.23943 37.9342599351 50.8765
7270 1 4.1570546505 37.5072599351 55.1478
1734 1 10.813 39.2402599351 54.7702
58 1 12.139 39.2902599351 57.2352
3484 1 1.63811 34.7272599351 53.1196
2536 1 4.38582 34.2772599351 53.3113
3982 1 1.28727 33.5632599351 50.4645
5856 1 13.1518 41.6502599351 55.7712
4483 1 6.9179 38.3522599351 57.308
1837 1 5.38471 35.0842599351 55.7115
5779 1 2.06464 41.6712599351 55.508
7295 1 2.31304 37.3582599351 53.0427
4347 1 1.46167 36.1422599351 57.5468
4702 1 11.9691 32.3400499459 50.5836
3758 1 6.75927 41.2932599351 50.8188
1408 1 14.9198 38.9382599351 57.9956
3048 1 11.4293 38.6250499459 50.583
7485 1 15.5275 42.7880499459 50.6457
1712 1 2.20804 30.5632599351 57.7522
3821 1 5.18454 31.7160499459 52.5995
2995 1 16.0948 35.1772599351 55.5048
5818 1 -0.144193 37.6842599351 51.6316
5092 1 11.3575 32.8564699243 60.7205
2271 1 4.9565546505 31.0546428446 66.6784291582
1863 1 0.1750546505 35.3972599351 63.9054
7314 1 3.72337 34.8274699243 62.6016
2991 1 3.80867 30.3534699243 64.3227
261 1 14.0044 29.5654699243 66.7183
1969 1 9.4005 31.8174699243 62.7646
2399 1 1.51315 37.7552599351 61.5191
2979 1 8.12641 34.2252599351 61.8188
214 1 10.7147 40.2784699243 59.395
5624 1 -0.0367157 30.4444699243 63.5646
3285 1 8.82397 34.7854699243 66.2722
7971 1 4.25593 33.5092599351 60.2046
6907 1 13.2193 32.1056799134 68.0319
3554 1 13.3799 35.8386328555 63.7448191582
3271 1 14.4356 38.1534699243 65.0641
3862 1 15.7005 34.9654699243 61.9559
3592 1 6.16779 33.6747728555 66.5279791582
2902 1 2.20053 31.5374699243 60.4238
7080 1 1.46435 31.4404699243 65.6957
2894 1 1.49741 38.7112599351 67.6574
4469 1 10.6834 33.2814699243 64.9352
4803 1 10.4794 31.0446799134 66.5905
2546 1 13.4856 31.4483728555 61.6054791582
3785 1 10.8865 29.7046799134 64.1619
6662 1 7.77059 36.1864699243 63.9983
1207 1 2.46081 33.9725028555 64.9439791582
1587 1 -0.219934 32.9134699243 67.6548
6628 1 6.26174 30.0374699243 61.1392
3350 1 13.4839 33.8124699243 65.6988
3705 1 13.3549 31.1254699243 64.3675
4404 1 6.02975 33.8794699243 63.6783
7155 1 7.59741 38.4304699243 66.0756
4379 1 12.9315 40.3752599351 62.0995
7217 1 16.0734 36.7804699243 66.6931
5481 1 3.96358 35.7584699243 66.7377
5488 1 4.2904546505 37.4422599351 62.0141
3372 1 10.8343 34.9522599351 62.6044
184 1 7.66015 30.2999428446 66.9648991582
1312 1 6.60287 31.2134699243 63.598
6208 1 10.5447 37.3984699243 59.8177
7716 1 1.1826546505 33.8162599351 61.6512
4538 1 8.84831 40.0784699243 61.6496
5348 1 10.0542 37.1544699243 67.0467
7788 1 2.00927 39.7522599351 59.7976
2848 1 0.2713546505 35.7034699243 59.9536
6693 1 13.0063 35.8812599351 60.9008
5081 1 6.77216 32.3292599351 59.8306
5789 1 9.75798 37.5414699243 62.6591
2949 1 5.28931 37.2834699243 64.7249
2642 1 5.64066 37.1312599351 59.6228
2641 1 5.12237 40.1772599351 62.7997
3295 1 14.2709 38.4514699243 60.6161
1929 1 11.8541 38.7202599351 63.9592
3360 1 12.3244 35.5234699243 67.7553
7447 1 8.33786 35.9074699243 59.5163
127 1 11.0119 39.7836799134 66.4603
129 1 1.12258 36.0474699243 66.6704
6403 1 0.4110546505 29.0766799134 66.8019
3915 1 4.3028 38.4625428446 67.8671791582
604 1 15.9928 30.0124699243 64.5826
1772 1 6.61957 41.1362599351 60.4251
7525 1 2.83274 32.1744699243 68.0677
3585 1 4.0062 39.8304699243 65.4699
6252 1 15.9765 34.0515428555 67.0139391582
1062 1 8.19164 29.0364699243 64.6515
751 1 1.15308 40.1820328555 65.3204291582
4361 1 13.5974 39.5834699243 67.2367
1550 1 20.1534 9.6470099892 4.73845
1676 1 19.0535 15.9814199784 5.19733
5206 1 16.8505 10.3270370688 -1.7319691582
7338 1 21.0729 13.4620370688 -1.3775691582
6402 1 17.2941 18.497247058 -0.7225691582
3101 1 29.627 12.7220370688 -1.4949691582
7631 1 26.3947 15.8828099892 4.68674
474 1 27.0482 8.5779099892 3.76486
5401 1 25.1203 11.5590370688 -0.4199691582
7588 1 18.5938 12.2314099892 -0.643592
7197 1 26.3717 18.8607099892 1.41279
3378 1 24.4706 17.0540370688 -1.6664691582
3869 1 28.7443 18.9953099892 -1.38393
2221 1 28.0143 14.967247058 -0.9423691582
6259 1 18.6268 13.8343099892 3.24863
6075 1 19.8653 17.4219099892 -0.759443
3880 1 25.7616 19.4750370688 -1.4049691582
15 1 21.6122 19.6600370688 -0.3761691582
3283 1 17.8697 19.4658099892 1.92386
7290 1 30.2753 11.2832099892 2.19679
4980 1 22.6805 13.1871099892 3.40941
1488 1 22.5501 18.3119099892 3.88143
3808 1 21.8268 14.4466099892 1.04079
877 1 16.8604 16.2313099892 1.04791
5019 1 26.169 13.8140370688 0.6977308418
5065 1 24.186 15.7643099892 0.627896
4880 1 22.5894 10.9680370688 -1.4526691582
6548 1 23.1905 20.1970370688 -2.7017691582
3086 1 28.4694 17.2200099892 0.686645
3715 1 31.191 17.4696099892 0.949656
711 1 16.8028 13.3870370688 1.1779308418
6624 1 19.7863 16.2013099892 1.69849
6782 1 29.6833 13.9816099892 2.83905
6413 1 24.8066 17.2722099892 2.90244
5128 1 28.9888 16.6661099892 3.52259
4234 1 19.8244 18.3624199784 3.56467
1983 1 26.9333 13.6560370688 3.3413308418
245 1 21.885 15.5988099892 4.63994
7618 1 25.9113 15.1610370688 -2.9519691582
4208 1 20.4359 11.717247058 2.9273308418
7187 1 17.7637 13.9798099892 -2.57776
5614 1 32.1695 14.7945099892 1.52577
1544 1 29.4089 10.3430370688 -0.1684691582
5171 1 20.5184 10.4170370688 0.5450308418
2990 1 26.1966 11.1737099892 4.26517
6114 1 32.2195 13.2438099892 -1.04428
4427 1 22.8456 9.1197099892 4.96358
3502 1 29.6705 9.4279099892 4.03686
1879 1 24.2322 11.2298099892 2.15886
7119 1 23.7733 11.7464199784 5.61064
7021 1 31.487 19.0613099892 3.09027
2437 1 31.517 16.8193099892 4.89039
1391 1 16.335 8.8444199784 2.52689
5956 1 18.2418 20.3158 -2.6233
825 1 26.9335 9.634247058 -0.6840691582
846 1 29.9373 13.3386099892 5.61548
4109 1 16.4702 13.0828099892 4.80852
4738 1 25.2193 7.8046199784 5.50315
4138 1 32.465 18.5915099892 -1.10952
5087 1 20.1901 15.5770370688 -2.8962691582
3720 1 16.2099 15.7137099892 5.13986
1071 1 25.3017 12.5220370688 -3.1354691582
5901 1 29.6153 15.7350370688 -3.0856691582
1549 1 16.4094 11.2474199784 11.6505
4439 1 23.0859 17.3294199784 12.6427
6527 1 18.9081 17.4654199784 7.83036
7600 1 29.9221 16.7236299675 12.5668
831 1 29.8488 17.7034199784 7.28514
6144 1 16.6124 11.6024199784 7.14721
5886 1 28.1126 14.5304199784 11.4946
6347 1 29.1633 14.9244199784 7.71598
1175 1 19.4689 11.4234199784 6.71776
5041 1 26.4204 11.5932099892 7.00138
1130 1 26.5663 14.3548099892 7.12599
686 1 24.0081 15.8690099892 6.47828
5982 1 27.4162 18.0444199784 8.93273
293 1 23.8006 10.1824199784 12.8961
4705 1 26.2334 15.4274199784 9.66293
2194 1 19.111 14.8374199784 9.28001
830 1 23.18 18.1306099892 8.1896
1622 1 22.9378 8.9789099892 8.71276
871 1 28.843 7.8672199784 11.8004
7387 1 31.3209 10.6134199784 14.5742
5499 1 27.1056 18.1914199784 6.11328
451 1 30.5366 14.0434099892 9.94413
5891 1 20.3264 14.0604199784 6.81596
7679 1 31.0613 11.4794199784 8.49033
2578 1 22.7061 14.7306299675 13.4129
771 1 20.276 8.5394199784 12.8176
4780 1 26.0032 7.1004199784 14.285
6587 1 17.02 13.0114199784 9.52251
6627 1 17.8611 8.5436299675 14.28
2571 1 32.2571 8.3749199784 10.4476
5750 1 18.5175 16.2494199784 11.8421
5319 1 16.3821 12.8764199784 13.7382
6058 1 28.2047 11.5784199784 11.3813
6322 1 18.9541 10.1234199784 11.0867
323 1 18.0491 9.5954199784 8.56107
3515 1 22.9732 13.5295099892 7.66646
7296 1 28.4603 8.6444199784 7.89281
6903 1 32.2649 16.1844199784 10.7587
5218 1 22.5896 8.2981199784 11.3442
3415 1 20.2874 12.4684199784 10.7105
6765 1 22.819 12.5816299675 11.8149
1989 1 26.0656 8.6874199784 11.8692
2358 1 21.3862 11.2464199784 8.56218
5025 1 18.8852 13.6884199784 12.7994
7471 1 27.1574 15.1294199784 14.1159
5536 1 29.0692 10.8806099892 6.39887
4513 1 30.8805 12.2844199784 12.2657
5673 1 25.9815 10.7484199784 9.81789
2288 1 30.7262 14.4706299675 14.0197
649 1 25.6726 8.5277199784 8.23462
155 1 29.8444 9.5934199784 10.0468
7291 1 24.5195 13.1686099892 9.86569
2046 1 30.4416 8.0466199784 14.1074
5310 1 24.9692 17.8004199784 10.3314
1375 1 18.3783 17.0074199784 14.585
2291 1 27.5703 11.4684199784 13.9925
4477 1 16.2885 18.2154199784 8.73042
7469 1 18.9648 9.6906299675 18.3312
4914 1 18.5454 5.3766299675 19.6113
2064 1 19.6212 8.3616299675 22.8835
6076 1 30.8487 11.0816299675 22.5075
6454 1 20.0824 12.1586299675 21.6342
4988 1 22.7079 15.0146299675 19.5841
1440 1 19.5603 12.1034199784 16.929
6590 1 30.9312 15.0716299675 19.7663
1286 1 26.9881 8.9126299675 17.8598
4784 1 16.8717 14.0456299675 19.91
3633 1 22.3639 11.3066299675 16.1626
7125 1 23.295 10.9766299675 18.7575
1218 1 20.3467 15.8514199784 16.2156
2333 1 24.2908 14.3996299675 21.684
2923 1 24.6269 15.6476299675 17.6658
5554 1 19.1043 14.7226299675 18.382
7260 1 30.53 11.7336299675 16.9543
7890 1 26.8622 13.9406299675 17.7799
1052 1 21.1154 12.7616299675 19.1991
5055 1 28.2489 14.2386299675 20.1226
815 1 25.7976 11.3596299675 17.7828
3995 1 32.3024 9.0246299675 19.1983
6929 1 30.6837 4.8829199784 20.0274
4226 1 20.2479 7.8066299675 16.7835
5736 1 17.3622 10.9836299675 15.4523
5084 1 20.4625 9.5216299675 20.5427
7481 1 22.8276 8.2796299675 19.6189
6320 1 22.1765 8.8376299675 14.7911
183 1 24.2292 11.6926299675 21.2477
3259 1 20.8546 13.5434199784 14.8363
4537 1 26.5232 11.2686299675 22.4761
1844 1 20.5268 5.9238399567 23.4001
1679 1 29.5589 10.0846299675 18.8113
2083 1 30.057 7.2416299675 18.805
4945 1 16.3004 9.0266299675 18.3596
2389 1 28.807 11.6926299675 20.9315
2037 1 31.9263 15.3326299675 22.5948
6389 1 23.5261 6.4616299675 15.3581
2823 1 29.9309 15.8626299675 17.2578
1531 1 28.8984 13.5066299675 15.7617
1247 1 17.3132 11.9526299675 21.4506
7364 1 25.0322 11.6234199784 15.1366
3268 1 23.1591 10.0386299675 23.2744
5350 1 17.24 6.9536299675 21.8221
1387 1 24.7768 7.0676299675 17.9396
2493 1 23.7403 7.5398399567 22.3011
873 1 30.1213 6.3580199784 16.1844
7413 1 18.4928 4.3736299675 22.3265
2983 1 18.0576 6.1356299675 15.9341
4894 1 24.6582 14.3944199784 15.1052
2583 1 27.482 6.8946299675 20.0908
6356 1 22.3681 5.2396299675 21.1654
355 1 21.1348 6.1676299675 19.0176
2320 1 26.3133 8.3096299675 22.0734
1056 1 28.778 5.6336299675 22.5398
3212 1 16.3979 6.3686299675 18.107
4877 1 27.9898 8.9134199784 15.157
1086 1 26.6818 4.0728399567 23.4963
5994 1 32.2982 13.1186299675 18.5405
1530 1 21.7694 13.4708399567 26.8586
318 1 32.1384 9.6050499459 32.242
3960 1 20.9415 13.5016299675 24.145
6198 1 20.6178 10.7018399567 24.1349
3929 1 28.0774 13.9768399567 27.8394
346 1 16.5179 7.5408399567 24.4887
6200 1 17.5519 13.5878399567 27.3091
257 1 30.4062 13.1948399567 26.3912
5079 1 25.6435 13.8678399567 26.0414
1115 1 30.3452 10.5748399567 25.3164
5627 1 24.9351 11.2628399567 25.0026
1658 1 30.336 2.9428399567 27.9652
7424 1 24.132 12.8926299675 28.3909
5091 1 25.8846 4.3920499459 27.8322
1154 1 27.5623 10.2598399567 24.9542
705 1 27.734 11.1428399567 27.5798
3068 1 18.0773 9.8578399567 25.0598
1653 1 30.116 3.6650499459 31.9967
2849 1 24.4795 6.7398399567 27.0529
2901 1 19.5084 9.1808399567 31.3697
7840 1 22.0988 2.8188399567 30.9646
1617 1 24.581 9.1940499459 32.1366
2321 1 20.9996 5.4578399567 30.7785
372 1 19.1577 4.4578399567 28.8666
7853 1 30.3356 5.9078399567 30.5182
7914 1 17.1537 4.0638399567 24.8739
1414 1 17.5556 6.7678399567 28.1196
6556 1 24.7305 6.5388399567 30.6964
1486 1 22.4754 6.8888399567 28.9377
5908 1 27.5553 7.5808399567 24.39
7617 1 26.3503 12.3048399567 31.0811
2830 1 27.5173 2.9908399567 30.84
6658 1 18.8054 6.1348399567 25.6458
7175 1 30.284 11.6020499459 31.4386
679 1 17.5944 7.3148399567 30.94
2484 1 27.3439 9.7870499459 32.1821
2163 1 29.9008 10.2860499459 29.0972
7482 1 23.1427 10.9798399567 30.4693
6951 1 28.7087 8.1838399567 30.3727
3225 1 24.8692 3.7908399567 30.3618
1294 1 28.2974 6.9578399567 26.9946
7488 1 22.5616 4.5858399567 24.6876
1015 1 23.8493 9.4528399567 26.7507
1381 1 21.1282 5.2128399567 26.9841
2855 1 18.8231 9.3338399567 27.7616
7641 1 26.2692 7.8098399567 28.9329
2737 1 17.0279 3.5968399567 30.5464
4852 1 32.0509 4.0758399567 26.1771
4202 1 17.5405 11.0968399567 31.6402
794 1 25.372 10.4468399567 28.8682
5339 1 17.5444 11.4168399567 28.9528
3686 1 21.2153 9.2548399567 29.2959
448 1 24.8576 6.1458399567 24.4506
1628 1 21.2983 10.7248399567 26.8341
3883 1 28.3983 4.7878399567 28.8547
4019 1 30.512 8.4228399567 27.0874
4079 1 16.475 13.3196299675 23.633
5689 1 18.6071 14.6976299675 24.6631
6051 1 29.7482 14.7648399567 24.2262
356 1 27.1695 13.6238399567 23.6984
3090 1 22.477 7.2338399567 32.4189
1418 1 30.8408 4.0868399567 23.5963
5770 1 30.3014 2.3522599351 36.0849
663 1 23.942 1.2030499459 37.7739
6380 1 29.2333 6.4830499459 41.3806
7809 1 28.2691 2.2260499459 38.1776
1096 1 21.6836 1.5962599351 39.8316
1360 1 17.8506 2.7450499459 37.8868
2278 1 20.6013 3.6780499459 37.6187
3935 1 30.4117 1.4372599351 39.8297
5785 1 25.8424 2.5050499459 39.5691
5968 1 18.954 2.1252599351 40.5152
5480 1 32.1977 6.6840499459 36.4596
7968 1 29.103 4.2850499459 34.4765
5306 1 26.6201 3.2600499459 33.4799
1184 1 24.1491 3.7030499459 36.3102
840 1 31.5354 6.8850499459 32.7492
6343 1 26.9357 3.9872599351 36.4542
5141 1 20.4267 3.0010499459 33.2268
1789 1 18.7545 5.1270499459 32.5194
3260 1 20.9505 5.0720499459 35.2168
5457 1 29.8408 4.5002599351 39.3288
6055 1 25.7558 5.9190499459 33.2833
2584 1 22.6116 1.8890499459 34.5687
4103 1 16.3455 11.7370499459 38.178
4598 1 21.6539 9.8500499459 37.2679
2007 1 29.8329 6.9820499459 34.9694
849 1 16.377 7.2560499459 35.0296
6664 1 22.8112 5.3850499459 38.2605
1420 1 31.985 4.2250499459 37.5792
255 1 29.5479 6.8700499459 37.8183
490 1 23.5602 5.9940499459 34.8964
4091 1 20.3435 5.5870499459 39.8973
5826 1 26.7317 6.3792599351 37.6776
3924 1 23.9201 7.9720499459 37.2753
7177 1 19.0879 8.4050499459 37.1698
6967 1 24.3822 4.8090499459 40.3777
968 1 20.8445 9.1170499459 33.7397
4394 1 26.4629 6.8560499459 40.4364
2810 1 20.6671 8.3680499459 39.6137
7795 1 26.5144 9.0490499459 36.3872
6125 1 27.4062 7.8410499459 34.1266
578 1 17.7329 5.1330499459 39.1643
2397 1 30.5547 8.5670499459 39.8812
7262 1 19.1155 7.0760499459 34.7107
1468 1 26.2545 9.5400499459 40.1666
4912 1 28.4302 9.9370499459 38.3297
1257 1 26.5451 11.7250499459 35.3523
3018 1 23.7726 10.2120499459 39.104
7272 1 17.7628 10.6050499459 35.9858
2880 1 24.2132 9.8070499459 34.7826
7583 1 30.1573 9.7120499459 35.9011
2950 1 21.9357 11.3680499459 34.981
5611 1 28.9748 11.2998399567 33.9893
3874 1 16.647 7.3360499459 37.9958
7494 1 16.1996 4.6588399567 34.0351
5361 1 21.2391 0.9410499459 37.0433
2164 1 16.2868 9.5420499459 39.7159
3127 1 23.1519 12.6208399567 32.8088
4074 1 16.2475 9.7438399567 33.6976
4338 1 22.5083 9.3790499459 41.4156
7483 1 18.5973 9.3210499459 41.1595
6707 1 30.2141 10.9970499459 41.3763
7608 1 27.6894 0.0222599351 43.7753
7432 1 23.8722 0.1452599351 44.2707
1283 1 21.6148 -1.4165300757 49.4389
876 1 19.5791 -0.4797400649 46.5232
4897 1 32.2226 0.8772599351 42.7354
1088 1 19.5418 0.6352599351 42.9458
494 1 17.3574 0.2162599351 44.7843
607 1 25.4546 -0.3327400649 49.0139
6386 1 31.3388 1.0112599351 45.3998
5508 1 27.8245 1.2802599351 46.3999
3274 1 17.7497 0.3252599351 49.4961
3779 1 24.0206 0.8302599351 46.9492
480 1 26.9628 2.3412599351 42.2264
881 1 24.4465 2.6442599351 43.352
3856 1 28.0678 -0.6397400649 49.9145
4596 1 21.3718 1.3922599351 47.6419
6601 1 27.4559 5.7982599351 50.1729
609 1 18.7364 2.6192599351 48.046
6241 1 20.9901 2.7762599351 44.1605
7865 1 29.3001 1.7604699243 48.8375
2530 1 29.6487 3.2292599351 45.3727
3138 1 31.8559 2.9632599351 49.4436
5775 1 18.7415 3.5292599351 45.4875
7768 1 29.0914 3.9592599351 42.8566
5061 1 17.7014 4.3500499459 41.985
7887 1 25.7916 2.9802599351 47.0292
959 1 22.2879 3.8832599351 46.4733
4612 1 20.3588 5.2100499459 42.7232
2987 1 24.7981 4.7602599351 45.3187
7761 1 23.9917 4.1172599351 48.7221
7104 1 28.3738 4.4772599351 47.7633
1204 1 31.7332 4.8992599351 46.342
6308 1 20.6831 5.9982599351 47.0851
368 1 17.3101 7.1382599351 42.4112
2627 1 30.8009 5.7432599351 49.0313
4925 1 18.6633 6.3200499459 44.9395
942 1 27.2743 5.8732599351 44.1674
5954 1 31.656 6.7262599351 42.7088
5285 1 24.81 6.3842599351 42.8923
7210 1 30.9831 -0.4605300757 49.1711
6131 1 31.506 3.5282599351 41.539
5972 1 19.178 4.9042599351 49.498
4028 1 16.3859 5.9492599351 46.5488
7282 1 22.4558 3.3510499459 41.8047
3092 1 16.3568 1.0732599351 47.1017
5589 1 16.3433 2.7942599351 43.9918
5888 1 18.8305 8.8692599351 45.8739
5051 1 17.0391 6.7422599351 49.212
4683 1 26.293 9.1882599351 49.6782
2724 1 17.5531 9.3022599351 48.3178
3228 1 24.3131 7.2842599351 46.4034
3326 1 28.3446 6.9912599351 46.4866
2833 1 22.3223 7.1432599351 43.1893
5931 1 30.9985 7.4632599351 45.4387
3508 1 24.7593 6.7592599351 49.2921
14 1 29.016 8.0612599351 49.0771
2985 1 30.1213 9.8242599351 44.2271
166 1 27.9003 8.4322599351 43.2476
475 1 16.3158 8.8252599351 44.3266
6310 1 25.1046 9.3852599351 42.9591
3405 1 21.7048 8.3042599351 45.7774
1547 1 22.3002 8.0532599351 48.6079
3679 1 26.4343 9.0072599351 45.7311
1981 1 30.9787 -1.7215300757 54.3388
1572 1 29.1621 -2.0307400649 52.3176
810 1 18.7597 5.9044699243 53.6659
32 1 27.888 -1.6995300757 56.3883
6757 1 23.4851 -1.9727400649 53.3273
435 1 23.1481 6.1884699243 56.8753
3463 1 22.0574 -3.1355300757 55.6751
4783 1 30.5435 -0.7845300757 56.8945
3282 1 19.254 1.3964699243 58.0962
3925 1 25.2252 -1.3805300757 57.2946
5199 1 19.8778 -1.5245300757 54.6634
7371 1 17.6589 -0.9897400649 52.8812
2469 1 30.3344 -2.8152571554 58.7214691582
6611 1 22.332 0.7534699243 53.3151
2888 1 27.3889 0.6654699243 55.1466
3202 1 24.7155 0.0044699243 54.9818
4190 1 22.6592 -2.0675300757 58.3048
786 1 16.3775 1.2664699243 57.5216
7214 1 21.2312 0.0094699243 56.8135
781 1 28.3477 0.7332599351 52.4813
3717 1 19.2031 1.1062599351 51.7251
7897 1 19.8963 1.3634699243 54.575
6166 1 29.3067 1.8014699243 56.8703
178 1 17.251 1.9754699243 55.0133
1227 1 25.5778 7.1604699243 58.2479
6271 1 30.8492 1.8714699243 52.5891
7774 1 24.6336 2.5384699243 53.4388
1616 1 23.4261 1.8874699243 56.6329
4831 1 31.1426 2.8524699243 55.1665
7361 1 27.8698 5.9284699243 56.9369
1463 1 27.3306 2.8112599351 50.8187
2885 1 31.5291 7.0844699243 53.3248
467 1 21.0953 3.4394699243 55.8781
3130 1 18.3489 3.7094699243 51.9237
5839 1 24.6841 1.9822599351 50.3963
7223 1 29.9719 5.3134699243 55.0608
4895 1 21.3332 5.7614699243 54.5889
6896 1 22.8686 4.4622599351 52.6777
5190 1 31.112 4.6434699243 51.6942
1198 1 26.2423 0.8244699243 58.9684
5566 1 26.8882 3.2844699243 57.4223
3186 1 21.8256 8.1484699243 52.9401
7397 1 24.8039 4.1344699243 55.7536
3760 1 17.4905 4.5944699243 55.7528
5943 1 19.3305 4.2674699243 57.812
4213 1 28.3914 4.8104699243 52.7169
209 1 26.1042 5.7134699243 53.9603
7652 1 29.6005 6.7844699243 59.1438
3438 1 28.8994 7.6474699243 52.1335
5007 1 24.3097 6.7584699243 52.1521
4774 1 31.3731 6.8474699243 56.9626
1511 1 18.2769 7.8932599351 51.571
1496 1 17.9452 -2.9535300757 57.8344
3759 1 21.8152 1.1594699243 50.5466
958 1 27.7885 7.9274699243 54.9455
805 1 27.4418 -2.3075300757 59.1505
943 1 21.684 5.2934699243 59.0571
334 1 20.8083 6.7754699243 50.7039
2268 1 24.048 -2.0845300757 50.5476
5459 1 23.6042 3.3194699243 59.0405
2686 1 19.0446 8.0094699243 55.7839
1090 1 21.7176 3.9232599351 50.3872
545 1 17.0605 -3.8366571554 67.2307991582
857 1 30.188 -3.9523200866 62.9192
6185 1 21.2714 -3.8150571554 67.4431391582
7151 1 29.6612 -4.1382571554 67.1598191582
2040 1 19.4296 -5.6533571554 66.7780791582
1600 1 18.1926 -3.1388571554 64.5694091582
2449 1 24.2421 -2.7483571554 64.0976691582
4382 1 25.827 -2.9263200866 61.6428
413 1 23.4648 -1.4095300757 60.9132
98 1 20.0799 -2.2063200866 59.5302
5349 1 20.0596 -3.9373200866 61.6972
5963 1 23.5723 -4.4603200866 66.1226
3478 1 27.469 -4.3984571554 63.3212491582
3780 1 21.6379 -2.1273200866 63.1265
4430 1 30.9444 -1.6023200866 61.3117
714 1 27.1305 -3.9759571554 66.0789491582
4244 1 17.272 -3.2855300757 61.7266
4955 1 30.6657 2.3676799134 68.1282
6148 1 31.0602 -1.3273200866 64.0262
7862 1 20.4443 -1.7463200866 65.8476
4837 1 30.9555 -1.8233200866 66.6984
3930 1 26.954 -0.5133200866 62.8108
4247 1 19.6386 0.4724699243 60.5589
4832 1 16.832 -0.6843200866 64.0078
2212 1 28.4937 -0.1575300757 60.5157
7310 1 25.6496 -0.7783200866 65.4388
5173 1 24.4684 3.9526799134 66.1036
4398 1 27.1337 3.2906799134 67.5247
6904 1 30.5604 5.7026799134 62.4511
4106 1 29.9243 2.1224699243 59.511
3 1 26.0457 4.8214699243 59.694
2875 1 18.7458 4.9774699243 62.5283
2878 1 24.1223 1.2086799134 60.67
7383 1 23.0987 5.2276799134 63.9196
205 1 17.873 9.4284464106e-04 66.5639891582
2883 1 17.2764 1.0614699243 61.9133
7480 1 29.0614 0.6146799134 64.1682
669 1 21.4525 0.5464428446 64.2439391582
2551 1 27.1457 3.9734699243 63.0832
3423 1 25.3906 5.8614699243 62.2148
3017 1 17.7844 5.0654699243 60.0065
5679 1 29.6026 4.2936799134 66.4992
7168 1 21.7289 1.6384699243 61.8734
3331 1 19.5183 1.9106799134 65.6149
1248 1 31.9108 1.1256799134 61.2955
4443 1 25.4714 1.7542428446 62.9977991582
1671 1 27.6168 0.8546799134 66.498
7540 1 28.7217 4.4566799134 60.5526
798 1 23.8944 1.3226799134 65.3185
3616 1 20.5684 3.7966799134 67.187
5183 1 22.3461 1.5427428446 67.8223291582
5365 1 29.8055 3.2516799134 63.8181
5197 1 17.5565 3.0310428446 64.0008991582
4064 1 21.3919 4.4484699243 61.9008
5334 1 16.7811 4.3054699243 66.3841
7213 1 26.9578 5.3646799134 65.4541
5006 1 23.8162 28.9494199784 4.21894
4120 1 24.7232 24.1779 -2.35396
1885 1 28.2262 23.5215099892 -0.736076
5266 1 26.4864 29.3073099892 4.62037
5307 1 27.4545 24.8248099892 1.73143
3986 1 26.5437 30.8355099892 2.3431
2325 1 19.307 29.0840370688 -2.7965691582
3816 1 25.3605 30.2351 -1.74116
2635 1 25.5695 24.241247058 3.6503308418
1954 1 17.2261 27.8283099892 3.37133
3842 1 29.6115 26.8950370688 1.3518308418
7226 1 22.6191 23.7747099892 0.911961
3593 1 29.9956 28.6144099892 4.52857
883 1 22.5257 20.4450099892 2.1285
5362 1 19.4519 24.5322 -1.62559
6219 1 25.8945 22.2852099892 -0.614672
740 1 16.5126 20.5514199784 5.14828
5412 1 29.5515 26.1064 -1.29889
7720 1 21.3204 26.6460370688 -0.8269691582
4748 1 22.0887 28.9366 -2.60305
1723 1 18.25 22.2340099892 1.57754
3034 1 30.2092 29.0519099892 -1.43841
3667 1 17.2411 23.1830370688 -2.8492691582
144 1 23.0385 26.5938099892 1.36268
6936 1 26.5049 28.2562099892 -0.312995
7985 1 29.9497 21.3390370688 -0.4388691582
6760 1 22.9691 30.4712 -0.383512
4189 1 25.4617 25.8010370688 0.1054308418
3844 1 32.122 26.9362099892 4.68822
7933 1 20.9033 30.6085 1.48588
7717 1 19.8999 21.7690370688 -0.7500691582
2190 1 27.7985 27.1089099892 3.53324
7928 1 21.0671 28.8080099892 3.58264
2038 1 18.6394 24.9410370688 1.0194308418
1534 1 28.7723 29.5519099892 1.08014
729 1 19.6372 28.6337099892 -0.0851907
3008 1 32.2077 21.4803099892 -1.90414
7766 1 31.5665 24.8070370688 -2.9130691582
1573 1 27.3856 27.1530370688 -2.8631691582
1691 1 23.424 25.9334199784 4.02568
4118 1 24.5128 29.0330370688 1.5101308418
262 1 22.4288 22.7054 -1.80559
6948 1 19.6724 26.372247058 3.2360308418
1009 1 16.8977 27.9662 0.512112
4829 1 30.5771 30.7232099892 2.91787
971 1 26.8703 20.8262099892 3.30545
1797 1 32.2387 26.1099099892 2.17912
2692 1 17.3112 22.9734199784 4.03587
2628 1 28.8701 22.7675099892 3.15049
7551 1 30.9589 21.6190370688 2.0064308418
2335 1 24.6889 22.1854199784 2.00381
735 1 20.81 22.5873099892 2.59151
6804 1 21.2169 24.3388099892 4.56966
176 1 17.6834 30.4446099892 3.60036
918 1 29.1692 31.6525 -0.855515
4479 1 19.7549 30.3678099892 5.49627
6028 1 16.4025 22.6130099892 -0.352413
2342 1 29.5228 23.1714199784 5.7432
5085 1 27.5042 25.1984199784 5.55396
6633 1 28.9215 19.4258099892 4.34483
1065 1 18.0804 26.5889 -3.10713
7772 1 30.4474 29.4757099892 7.09666
2008 1 25.478 23.3804099892 6.37023
7545 1 24.0594 28.7264199784 12.1775
3627 1 23.0641 27.3514199784 6.47712
3397 1 18.9385 27.2654199784 9.43759
3597 1 29.5313 28.0134199784 9.26012
7553 1 17.4232 22.3414199784 14.4902
5631 1 26.9207 27.7224199784 8.97719
5682 1 25.9298 27.3144199784 6.48925
30 1 20.4315 28.3814199784 7.29399
7905 1 23.0589 19.9714199784 6.00361
3037 1 21.6197 28.3434199784 11.3283
3955 1 31.2343 25.0831099892 6.56473
4892 1 16.1191 28.2004199784 7.17249
3968 1 22.6234 21.4614199784 9.1882
4567 1 17.9146 29.2804199784 11.0538
1495 1 18.9532 21.4754199784 9.38456
1386 1 28.8514 22.3070099892 8.42524
4754 1 17.0979 24.8264199784 13.1184
3292 1 29.3083 20.8394199784 12.3029
7568 1 16.6038 25.8404199784 8.6887
2056 1 30.5516 25.3804199784 9.37185
998 1 19.8815 20.3934199784 12.6408
7645 1 25.6849 20.6792099892 5.94924
5403 1 30.5332 19.2704199784 14.2284
1540 1 30.7957 22.5274199784 10.3698
2370 1 31.7631 27.7544199784 12.3813
7627 1 30.5324 23.3944199784 13.2166
7929 1 19.8286 24.6924199784 12.998
767 1 27.801 25.0224199784 8.39503
6876 1 22.646 22.6934199784 6.67552
4258 1 20.7302 22.6454199784 11.1577
2739 1 26.5645 21.3784199784 12.6888
1856 1 17.2657 21.2974199784 11.7255
1300 1 19.9373 21.6754199784 6.80229
1674 1 27.3446 26.2634199784 12.9598
7097 1 25.257 24.3434199784 9.19699
7090 1 25.5918 18.8844199784 13.0184
7731 1 20.9755 25.5434199784 10.3644
3333 1 16.3706 27.8184199784 12.7773
3819 1 27.8194 17.8274199784 14.2426
4758 1 26.657 20.7814199784 8.4481
5213 1 25.4941 26.5484199784 10.9979
3483 1 23.2573 22.5844199784 12.4561
7227 1 22.8046 25.1944199784 8.10906
7477 1 29.972 25.8314199784 12.0791
4826 1 17.0272 23.0924199784 8.32267
1625 1 20.8497 19.2004199784 9.15635
5144 1 29.4381 18.6214199784 10.6605
6710 1 23.2155 25.2674199784 11.9596
6237 1 25.0174 21.8734199784 10.3024
2034 1 18.6788 23.9924199784 6.14094
2777 1 30.1204 20.3964199784 6.67319
6935 1 20.6679 17.8944199784 11.5633
2039 1 20.1784 27.1574199784 14.4528
6201 1 23.8236 29.9269099892 7.66331
5623 1 21.7959 21.1104199784 14.5899
7946 1 18.857 19.3274199784 5.83481
1326 1 22.756 26.2144199784 14.4745
4149 1 31.8995 18.3634199784 9.18112
2127 1 27.1011 28.4144199784 14.5917
5806 1 18.5025 26.8314199784 5.93046
491 1 29.1377 23.2746299675 23.1756
33 1 26.1492 21.0346299675 21.5848
1960 1 19.5319 23.6744199784 15.7482
1647 1 25.3441 20.6166299675 16.432
6525 1 20.7522 22.7256299675 21.2539
1327 1 24.7993 21.0586299675 18.9618
6957 1 18.2852 20.2516299675 19.1247
1107 1 19.9183 21.1536299675 16.9621
3879 1 20.0046 19.8786299675 21.252
7813 1 31.6746 24.2626299675 22.5249
5102 1 17.4449 22.9666299675 19.9864
181 1 22.0441 21.4876299675 18.8708
1763 1 22.7278 23.9916299675 22.6894
6098 1 19.7854 24.5296299675 19.5453
3827 1 23.2677 18.4826299675 23.1689
2783 1 29.8544 21.4756299675 19.4234
2307 1 17.3339 26.9484199784 15.2717
341 1 28.5828 25.4446299675 19.6438
266 1 26.3761 25.7874199784 17.8057
1504 1 22.4484 23.7096299675 15.6348
7049 1 29.9818 21.1346299675 16.6037
2889 1 29.2597 23.5376299675 15.5473
7408 1 27.8803 23.0086299675 20.5508
2842 1 26.9294 24.6574199784 15.1565
2836 1 18.4424 25.7114199784 17.5039
4995 1 22.3908 26.9616299675 19.1922
6054 1 25.234 23.9356299675 19.487
3155 1 29.8878 25.4706299675 17.207
3039 1 22.4339 24.2716299675 18.3521
1758 1 27.8018 19.4936299675 16.3925
5385 1 32.0997 22.0116299675 20.9241
4075 1 16.2405 23.0176299675 22.5591
4358 1 22.6742 15.7436299675 23.3253
5099 1 16.4845 25.9176299675 23.1484
185 1 26.6539 15.6806299675 21.9679
5601 1 31.8027 17.3786299675 16.0326
6186 1 24.5019 27.7706299675 17.6993
4977 1 32.2927 20.6166299675 23.4384
4992 1 29.6332 18.9726299675 20.4759
6432 1 26.6792 26.4826299675 21.5186
973 1 22.5208 17.3676299675 16.9387
253 1 19.5238 26.5326299675 21.4529
4373 1 19.9546 16.6826299675 22.8454
3829 1 16.2939 25.4566299675 19.1903
7653 1 32.017 17.6986299675 20.8369
287 1 28.3857 19.7066299675 22.6922
4368 1 26.0184 17.1686299675 19.7324
3568 1 21.9336 18.6926299675 19.3091
1461 1 28.2857 17.7886299675 18.4835
1917 1 30.2438 26.4576299675 21.6524
1325 1 17.8966 17.4746299675 19.1417
6145 1 20.4981 16.5076299675 20.1081
3342 1 18.3942 19.8644199784 15.0392
7461 1 24.2717 18.9976299675 20.7185
3363 1 17.6884 18.1666299675 21.9764
7205 1 24.0096 25.9106299675 21.3088
3074 1 16.4943 17.1766299675 16.8486
1801 1 23.5827 19.0366299675 15.0483
7156 1 25.1216 22.7996299675 23.3578
3207 1 18.8397 23.0686299675 23.3581
4819 1 25.088 22.7186299675 14.8451
3310 1 28.2715 27.8456299675 16.9841
3482 1 24.3337 28.4344199784 14.9955
5416 1 20.1042 23.6988399567 27.0555
2945 1 19.2416 25.7736299675 24.0909
3570 1 27.2383 17.4676299675 23.8903
3374 1 19.802 15.0918399567 28.0483
4476 1 16.9701 24.8106299675 29.1089
6923 1 29.8202 22.9448399567 26.7714
7570 1 31.6621 23.3646299675 28.9799
3761 1 23.6643 24.6498399567 28.7211
3878 1 21.7672 24.9556299675 24.9943
2058 1 25.1296 21.5856299675 25.7958
1085 1 22.8907 22.9146299675 26.685
6448 1 16.6318 20.9196299675 25.8858
6385 1 23.4825 15.5678399567 25.8668
7468 1 26.9915 22.9638399567 27.2085
1134 1 32.0169 13.8098399567 31.3977
1203 1 17.7224 22.1108399567 29.8146
2800 1 24.734 23.8928399567 31.1751
5978 1 18.3947 19.4516299675 29.2167
7706 1 16.2444 19.3078399567 31.2758
595 1 25.2181 18.9496299675 24.9673
539 1 26.9045 24.9376299675 23.7977
3541 1 30.5313 25.7456299675 26.3354
1899 1 27.9274 21.6458399567 29.5438
5885 1 16.8043 18.4626299675 24.6184
2308 1 19.9698 18.3448399567 31.1857
3053 1 32.0821 19.9088399567 30.3755
5244 1 28.6191 13.7658399567 30.6772
4664 1 24.1267 19.6578399567 29.3775
4968 1 28.6458 16.4296299675 26.1242
3588 1 22.8489 18.4448399567 31.5324
5392 1 17.0014 22.7288399567 32.2838
4150 1 20.4778 22.8598399567 29.7383
1597 1 25.5743 21.3238399567 30.8576
2520 1 22.0046 16.8538399567 27.9913
2917 1 25.2605 14.7038399567 30.1278
1931 1 30.7232 15.9458399567 30.4458
7758 1 28.2291 17.3998399567 30.2691
6850 1 20.6301 19.2836299675 23.9929
5637 1 26.6827 16.3338399567 28.345
477 1 22.8688 15.8678399567 30.3918
1214 1 19.2931 21.4386299675 25.5622
6220 1 29.9938 18.8796299675 26.4778
6042 1 19.2924 15.8598399567 30.6322
2788 1 29.5363 19.4688399567 29.0733
712 1 29.9125 21.1026299675 24.575
215 1 21.8851 20.8378399567 28.285
1004 1 20.3148 19.0628399567 26.9258
6319 1 24.4964 17.7056299675 27.268
5986 1 18.5012 17.0708399567 26.2657
3582 1 31.8046 22.3818399567 31.6948
1318 1 29.0572 22.8658399567 31.6085
7719 1 17.6337 24.9866299675 26.2819
5265 1 17.3557 15.2858399567 32.3302
5697 1 21.2985 14.6828399567 32.206
2774 1 16.4136 17.8238399567 28.095
7169 1 31.1366 18.1398399567 32.2821
5514 1 27.0307 15.7230499459 32.3319
2344 1 20.8614 22.6758399567 32.4722
6457 1 23.21 13.6018399567 36.6085
2714 1 29.8957 13.7980499459 35.108
1260 1 26.5112 20.0848399567 33.1288
5012 1 20.1546 21.1508399567 35.8106
2824 1 32.3996 14.2430499459 34.1928
2994 1 20.8365 18.7890499459 40.8368
3576 1 17.8459 18.5060499459 38.201
3631 1 17.3543 22.3368399567 35.8944
6968 1 19.324 19.1578399567 33.7774
4727 1 31.8854 20.6210499459 37.4764
7675 1 29.4963 18.7490499459 35.5984
6574 1 30.8871 17.2050499459 39.1665
1722 1 31.749 17.9030499459 36.6693
4729 1 16.8412 21.9670499459 40.5468
3170 1 28.3175 15.9890499459 35.1305
2763 1 24.6713 23.6618399567 34.7878
276 1 20.6801 15.8528399567 34.648
5407 1 29.3799 21.3908399567 36.8029
4777 1 24.6191 15.5110499459 35.2763
7337 1 28.3438 21.8458399567 34.105
2122 1 21.9661 20.2668399567 33.5721
1137 1 27.8508 20.7778399567 39.055
1390 1 24.7386 19.8930499459 37.0292
2368 1 20.3019 19.7880499459 38.1681
5205 1 30.8998 20.5648399567 33.8228
1551 1 27.1643 18.6728399567 37.3045
1388 1 21.0928 22.2820499459 39.7289
6143 1 24.4538 20.9058399567 34.7213
7040 1 22.6764 18.2010499459 37.6709
3173 1 24.5173 16.9180499459 39.1721
2927 1 26.5246 15.8720499459 37.2626
752 1 25.0033 21.8160499459 38.9552
5224 1 20.9131 16.5310499459 39.2286
3297 1 18.0002 16.7818399567 34.5286
5408 1 25.624 13.6448399567 33.4927
1780 1 28.2128 17.1710499459 39.3934
7016 1 22.5606 17.7628399567 35.024
3931 1 24.9966 17.6398399567 33.3732
3577 1 17.9281 14.8180499459 36.4919
1888 1 30.4809 21.2130499459 39.9757
933 1 32.0365 19.0120499459 40.7177
3305 1 17.9928 15.8580499459 39.3599
163 1 19.434 12.5910499459 35.4886
51 1 18.8006 24.0178399567 34.0143
1105 1 28.4344 18.0938399567 33.0526
624 1 24.1878 12.9920499459 38.9983
3041 1 26.7105 13.2470499459 37.7345
4751 1 22.7643 14.9600499459 40.53
6090 1 18.5188 22.8120499459 38.3832
7662 1 23.2005 20.6860499459 40.8758
6274 1 16.7781 20.4128399567 33.8557
2053 1 16.1993 19.2910499459 40.3865
295 1 28.9144 12.4850499459 39.3049
4716 1 20.8156 12.1710499459 38.878
2835 1 31.9333 14.7310499459 39.4062
5082 1 18.138 13.0780499459 39.6144
6670 1 30.9076 13.0120499459 37.472
4668 1 20.7255 14.5150499459 37.1242
7655 1 28.28 14.8730499459 40.8849
1811 1 25.9422 13.2720499459 41.2213
256 1 16.1928 18.4910499459 35.9662
7973 1 21.1204 23.5200499459 37.155
6244 1 27.4857 19.0710499459 41.3178
3858 1 19.0242 13.1288399567 32.9085
7453 1 21.9982 12.2040499459 41.3989
1948 1 21.4116 13.5312599351 48.9898
2840 1 28.2422 19.6592599351 48.3516
6299 1 31.3227 19.0722599351 44.4602
3714 1 21.4749 15.7042599351 43.0453
6329 1 29.6692 14.4592599351 44.5705
1335 1 19.3225 18.0232599351 49.7017
1094 1 27.9743 10.4592599351 47.6328
4342 1 26.4047 17.9992599351 49.861
331 1 19.3111 21.1470499459 41.748
632 1 29.6008 11.9524699243 45.8681
2466 1 24.8892 15.6270499459 42.3384
2223 1 29.8838 16.4962599351 46.7811
5873 1 30.771 14.7630499459 41.9865
2687 1 24.5224 19.9252599351 49.4783
5925 1 19.1946 15.3312599351 46.1182
7062 1 23.4715 14.6252599351 44.6382
7423 1 24.9947 19.0910499459 46.729
6352 1 27.4776 15.9460499459 43.3355
7976 1 22.6931 11.0142599351 45.5965
2287 1 28.6182 16.2142599351 49.5172
1 1 27.4296 17.7472599351 46.3138
1166 1 17.9273 12.8232599351 46.7526
5949 1 18.8875 18.1612599351 46.7876
3528 1 29.287 13.7772599351 48.0992
3790 1 31.7783 11.2242599351 47.5161
6195 1 19.8036 11.3602599351 45.0854
589 1 25.2048 11.3702599351 46.7425
5434 1 18.6562 13.5392599351 49.3469
3096 1 18.1099 17.6520499459 41.6543
4969 1 24.2175 12.1730499459 43.3748
5241 1 24.8147 18.3300499459 41.4188
4769 1 18.9146 15.3380499459 43.3519
4885 1 26.2473 13.6472599351 48.227
7086 1 23.4152 16.6672599351 46.7498
5321 1 21.4204 13.5912599351 46.159
7597 1 24.1555 11.0444699243 49.6819
2532 1 19.1639 10.8354699243 49.694
251 1 21.838 16.4402599351 49.1661
2261 1 26.0581 15.3302599351 45.7695
2458 1 17.5283 16.0762599351 48.4247
7831 1 26.9643 12.6622599351 44.7908
7091 1 21.4781 18.9632599351 46.4904
1604 1 30.7609 19.0752599351 47.3451
3375 1 32.2736 15.5132599351 45.0373
3222 1 24.0762 19.1160499459 44.1524
6883 1 24.6161 15.7424699243 49.3144
6059 1 21.5522 18.5630499459 43.7003
6300 1 17.4936 13.2610499459 42.2369
7143 1 21.7159 10.6762599351 48.3227
247 1 18.8104 19.2330499459 43.9877
5879 1 26.6312 21.5180499459 42.5635
3794 1 31.6455 13.4022599351 49.5295
5662 1 16.5328 19.5842599351 47.124
3400 1 16.4171 16.4032599351 43.6545
85 1 28.5717 18.3960499459 43.7631
3809 1 27.8117 12.1994699243 50.0818
3390 1 32.1972 17.1242599351 42.643
5067 1 31.0861 9.7584699243 49.9618
6604 1 21.7557 19.3802599351 49.3553
1570 1 19.5965 11.5760499459 42.4448
4453 1 23.9171 21.9070499459 43.4096
5054 1 27.4229 11.2342599351 42.298
3795 1 26.699 12.5224699243 59.241
7020 1 19.412 11.4994699243 58.3525
695 1 16.6141 17.9032599351 51.3721
6985 1 20.9081 9.9934699243 55.1277
4864 1 26.6761 9.8084699243 58.5767
3755 1 23.0995 8.9394699243 56.3992
3835 1 19.052 8.6694699243 58.427
3408 1 16.508 16.3762599351 55.7782
982 1 25.6127 9.6494699243 55.7858
5772 1 31.14 11.5074699243 54.127
1103 1 30.4632 8.8764699243 55.2076
4720 1 32.0866 15.7694699243 57.5677
6853 1 25.0621 13.8674699243 57.4596
7651 1 25.0627 9.4634699243 53.1094
4313 1 22.2818 13.7704699243 57.6509
2717 1 30.0443 16.1802599351 53.6585
2252 1 28.4275 17.2104699243 58.0102
6266 1 25.6447 16.2824699243 58.6506
5281 1 22.6724 10.9384699243 52.1552
7430 1 19.1584 17.3962599351 54.8843
7649 1 27.6547 10.0784699243 52.0835
4562 1 31.5857 14.3554699243 55.2036
307 1 28.8879 14.5424699243 51.7309
2166 1 31.9183 18.5354699243 57.6161
5436 1 18.5782 12.4054699243 53.6138
1705 1 20.4261 12.7134699243 55.806
7399 1 21.5037 16.3194699243 58.5847
5946 1 29.0323 10.4924699243 56.9526
4156 1 17.002 12.7364699243 57.3479
128 1 28.82 14.1964699243 55.2518
2361 1 21.6964 17.5544699243 55.9102
5302 1 26.4787 14.4764699243 53.2771
2106 1 30.1253 11.8474699243 51.5554
650 1 22.428 13.5474699243 51.5475
1660 1 24.992 18.4786328555 56.9121691582
1019 1 22.8347 12.8524699243 54.3355
337 1 29.5494 20.0982599351 50.8224
6123 1 26.1431 18.7132599351 52.5929
1484 1 30.4721 12.5124699243 58.286
3105 1 23.2463 18.7162599351 51.9351
2060 1 18.7489 14.8464699243 56.4514
5036 1 17.7113 14.2412599351 51.9298
4413 1 25.3078 13.4284699243 50.9844
891 1 28.2809 17.7584699243 55.2035
5090 1 28.5265 14.3714699243 57.8932
6615 1 21.8405 16.2974699243 51.8751
3314 1 28.2457 11.5594699243 54.4221
2861 1 25.527 12.4444699243 54.9864
3636 1 19.7914 10.1794699243 52.3992
7229 1 25.5347 16.8624699243 54.5441
5738 1 23.0554 15.7460328555 54.4231691582
5214 1 19.1245 16.5592599351 52.3302
7048 1 30.6748 17.5042599351 50.9994
149 1 16.321 11.6904699243 54.8963
5097 1 16.5969 9.0684699243 55.3807
4107 1 22.5992 9.5914699243 58.9873
6292 1 16.3391 19.0454699243 57.0331
6802 1 16.2189 16.7734699243 58.826
1909 1 18.8564 15.4744699243 59.2288
6442 1 32.4844 17.2432328555 53.3778691582
806 1 28.7232 19.9484699243 53.4577
1033 1 23.2518 13.0824699243 64.4016
2649 1 21.5902 14.9324699243 62.8679
2807 1 17.648 15.5166799134 67.8854
3454 1 21.4391 11.2568428446 65.7476891582
6845 1 27.4356 8.5671428446 68.0512291582
2924 1 20.865 5.9771428446 65.4889991582
3884 1 31.4723 6.3366799134 66.836
6591 1 30.0198 11.0534699243 60.5227
2401 1 20.9777 7.7574699243 60.1995
1559 1 17.0749 9.5864699243 61.6102
3838 1 17.1451 13.7804699243 62.7369
3112 1 22.9792 7.5854699243 62.0577
7811 1 22.9145 7.9326799134 65.1126
230 1 29.6104 8.4452428446 66.3659791582
5383 1 19.1873 9.4481428446 65.7646591582
5096 1 20.3535 16.9774699243 61.2644
423 1 25.1752 11.6046428446 66.8655791582
5486 1 28.7874 6.9365428446 64.1465291582
584 1 18.6843 7.0864699243 64.231
5020 1 31.2598 10.4681428446 62.9411591582
3897 1 24.571 11.0908428446 62.7468791582
6462 1 31.9374 7.2354699243 60.6138
2727 1 25.5581 7.8004428446 66.1296191582
7312 1 29.3864 10.9796799134 64.9545
2928 1 28.8325 14.9366799134 65.9677
1262 1 31.1531 16.3468428446 66.4449391582
6331 1 16.4401 17.7404699243 61.4887
7616 1 18.437 11.2634699243 63.6488
1957 1 19.5893 8.7936799134 62.2355
3395 1 26.8642 8.2654699243 62.558
3851 1 27.6571 12.9746799134 63.8749
3632 1 28.3681 8.8058428446 60.4171691582
6512 1 20.5953 12.2994699243 62.1306
1985 1 29.6962 12.6636428446 67.1602591582
3581 1 24.4773 13.0494699243 60.815
7180 1 30.465 17.9774699243 60.2234
495 1 26.5407 10.2816799134 64.6705
6072 1 24.7734 9.2344699243 60.7606
6885 1 21.9192 10.0456799134 63.2066
4471 1 21.1188 8.2556799134 67.3558
4628 1 19.35 13.0966799134 65.7996
7624 1 24.1695 14.2051428446 67.0104291582
6911 1 31.0069 17.0544699243 62.863
6877 1 26.6505 16.6896799134 65.9012
4746 1 16.781 7.6344699243 59.5758
2275 1 25.4927 14.6014699243 64.497
2648 1 18.5907 13.0724699243 60.4551
3963 1 22.7923 16.7107428446 66.9383391582
5825 1 16.4121 10.8916799134 65.7834
1194 1 23.5219 17.6856799134 60.2211
3562 1 26.8634 15.5974699243 60.972
6451 1 24.1657 15.6064699243 62.0548
7116 1 18.2964 16.2554699243 62.962
5280 1 16.6867 13.8196799134 65.7174
1850 1 20.797 15.5295428446 65.5043491582
3262 1 28.645 13.5266799134 61.2605
5821 1 29.9863 14.5624699243 63.5312
2296 1 30.7362 15.0026799134 59.8938
4131 1 24.181 17.3612428446 64.4680291582
906 1 18.2911 16.9996799134 65.5957
488 1 21.9603 12.1324699243 59.7284
1308 1 27.9108 18.0144699243 61.3497
4493 1 22.8111 10.3641528338 67.9937691582
2696 1 32.4445 12.4629428446 66.5516291582
7966 1 16.2164 11.5664699243 59.8273
5304 1 16.2522 7.0404699243 65.6276
3085 1 32.3185 13.0644699243 63.6169
5904 1 30.8734 37.3623099892 3.82112
5730 1 23.4753 31.5439099892 5.38434
3457 1 16.5845 35.4140099892 3.3359
7108 1 29.3708 42.0624 -2.86178
4164 1 31.2496 35.3775 -1.36587
3498 1 18.429 31.8361 1.13119
7984 1 20.0517 36.5435 0.849513
3657 1 27.0328 33.3726099892 3.78052
888 1 22.994 42.4660370688 -2.7401691582
640 1 27.1835 36.1555 -2.88149
1102 1 23.5755 34.6470370688 -0.4456691582
731 1 22.671 35.8298099892 1.68812
6550 1 26.2337 40.637 0.187744
3591 1 18.8382 34.5788099892 5.25487
5163 1 25.2471 37.7765 -0.168236
39 1 23.8237 40.6885 1.56446
2755 1 24.2105 38.0443 2.43901
7200 1 29.3754 36.8264099892 0.285
6479 1 18.7658 35.0440370688 -1.2429691582
7975 1 27.4885 39.9764 2.56711
4680 1 22.1859 37.084247058 5.6372308418
7362 1 31.5562 32.6127099892 4.77905
4518 1 27.8685 35.1518099892 1.88328
642 1 26.8814 37.2434099892 3.36629
7816 1 18.0688 40.8361099892 2.07275
5815 1 21.9493 41.3414 3.73314
3416 1 29.9912 39.0279099892 1.77499
2723 1 18.027 37.9173099892 2.51298
7325 1 27.8444 38.6241 -1.34996
2712 1 18.985 42.8710370688 -1.6020691582
1114 1 26.268 35.2700370688 -0.3221691582
5344 1 27.0237 42.7855 -1.41688
6998 1 23.1639 38.1625 -2.00122
4571 1 20.629 38.7300370688 -0.8706691582
3771 1 21.8945 41.1403 -0.40721
4545 1 23.5494 39.349247058 4.8687308418
969 1 29.9154 40.648 -0.581027
2201 1 18.2475 40.3857099892 -0.677955
213 1 19.3686 40.8976099892 4.72587
137 1 19.1776 34.3467099892 2.37966
2916 1 22.1881 32.6463 -1.70448
110 1 26.0767 40.2907099892 5.19253
3896 1 19.5567 37.9581099892 4.80569
4793 1 26.6574 32.5150370688 -1.3074691582
7055 1 28.8454 36.0994099892 5.36694
4151 1 31.2661 32.6250099892 -2.18261
4105 1 31.1589 39.8651099892 5.31862
4180 1 29.6844 32.8833099892 1.4545
3319 1 24.7104 32.4580370688 0.9441308418
6169 1 30.9009 42.8512099892 1.02246
6235 1 21.5642 34.7013099892 4.21728
4058 1 22.6024 32.407247058 2.7601308418
7118 1 31.8126 34.4626099892 1.21309
1592 1 16.2159 37.6298 0.356362
1667 1 32.1039 40.9782099892 2.92669
4274 1 16.1891 34.8890370688 -0.3888691582
4096 1 19.3631 32.4139 -1.43154
3864 1 20.4111 42.5230370688 1.6303308418
533 1 29.1045 33.2892099892 5.72718
854 1 17.0325 38.9613099892 8.50917
4308 1 31.2708 33.2186299675 13.9042
405 1 28.2193 39.1859099892 8.19357
7911 1 17.7831 30.7163099892 7.4152
2369 1 26.2319 41.2515099892 8.69252
7501 1 24.5567 39.2305099892 9.4355
1187 1 19.5208 40.1854099892 8.97881
4616 1 28.9045 34.5214199784 13.2982
2684 1 22.8038 40.0661099892 7.48664
1319 1 16.3269 35.7414199784 13.94
5114 1 24.9695 31.1064199784 11.2338
518 1 18.4847 36.7575099892 7.1659
3028 1 31.3548 38.9381099892 7.95658
5577 1 18.4563 32.9554199784 12.2174
3234 1 30.5402 37.9065099892 11.5976
371 1 30.087 29.7644199784 11.3731
2303 1 26.8099 32.8054199784 12.737
763 1 30.2168 40.2767099892 10.1623
6817 1 21.0182 32.7622099892 6.1749
2254 1 29.7666 36.6435099892 8.05856
7427 1 25.9362 34.9554199784 11.0721
3972 1 27.0337 38.5151099892 10.7751
3621 1 24.3727 36.4473099892 9.50935
2610 1 16.7709 33.184247058 6.5338308418
2452 1 25.9211 37.1104199784 12.975
3385 1 24.4476 35.9992099892 6.83142
2279 1 19.7671 29.4544199784 13.0363
658 1 20.8974 37.9950099892 8.08821
3637 1 20.6513 34.1656299675 13.6479
5104 1 25.3911 33.5021099892 5.9582
1607 1 19.0579 31.6594199784 9.77107
1048 1 28.4534 30.4294199784 13.4914
4811 1 30.0641 38.4666299675 14.3034
7950 1 21.6888 31.5084199784 13.2733
3352 1 28.5395 36.0814199784 10.6352
5431 1 20.9645 33.6414199784 8.86799
3952 1 22.6285 32.5124199784 10.9319
625 1 25.8166 33.3404199784 8.69698
6857 1 18.0833 34.2622099892 8.84239
1324 1 23.1601 39.6924199784 11.8585
3318 1 20.5195 36.7814199784 12.3911
395 1 28.5952 33.8697099892 8.57048
3594 1 26.3352 30.5080099892 8.65265
2189 1 31.0607 32.8354199784 9.86767
4337 1 21.7324 36.1682099892 9.90849
5134 1 19.0186 38.0156299675 14.3811
3032 1 17.9405 35.7124199784 11.4991
4737 1 26.5332 37.7321099892 6.33658
4406 1 23.4754 34.5394199784 12.7615
90 1 21.6486 30.1914199784 9.39335
3546 1 28.4129 31.6984199784 10.3839
4009 1 23.0895 37.2324199784 13.3016
5572 1 28.0231 30.8013099892 6.50062
5062 1 28.6904 40.9472099892 5.97315
7701 1 18.1193 31.1814199784 14.6654
2265 1 17.0008 29.3326299675 16.5475
7987 1 28.7554 36.9044199784 22.3476
5376 1 27.5305 29.0816299675 21.9151
168 1 17.4087 34.4484199784 19.3637
1804 1 26.456 37.3626299675 20.939
1489 1 23.8964 33.4986299675 18.8324
938 1 17.1828 36.3136299675 21.6475
611 1 31.3618 38.6576299675 17.0487
7380 1 19.689 36.2896299675 20.2143
3698 1 19.4566 32.0964199784 16.9637
4981 1 16.3404 38.4324199784 15.0901
4681 1 31.094 35.4964199784 19.515
7607 1 20.8312 34.9316299675 22.6737
1996 1 25.3796 31.9076299675 17.2148
186 1 29.4894 32.2206299675 19.6255
6223 1 27.7062 35.5564199784 17.8371
4497 1 23.0093 38.2674199784 15.77
7113 1 19.9317 34.7476299675 16.324
7372 1 20.3735 37.6714199784 16.6969
4870 1 18.2116 37.9154199784 18.5144
5377 1 18.3665 31.8076299675 19.481
3412 1 24.8605 35.3206299675 16.816
4204 1 29.1519 32.6346299675 22.5063
515 1 23.4857 35.5036299675 22.5328
3406 1 25.4971 34.4996299675 20.9013
7252 1 17.2039 35.0594199784 16.5333
5342 1 28.0214 32.6934199784 17.4241
4391 1 30.2866 36.1044199784 16.949
6311 1 20.6925 32.6436299675 20.6754
2913 1 22.8006 36.7004199784 18.0456
2455 1 22.6807 30.9746299675 19.9229
3647 1 32.418 34.6086299675 16.0074
5145 1 28.5264 34.7596299675 20.4508
5707 1 27.1331 38.3814199784 18.4074
3044 1 23.49 31.0564199784 15.4044
2102 1 25.8569 37.8344199784 15.8708
7797 1 21.3006 34.6576299675 18.8217
5466 1 19.3219 29.7016299675 23.0639
7195 1 30.7109 29.4444199784 16.5615
4604 1 29.6161 31.7004199784 15.4172
5964 1 21.6251 30.4334199784 17.3671
4457 1 26.3122 32.5686299675 22.7197
1093 1 16.5671 29.5656299675 22.654
4232 1 28.5896 29.5736299675 19.3179
7822 1 25.8537 29.7826299675 18.8675
5018 1 18.2351 28.9676299675 19.024
4586 1 30.9394 30.5546299675 23.0308
4004 1 30.9922 29.0346299675 20.8608
1155 1 24.8638 30.2796299675 21.5356
4725 1 16.7455 27.4656299675 20.9553
434 1 23.1664 28.2296299675 22.3978
5581 1 20.8191 28.8266299675 20.6833
7170 1 23.5286 37.6356299675 20.4706
548 1 28.2053 36.4354199784 14.9732
780 1 32.225 32.8876299675 19.6339
869 1 24.9612 33.4574199784 14.7693
824 1 20.1141 32.3046299675 23.4704
6277 1 32.2819 30.2356299675 18.6186
5977 1 32.1704 37.3676299675 21.2537
7837 1 21.0307 38.2716299675 21.5433
1893 1 20.2362 27.9946299675 17.3198
3140 1 19.0975 31.9618399567 30.8606
3474 1 20.4473 35.5858399567 28.8627
680 1 28.8597 35.7068399567 26.2543
7562 1 29.9345 33.1698399567 26.2389
682 1 18.2053 34.3998399567 27.7132
1675 1 26.2537 34.7918399567 29.2033
5103 1 21.6021 25.5568399567 30.6372
2639 1 24.0855 37.4556299675 24.4376
6839 1 18.077 33.1966299675 24.982
7578 1 24.4356 33.7376299675 24.511
4602 1 18.0256 36.8476299675 26.5213
6262 1 22.2616 31.7676299675 24.9944
765 1 19.8116 36.7956299675 24.5197
6111 1 25.3585 31.7938399567 27.7515
4778 1 30.5061 35.0838399567 29.7389
5323 1 31.3722 26.6698399567 31.7668
6785 1 18.4668 31.7258399567 28.0679
3865 1 23.8627 35.8958399567 30.363
4986 1 26.4736 34.2246299675 26.4959
4694 1 23.1693 33.3938399567 31.6952
1709 1 22.9498 36.2928399567 27.5559
1437 1 25.3166 27.4738399567 30.081
457 1 19.9064 29.2198399567 31.1689
579 1 17.3381 36.0848399567 31.2656
6268 1 27.9063 31.9608399567 25.0933
1741 1 28.7455 29.3588399567 24.4649
2795 1 29.6079 32.6496299675 28.9007
720 1 16.4796 30.9736299675 25.0051
5209 1 31.2056 29.2948399567 31.257
4581 1 31.2255 29.5288399567 25.7765
2130 1 24.3644 29.9656299675 24.3756
2014 1 20.7139 30.4798399567 27.0005
6713 1 22.9066 27.4656299675 25.2454
1759 1 26.4121 29.5086299675 26.2311
4013 1 30.2174 34.9886299675 23.7552
5189 1 25.6769 26.6466299675 25.4726
3564 1 23.162 33.4108399567 27.2042
1092 1 26.8732 29.5108399567 30.8155
1421 1 32.0604 27.6726299675 27.8235
5386 1 20.3155 26.3928399567 28.1838
1515 1 28.8155 26.3866299675 28.4175
1145 1 18.7546 26.4018399567 30.6454
322 1 22.8144 28.0888399567 31.5804
6684 1 20.0347 28.3416299675 25.2355
4790 1 21.5086 32.8758399567 29.485
6689 1 29.3627 35.5658399567 32.0477
2728 1 28.8067 25.4858399567 31.0049
3549 1 24.3962 31.1688399567 30.5112
5149 1 22.104 30.0088399567 29.3682
4280 1 17.8552 27.6618399567 27.1834
5936 1 23.0455 27.5466299675 28.0123
5033 1 27.0832 32.2628399567 30.0627
7566 1 30.9351 30.2398399567 28.6111
3792 1 17.4035 28.7028399567 29.7445
7460 1 28.3552 29.0616299675 28.3474
1150 1 25.7534 36.9686299675 26.5746
913 1 26.4992 25.8628399567 32.3136
4847 1 29.2006 26.7246299675 24.1695
1898 1 27.6918 33.5448399567 32.4615
5620 1 16.412 35.1976299675 23.9327
3121 1 16.2728 31.0976299675 30.8726
2881 1 17.2427 33.4358399567 32.4471
588 1 26.2226 25.6228399567 27.9269
2935 1 19.0798 35.5838399567 33.445
3961 1 20.1915 25.8590499459 35.9733
2503 1 25.2054 25.1790499459 41.1809
2740 1 28.9064 24.9200499459 39.4045
5125 1 22.8559 24.5328399567 33.0012
5836 1 17.7272 25.4140499459 39.019
272 1 32.1584 31.5678399567 35.9133
1470 1 27.653 26.2728399567 37.0138
6747 1 21.4011 33.0510499459 41.3395
1104 1 30.1796 25.0918399567 34.8447
2411 1 25.1235 26.0368399567 38.3957
5243 1 22.4405 24.8328399567 40.4307
6122 1 24.306 29.9568399567 33.1967
3615 1 16.638 28.4940499459 40.5441
6778 1 23.3662 29.4288399567 40.3619
1688 1 16.4852 33.5618399567 36.4664
3122 1 23.4419 32.0920499459 39.6932
1849 1 22.7354 27.3150499459 38.6898
7221 1 19.2451 31.3270499459 40.9066
2376 1 20.2904 26.5920499459 41.3978
4228 1 16.8196 25.6618399567 32.5435
4648 1 28.9851 32.6578399567 39.5985
2110 1 27.7234 31.0718399567 36.5062
5684 1 28.6054 27.9980499459 39.7627
6632 1 30.3182 33.8648399567 35.6092
7806 1 31.6404 31.7588399567 33.1059
3436 1 19.9759 27.1210499459 38.5139
2187 1 16.9802 31.5528399567 34.5454
5922 1 20.7124 33.2388399567 33.0097
7318 1 26.2814 31.7998399567 39.1573
1016 1 25.9924 33.5468399567 36.8161
2951 1 29.94 28.0068399567 37.2728
2184 1 22.9003 31.1058399567 37.0792
7782 1 17.6964 32.3230499459 38.6508
3539 1 30.3438 23.8928399567 37.2008
4080 1 30.2755 30.7648399567 37.8102
6866 1 24.1804 32.2418399567 34.9162
4450 1 28.9687 31.9978399567 34.1694
1630 1 20.2406 31.7018399567 37.271
737 1 30.504 27.7508399567 34.4217
5816 1 26.4631 28.3048399567 33.6107
758 1 23.3843 28.4188399567 36.2124
3180 1 26.2483 28.6840499459 36.2419
4717 1 25.9464 28.7868399567 38.8975
1611 1 25.4248 34.2518399567 33.4284
2193 1 16.898 29.2638399567 36.3549
3077 1 18.6376 29.5308399567 38.6008
7949 1 22.1188 27.0528399567 34.3097
6168 1 31.1397 34.1118399567 38.3541
6672 1 20.5483 34.5968399567 37.2767
863 1 22.2676 34.3348399567 35.0701
5296 1 17.8813 27.1630499459 34.8313
7687 1 19.8481 28.6868399567 33.8045
3188 1 32.0568 30.5788399567 40.0909
4362 1 19.7423 31.2528399567 34.6426
2524 1 16.1386 25.4020499459 36.6043
4782 1 26.9251 23.0940499459 40.4149
2104 1 27.2818 24.5978399567 34.5674
2135 1 31.2916 23.8530499459 40.5753
6649 1 28.8705 29.5998399567 32.8473
6025 1 23.8233 23.8568399567 37.3243
1249 1 30.3444 26.5300499459 41.3823
5777 1 29.4245 30.3500499459 41.2062
4766 1 32.4756 24.5358399567 33.3277
4869 1 30.8634 32.1050499459 46.3484
3495 1 21.9987 29.6350499459 44.6058
6207 1 30.5424 30.9350499459 43.8215
5196 1 23.705 31.3970499459 47.5194
5185 1 20.8147 21.9942599351 49.4981
7444 1 26.9072 27.3160499459 41.9203
2914 1 18.3603 29.3810499459 42.6857
3818 1 18.0589 31.3600499459 44.5191
948 1 24.5279 30.5850499459 44.9229
152 1 27.7868 31.7840499459 44.6006
5865 1 32.2716 30.4000499459 48.141
2149 1 20.8314 31.9200499459 45.5071
6142 1 26.7727 31.0960499459 42.0169
4941 1 24.9197 29.1740499459 42.5791
317 1 24.2954 21.8362599351 46.2899
7029 1 17.3496 23.1940499459 45.056
2513 1 26.8224 21.9952599351 47.7263
5710 1 32.4488 21.3922599351 47.0151
4267 1 17.424 33.3910499459 42.6707
2413 1 29.4858 28.7270499459 45.4238
5355 1 24.8413 24.6290499459 43.9695
1210 1 21.1679 25.8740499459 43.944
1561 1 26.8725 29.6022599351 46.19
511 1 31.1951 27.8780499459 47.5785
3706 1 24.4374 33.3290499459 44.6776
7906 1 27.3684 30.3462599351 49.0409
4712 1 31.3352 25.4850499459 44.7076
3882 1 20.0807 28.4930499459 46.1147
2984 1 27.3053 25.0470499459 44.9915
984 1 27.8776 22.3290499459 45.0029
4639 1 20.9404 28.6160499459 49.0275
2638 1 21.0243 24.8460499459 46.6141
1717 1 18.6142 27.1150499459 44.4117
540 1 28.7663 23.9432599351 48.5056
1634 1 23.6447 28.8650499459 48.594
1728 1 18.1489 28.7030499459 49.5613
4174 1 21.4343 23.2110499459 42.5936
3913 1 24.9491 27.4102599351 46.556
6730 1 21.6202 21.8690499459 46.8028
4260 1 16.3781 26.6590499459 48.3465
4468 1 25.5428 22.4872599351 50.2879
3102 1 28.6659 27.8310499459 48.7791
7733 1 17.5784 26.1050499459 41.7305
6971 1 25.2287 24.9632599351 49.4149
2859 1 27.0375 25.9510499459 47.5218
2117 1 18.7298 23.9260499459 49.1864
6192 1 21.0039 29.3080499459 41.943
7466 1 31.0022 23.8210499459 47.0269
7572 1 20.7744 25.7860499459 49.1939
5186 1 23.8589 24.7700499459 46.7334
3441 1 18.315 25.2430499459 46.5465
3156 1 28.9546 26.6280499459 43.6973
468 1 23.5893 27.2212599351 44.1287
2767 1 18.2616 30.2290499459 47.1553
3100 1 16.6586 22.2702599351 49.8757
6803 1 16.3491 23.7950499459 42.7708
6323 1 30.5299 21.9100499459 44.7554
4365 1 32.2527 23.3570499459 43.1301
1200 1 19.8149 21.9790499459 44.7476
7692 1 31.9511 26.6872599351 54.7204
6955 1 31.9985 31.5002599351 50.6621
2785 1 24.5417 21.1282599351 53.3649
7042 1 29.8096 21.9134699243 55.2102
1341 1 22.5069 21.8832599351 56.4489
1718 1 32.3379 21.6962599351 54.0521
1267 1 25.3189 29.4852599351 50.8102
2670 1 22.2428 24.8790128555 58.6574691582
5894 1 27.2847 19.9614699243 58.0997
5639 1 19.1248 30.9532599351 53.1542
2502 1 25.4989 21.1734699243 56.1086
5937 1 18.5773 21.7304699243 57.4666
7871 1 31.6322 27.2812599351 51.8323
2691 1 29.9827 20.5454699243 57.5279
7359 1 31.2097 22.2732599351 51.5132
4555 1 18.3905 26.1650499459 51.065
7452 1 19.0174 29.7122599351 57.9061
1618 1 22.8362 28.3682599351 56.319
1449 1 22.929 25.4002599351 50.7284
4023 1 19.8476 21.2632599351 53.5529
1246 1 29.1711 31.6510499459 50.9475
489 1 29.8835 28.2374699243 55.9466
1965 1 27.3443 23.3204699243 55.1631
4599 1 27.0315 22.1592599351 52.65
3764 1 24.3193 21.5824699243 58.7482
1867 1 18.0074 28.5352599351 54.281
6986 1 20.934 30.3700499459 51.1844
7771 1 16.8885 23.9221728555 56.9664691582
1800 1 30.5495 24.5504699243 55.7762
7924 1 20.0909 26.7702599351 53.3925
89 1 22.9314 23.4772599351 54.1544
5493 1 26.1937 26.8112599351 51.3185
4254 1 30.8289 29.8032599351 52.4656
835 1 22.3925 19.4594699243 57.9954
5562 1 17.2271 24.2262599351 54.2291
5791 1 26.1596 29.1464699243 56.2415
975 1 28.8452 23.9352599351 51.3873
274 1 20.1637 24.0462599351 54.0054
3370 1 26.542 26.9742599351 54.305
6363 1 18.9776 25.9254699243 57.7949
3545 1 28.2827 29.1252599351 53.2454
7400 1 18.3888 19.9552599351 55.3782
676 1 23.1427 29.7872599351 52.6579
759 1 22.874 22.5912599351 51.3168
5014 1 27.9623 27.7721828555 58.1348691582
321 1 23.939 25.9342599351 54.8326
4349 1 28.7331 25.3494699243 53.8491
7559 1 22.6553 27.1192599351 52.7416
2297 1 24.3923 29.8924699243 58.4623
4172 1 20.0284 27.9832599351 56.1861
7165 1 31.4177 29.5753178555 58.0833691582
911 1 23.9268 30.7012599351 55.1333
4139 1 28.9241 26.8752599351 51.3325
7531 1 26.4401 23.4034699243 57.9367
5739 1 20.3975 23.7504699243 56.8058
880 1 24.5586 25.4064699243 57.5252
1933 1 28.9209 25.0944699243 57.9102
3174 1 26.5896 31.3682599351 52.3507
5049 1 16.6497 29.0341188555 58.9936691582
6718 1 16.6545 20.1292599351 53.1072
3465 1 18.6755 20.6662599351 50.9416
4580 1 16.1494 26.5754699243 57.6616
6261 1 32.4733 30.8642599351 54.4297
1268 1 22.15 19.8804699243 54.3108
6989 1 28.3516 30.9244699243 55.5588
383 1 27.8588 18.4244699243 64.1153
3168 1 31.2847 25.9124428446 66.1442491582
1344 1 27.8532 21.0396799134 62.9473
5039 1 25.4277 21.2756799134 66.4955
4984 1 16.7108 22.6604699243 63.3665
6507 1 30.7047 22.2226428446 66.3434891582
2667 1 18.8684 19.3734699243 60.8782
78 1 26.542 23.3324699243 63.9071
7955 1 19.1877 21.1934699243 63.0616
1123 1 31.6591 20.2414699243 61.2478
5003 1 21.5631 23.3409428446 65.6276791582
1139 1 22.3807 22.7634699243 60.4331
7899 1 16.2927 25.7144699243 60.2741
2981 1 28.3039 25.2294699243 62.7905
4622 1 24.3413 23.8594699243 62.3177
4284 1 22.2743 18.5866799134 62.6118
7792 1 17.6354 23.1734699243 60.5583
5863 1 30.5024 23.9536799134 64.1019
3561 1 20.0459 23.5706799134 61.7979
4195 1 26.9521 27.4149428446 61.7512791582
7495 1 17.3818 24.5195428446 66.9503591582
7365 1 21.6204 20.7526799134 64.377
4389 1 30.4962 18.7006799134 65.0389
3694 1 23.2491 25.9045428446 63.5771491582
5336 1 25.4847 19.8664699243 64.2371
5844 1 30.4468 22.2605428446 59.8497691582
3247 1 21.0952 19.1414699243 66.6171
1050 1 26.9748 26.7864699243 67.034
3493 1 23.8213 20.9754699243 62.3201
4326 1 23.5507 24.1319428446 67.3530091582
2367 1 27.7166 22.0534699243 60.2292
5356 1 30.5204 21.0890428446 63.6012991582
7503 1 19.699 23.0246799134 67.6811
3070 1 25.4319 27.3314699243 59.306
1875 1 25.3475 18.0595428446 67.8423791582
5338 1 19.644 27.8454699243 65.2878
48 1 24.4147 27.4264699243 65.9303
4510 1 20.6452 25.3804699243 64.0602
7637 1 32.4762 24.8124699243 62.3892
1809 1 17.9402 19.7696799134 65.0536
3778 1 25.6551 19.7614699243 60.5041
1271 1 26.1536 23.9916799134 66.5241
1751 1 17.7706 25.1134699243 64.2315
5869 1 26.2594 24.7474699243 60.5838
4094 1 18.8918 20.4356799134 67.6498
592 1 28.754 23.6428428446 67.6132691582
7777 1 31.5733 28.8434699243 62.5946
6675 1 30.2676 25.0154699243 60.6026
6255 1 16.7064 27.0396799134 68.0807
7982 1 16.798 27.4726799134 65.283
1208 1 18.7759 26.3204699243 61.7343
1924 1 23.1563 27.3464699243 61.0122
29 1 28.8415 26.9206799134 64.9814
3227 1 28.6764 29.1534699243 60.4312
5496 1 31.0751 27.7734699243 60.2268
2508 1 20.6547 26.9714699243 59.8456
3547 1 16.8417 20.7244699243 59.4113
2274 1 19.0953 28.9244699243 62.6294
6887 1 29.7393 19.8065428446 67.5254291582
1219 1 25.5245 28.7614699243 63.7976
5435 1 16.2228 21.1456799134 68.0984
1272 1 20.4665 29.8154699243 60.1705
4474 1 23.307 20.0066799134 68.1125
6041 1 20.4822 20.9938728555 59.3199691582
4723 1 32.1369 52.6641 0.989404
2047 1 30.4012 47.3818 3.66471
3273 1 24.5001 52.4358270796 -0.9029691582
8 1 21.2686 46.624 -2.60173
2251 1 28.1249 51.7773 4.01929
3193 1 23.5628 46.6210370688 4.9752308418
5875 1 18.0301 49.2162 -1.36158
1095 1 16.8242 53.7536 0.024722
2350 1 28.9679 45.8008 -1.94662
6010 1 16.5263 44.5477 1.95842
5870 1 16.3239 45.4220370688 -2.8789691582
3936 1 19.8042 46.7946099892 2.40455
2630 1 19.144 52.5748270796 -1.0053691582
6243 1 31.5333 54.3572 -1.1383
7459 1 17.8736 48.877 3.34195
2936 1 31.4249 49.5807 2.41057
4351 1 17.4374 43.0811099892 4.08453
7542 1 21.616 48.4031099892 4.05595
2410 1 22.476 53.9948270796 -2.2147691582
5447 1 20.2311 52.1802 2.62309
292 1 22.0917 51.2578099892 4.58406
234 1 19.1387 50.7545099892 4.96545
7673 1 27.2148 51.6219 -1.61321
3916 1 18.6884 46.54 -1.478
2539 1 25.1356 48.4331 -1.47657
749 1 22.7868 50.1126 -0.989144
819 1 30.7901 51.5841 4.16325
3345 1 29.889 48.3580370688 -1.1075691582
570 1 30.0826 50.8183 0.348973
1363 1 21.4437 53.5812 0.278751
2507 1 22.7921 47.1522 -0.196906
6867 1 27.2667 51.0360370688 1.3000308418
5643 1 18.6659 50.5357099892 1.03514
636 1 22.8985 51.3022 1.66282
1098 1 25.7402 47.1504099892 3.14634
6379 1 21.1569 49.0165099892 1.24917
6770 1 28.3767 46.6963 1.99449
4183 1 25.0905 49.9163 2.61587
1447 1 24.3893 45.4323099892 1.40476
358 1 27.358 48.4315 0.162551
2828 1 25.9242 53.5150370688 1.2546308418
2086 1 24.819 50.8552099892 5.2299
7798 1 29.9567 52.2318270796 -2.1286691582
3158 1 27.0866 45.9420370688 5.4347308418
5372 1 23.1835 43.8691099892 4.54759
7972 1 27.7278 42.8558 2.6645
7589 1 18.7703 44.5938 0.516689
1900 1 30.834 44.5832099892 3.28424
1648 1 32.1706 47.8412 0.274792
84 1 21.8738 44.7096 2.20939
1914 1 25.0318 42.9787099892 2.48597
2988 1 19.1477 45.0647099892 4.74778
3989 1 28.5698 44.3726 0.438396
4731 1 28.9156 43.8317099892 5.05507
5440 1 24.7208 44.1405 -1.18051
1854 1 31.1217 44.3612 -2.64417
1350 1 32.1296 53.7758099892 3.49106
3945 1 24.8362 46.1284 -2.83308
5882 1 27.0257 54.0878270796 -3.0051691582
487 1 18.2495 53.5506 4.18123
4423 1 23.4821 54.1224 2.36096
2156 1 28.794 51.0308099892 10.1575
690 1 19.737 40.7564199784 13.8411
5773 1 20.4193 49.0002099892 6.60382
5221 1 25.9589 52.1014099892 10.0717
2831 1 22.3838 50.5872099892 8.23082
3069 1 31.7267 51.0733099892 6.77256
7316 1 24.7066 42.3370370688 6.7237308418
802 1 21.8231 52.9131 6.81318
3451 1 25.0757 49.9565099892 7.99207
5283 1 25.6268 50.6931099892 12.5206
1621 1 18.7505 50.4827099892 8.47629
2032 1 27.2577 48.6767099892 9.20546
7492 1 31.1233 49.7348099892 9.20113
7981 1 30.4118 47.3265099892 8.34591
2629 1 20.6829 50.0632099892 10.4163
4182 1 31.2891 43.6170099892 6.71948
6371 1 29.0668 51.7988 7.46646
4686 1 28.0732 40.8354199784 11.7971
3195 1 19.6005 51.4784199784 12.4028
7070 1 17.4453 41.9354199784 12.6987
3392 1 17.2171 50.3324199784 12.2486
6102 1 16.5474 45.2914199784 12.5146
7160 1 24.8236 41.7764199784 13.1659
6827 1 20.7831 43.6364199784 10.6895
5004 1 21.4073 46.8003099892 7.91686
7860 1 21.1636 44.5290370688 6.3573308418
6654 1 23.9854 47.3441099892 7.7201
672 1 24.2105 46.9685099892 10.6833
3078 1 30.3911 43.2234199784 10.0591
856 1 25.5902 44.6344199784 13.8501
4839 1 21.9599 47.8631099892 11.7885
2028 1 17.9033 43.5985099892 10.5873
4688 1 31.3732 45.8050099892 10.5254
2090 1 17.7552 45.6005099892 8.62998
158 1 31.1362 43.0634199784 12.6961
2504 1 20.1531 46.4040099892 10.2537
7478 1 26.4872 48.0607099892 11.9608
2178 1 22.9344 50.0917099892 13.3622
165 1 17.0674 43.4694199784 7.1247
218 1 17.9365 47.5504199784 11.6029
5698 1 32.1216 41.6429099892 8.48037
2515 1 23.2765 51.4198099892 10.8369
4249 1 28.5119 43.7624199784 13.8486
3572 1 23.0506 44.0506099892 12.587
4741 1 27.9507 45.8464099892 8.99134
2242 1 24.2196 44.1842099892 9.92533
7475 1 16.1999 41.7572099892 9.14305
7670 1 22.2915 42.8127099892 8.32148
3145 1 19.3806 47.3564199784 14.0498
3535 1 28.9932 49.5899099892 12.503
7174 1 26.3444 42.7709099892 11.0417
7031 1 25.6104 45.0417099892 7.43148
4060 1 19.5723 42.2817099892 7.18183
433 1 18.1523 47.0897099892 6.23517
2402 1 29.8608 47.0007099892 12.5828
3426 1 28.5596 43.1340099892 7.85096
3135 1 27.5896 45.3771099892 11.7954
1701 1 21.9845 46.0922099892 13.9281
7351 1 31.8455 50.0679099892 13.173
2749 1 16.181 52.9585099892 6.14788
4191 1 27.4664 50.1143 6.11439
1148 1 16.1202 50.1204199784 8.94408
2585 1 18.9654 52.8581099892 7.0988
7678 1 22.137 42.2003099892 14.6411
227 1 32.4358 47.4999099892 13.9036
3653 1 20.7762 40.9590099892 11.2716
1883 1 28.762 41.0256299675 14.5682
538 1 28.9726 47.8453099892 6.0948
2270 1 31.2888 42.1394199784 15.4501
4078 1 25.8938 39.1626299675 23.1733
2554 1 28.974 44.6934199784 17.7531
3553 1 26.9331 42.1456299675 19.8331
428 1 20.8562 40.1554199784 17.7349
1834 1 20.1511 46.4834199784 20.1206
4882 1 20.6512 44.4676299675 15.8136
2794 1 19.5234 41.7246299675 22.7144
5057 1 25.8756 46.8414199784 17.3946
3279 1 18.2931 48.2294199784 18.8401
6419 1 31.2936 43.1846299675 20.4885
68 1 25.5085 43.4616299675 22.9662
6727 1 23.9056 48.8474199784 20.0835
896 1 31.626 46.7933099892 16.5411
3284 1 22.1562 50.3254199784 16.9668
2180 1 27.544 49.0984199784 16.8869
2205 1 29.6184 47.8504199784 20.4471
4998 1 17.4935 45.7586299675 22.5607
7515 1 30.1602 48.9114199784 17.7641
7680 1 23.4207 40.9626299675 16.9968
6636 1 31.2769 45.7246299675 19.0807
3424 1 19.2139 42.0124199784 16.5442
5840 1 17.8706 48.9408099892 16.1034
7944 1 32.0931 50.3584199784 15.9492
3340 1 20.8171 48.6336299675 21.8238
7099 1 23.3162 47.9864199784 17.4951
5503 1 17.9253 45.1424199784 15.0978
4937 1 23.8476 46.6034199784 21.731
4853 1 28.6891 44.1206299675 21.202
5 1 26.1071 46.3256299675 23.1426
966 1 26.7571 48.5414199784 21.1056
5391 1 27.5698 42.2474199784 17.0064
80 1 31.3959 47.1766299675 22.7723
6832 1 25.1965 44.4254199784 20.1968
6924 1 16.5355 40.7976299675 16.6879
4542 1 17.8387 43.4264199784 18.8296
4850 1 21.803 44.8516299675 21.8408
6061 1 21.7696 45.7406299675 18.084
6940 1 25.6608 44.1814199784 16.5174
1699 1 16.9507 48.0396299675 21.1067
2079 1 23.4487 43.6316299675 18.1321
6753 1 19.0078 44.0356299675 21.2161
5437 1 27.4049 46.1116299675 19.563
10 1 22.4949 39.7566299675 23.4977
1765 1 17.0984 45.8926299675 17.6263
4159 1 20.1975 40.5764199784 20.3078
7068 1 17.6674 40.4716299675 19.311
189 1 25.032 40.0946299675 19.3465
3872 1 30.2596 42.0626299675 17.9097
2957 1 27.9952 40.7336299675 22.0587
4525 1 29.2086 46.0174199784 15.2553
4563 1 29.3906 39.6766299675 18.7813
6314 1 25.9192 40.5506299675 15.467
7522 1 18.6508 38.6896299675 22.8621
2925 1 22.1215 42.5836299675 20.2967
2003 1 30.1141 38.9886299675 21.3393
6481 1 24.138 41.1576299675 21.8662
5924 1 16.2114 43.0074199784 14.9372
4559 1 31.9651 40.9736299675 22.2091
2919 1 26.1079 50.3364199784 18.8774
3974 1 16.2298 39.8786299675 21.4969
6648 1 20.2724 50.1634199784 14.7826
900 1 23.8074 47.9304199784 14.8087
1761 1 28.1096 50.8114199784 14.9824
5858 1 26.6093 47.3192099892 14.7797
745 1 28.1855 42.9276299675 23.8452
1473 1 17.0161 47.4336299675 26.432
446 1 29.3471 46.6566299675 26.2666
6799 1 18.259 47.5016299675 28.8072
3769 1 18.6272 45.9036299675 25.0348
344 1 24.8006 46.8676299675 25.5073
5387 1 21.2943 45.9956299675 25.5263
6187 1 32.2427 44.8628399567 29.7456
7269 1 30.5346 47.0468399567 30.2622
3983 1 24.2413 47.8126299675 28.0889
5254 1 21.7161 48.1356299675 27.3693
2165 1 24.52 44.3136299675 26.9463
1822 1 32.31 43.6336299675 25.1417
2818 1 21.8007 38.1736299675 25.9048
7602 1 27.788 37.3148399567 29.2753
2729 1 27.8864 41.6398399567 31.7717
4526 1 19.2122 45.1896299675 31.651
4323 1 17.8628 39.9278399567 31.7015
7443 1 17.3272 44.8346299675 29.6706
5373 1 27.0124 43.0056299675 26.3408
4269 1 31.1704 39.0798399567 30.3383
4710 1 17.0404 41.0146299675 24.1019
1864 1 23.798 39.3338399567 31.8315
3477 1 28.719 44.4878399567 27.7743
6573 1 23.7234 42.9056299675 29.534
6376 1 25.6242 40.6246299675 25.8276
7439 1 23.2457 41.6066299675 26.9053
1994 1 23.8669 44.8268399567 31.6919
867 1 30.4393 41.6616299675 24.4145
1654 1 19.8411 42.3906299675 27.1925
3000 1 21.6777 44.4086299675 28.0785
1678 1 27.1028 48.4426299675 25.7791
2107 1 26.0695 39.2646299675 28.2033
3218 1 18.6324 38.9078399567 28.1684
7666 1 22.9413 44.1516299675 24.3354
7682 1 19.3974 37.7698399567 30.5225
7861 1 31.9578 46.4216299675 25.4742
4472 1 24.3685 47.3778399567 32.4943
3470 1 31.1203 43.1098399567 27.852
6616 1 21.2407 41.4768399567 30.6581
3047 1 23.3421 38.6026299675 29.1895
4388 1 29.9132 41.5918399567 29.997
7979 1 28.2432 41.0638399567 27.8882
3486 1 25.598 40.9778399567 30.3859
996 1 21.2556 40.0578399567 28.0535
4104 1 27.8755 45.9486299675 30.1051
6160 1 29.9248 39.5486299675 26.2271
4298 1 30.8347 43.6928399567 31.8448
6914 1 30.2832 37.3148399567 28.1028
4613 1 17.8343 43.1946299675 25.5378
4059 1 21.5356 36.5818399567 32.1512
7285 1 21.3603 41.8896299675 24.7564
5626 1 18.6342 42.1676299675 29.7967
7648 1 25.2036 45.6708399567 29.3978
7842 1 22.6332 47.7864199784 23.8143
2900 1 20.724 46.5756299675 29.5273
244 1 27.6633 37.5928399567 31.9454
2512 1 16.5407 40.7376299675 28.4368
5814 1 27.8799 37.9596299675 24.8237
2998 1 28.0335 44.3128399567 32.4146
1220 1 28.8483 45.7676299675 23.6463
4989 1 21.8293 37.0440499459 37.2414
6518 1 29.4317 37.8488399567 36.5579
7328 1 27.969 35.3508399567 39.7258
5690 1 25.871 36.2208399567 35.4655
551 1 32.0532 45.7448399567 38.2745
4679 1 24.5391 36.8190499459 37.9069
1555 1 18.1356 42.7436299675 32.6356
6974 1 16.7994 37.0770499459 39.8559
2256 1 27.245 37.7620499459 40.9826
1720 1 18.6183 46.4028399567 36.2156
3902 1 24.9468 38.7540499459 39.8382
7301 1 20.9239 37.9740499459 39.9157
5997 1 17.51 37.8928399567 37.3859
3471 1 30.6177 36.3418399567 39.991
5174 1 31.3207 38.5336299675 33.0422
5201 1 29.2673 38.6498399567 39.0972
960 1 25.1502 37.0508399567 32.6743
838 1 20.3995 35.3870499459 40.0303
5724 1 26.4466 41.3608399567 36.3764
4185 1 16.8892 42.9628399567 39.6352
6224 1 32.2041 41.9098399567 35.7121
3609 1 19.668 42.2810499459 40.1693
7544 1 28.8082 39.6138399567 33.4367
7236 1 25.0251 45.2308399567 35.9007
6822 1 16.5345 40.5270499459 37.8503
762 1 25.2884 45.2278399567 39.4793
7027 1 27.7909 45.3270499459 37.034
4229 1 17.9688 43.8378399567 37.0373
4115 1 28.1254 43.0478399567 34.9872
7059 1 31.3336 40.3830499459 39.8558
4565 1 22.2849 44.7898399567 35.1316
2096 1 30.2241 45.6328399567 34.1604
5534 1 20.0404 39.1398399567 36.3731
1719 1 22.4145 39.8108399567 35.0183
6467 1 18.4145 35.5618399567 36.1682
7727 1 20.5796 44.0758399567 38.048
400 1 24.9146 40.7428399567 34.1036
7 1 26.8161 38.7938399567 35.3898
949 1 16.3924 40.9488399567 34.0083
442 1 22.3313 42.3168399567 36.5258
708 1 29.8113 40.6878399567 35.8198
3814 1 18.4456 41.3458399567 36.0477
7605 1 24.7638 43.0238399567 37.7886
3912 1 27.2796 46.4108399567 34.3521
2420 1 30.4733 44.1298399567 36.5451
6931 1 29.4202 42.1518399567 38.316
7005 1 20.5416 41.8578399567 34.1427
6096 1 18.7534 38.3318399567 33.9945
6233 1 21.1907 40.5358399567 38.6191
5702 1 21.0646 44.7440499459 40.9024
3754 1 25.5075 43.3368399567 33.6861
3753 1 27.0821 40.5768399567 38.9422
5932 1 17.736 34.5000499459 40.1939
4532 1 23.8238 41.3408399567 39.6612
5835 1 23.053 37.0248399567 34.6913
5028 1 28.0983 44.4548399567 39.6465
2557 1 17.4416 45.3360499459 41.0481
6384 1 32.3884 37.0248399567 36.4348
5239 1 28.2827 35.3048399567 36.8693
1041 1 30.4588 42.7040499459 41.1723
3922 1 18.5439 38.6880499459 41.1823
4207 1 31.365 35.8008399567 33.9342
7202 1 18.4916 46.8938399567 33.5275
13 1 25.1496 34.6000499459 39.5018
2486 1 27.5531 41.9650499459 41.2686
1313 1 21.125 39.4338399567 32.5202
2230 1 21.48 43.8606299675 32.5184
7699 1 16.4376 42.3630499459 47.7363
4614 1 23.7486 44.8428399567 41.6547
5935 1 30.0117 44.2400499459 44.7442
4403 1 28.6019 41.1170499459 46.6014
1595 1 21.4039 44.5630499459 44.5772
5448 1 20.8993 42.5430499459 42.8687
5664 1 18.5815 37.7890499459 43.8157
510 1 24.985 38.8852599351 49.9656
5211 1 18.4855 40.0510499459 49.4154
1118 1 23.3744 36.5710499459 43.6896
1506 1 25.7306 37.8720499459 47.1518
1787 1 28.6768 36.2220499459 44.1845
4252 1 20.479 37.0590499459 47.2259
103 1 20.4775 41.3440499459 47.9135
677 1 25.9696 36.4920499459 43.1225
3894 1 18.6321 35.1790499459 46.6586
6677 1 30.229 35.8820499459 46.7119
6873 1 18.627 32.7580499459 48.1238
2977 1 19.304 35.0830499459 43.9852
6349 1 22.4062 40.4510499459 45.7711
3162 1 25.4277 34.9070499459 46.8026
7872 1 28.0152 34.2520499459 45.8589
3999 1 21.8429 34.2290499459 43.9027
7585 1 27.086 37.0230499459 49.6635
7435 1 22.8462 35.3890499459 47.9376
6510 1 27.1319 40.6970499459 49.0133
1439 1 31.0321 36.6928399567 42.7183
1045 1 19.6054 39.4740499459 45.7877
1932 1 30.475 38.8750499459 46.8216
5776 1 29.4278 35.4342599351 49.5459
2974 1 30.8853 40.5522599351 49.2295
5862 1 24.766 40.7010499459 47.4617
3129 1 28.1606 39.6100499459 42.9013
6450 1 27.7618 38.5480499459 45.5314
678 1 16.9184 39.8360499459 46.9836
6466 1 23.0271 37.7030499459 46.124
2446 1 30.809 42.8800499459 47.4189
6691 1 25.244 43.4510499459 46.8472
3834 1 30.9279 39.4480499459 42.5112
7287 1 28.1322 44.1330499459 47.2384
6026 1 25.9409 32.8080499459 48.538
7528 1 18.5818 41.6400499459 44.2152
5483 1 25.8778 43.7480499459 44.2263
2726 1 22.3681 43.2700499459 46.8671
1814 1 28.211 42.2820499459 44.1017
5413 1 31.6681 41.9260499459 43.7532
3153 1 21.5404 32.9360499459 48.0956
2600 1 24.7762 42.4760499459 41.9094
5706 1 16.7099 43.4140499459 45.2277
1263 1 23.0219 40.6950499459 43.1237
1655 1 18.859 43.6940499459 48.6511
7859 1 22.9275 41.0370499459 49.6771
6175 1 17.606 41.0908399567 41.7341
4509 1 28.8094 32.9300499459 48.3701
7804 1 22.8898 38.4250499459 41.7886
6126 1 20.522 38.0042599351 49.883
2179 1 23.2473 36.8572599351 50.2736
4881 1 25.8763 33.9200499459 42.2469
3772 1 32.2153 34.4100499459 45.6834
3828 1 28.6875 34.1430499459 42.1505
4910 1 29.7732 45.2940499459 41.875
2366 1 31.4252 33.8140499459 43.1262
7071 1 19.1084 32.3302599351 57.2216
1583 1 31.7813 36.7872599351 50.3916
6589 1 22.2615 33.6272599351 58.3823
1698 1 30.2123 32.7252599351 54.6114
5180 1 22.3421 32.7752599351 55.8384
7656 1 32.4297 32.8242599351 56.4416
4994 1 28.7011 34.7102599351 57.8219
6759 1 30.6194 38.4932599351 58.621
5120 1 24.2943 35.5552599351 58.6017
2203 1 19.964 33.1422599351 54.7022
2112 1 26.2037 33.7752599351 57.3582
4557 1 18.3682 42.1112599351 55.1788
2094 1 32.2569 40.2082599351 57.0368
6089 1 22.0728 32.8572599351 50.6705
5329 1 27.4401 34.8072599351 53.7832
7878 1 26.2477 37.4802599351 53.9887
6970 1 19.3172 39.4292599351 58.6786
1697 1 16.5841 32.5642599351 56.4598
2762 1 29.6 38.3742599351 55.773
7101 1 25.5097 41.6182599351 53.6217
2932 1 28.3996 39.4402599351 53.5123
1383 1 26.5885 42.6460499459 51.0026
1619 1 20.5895 34.4450499459 52.3996
6134 1 18.9554 35.6892599351 55.4225
4528 1 19.3883 38.2952599351 54.4918
2118 1 22.2442 38.4182599351 53.808
357 1 24.712 33.0350499459 51.132
1373 1 20.2348 40.4932599351 56.2405
248 1 25.5554 35.6612599351 51.749
20 1 32.4098 38.1112599351 55.0692
7969 1 29.5896 34.1572599351 52.1539
4965 1 31.6626 35.7972599351 53.3258
2920 1 16.9404 38.7132599351 51.3016
967 1 24.1749 34.6202599351 55.1578
4334 1 19.385 36.6402599351 57.9995
1029 1 27.3748 38.0234699243 57.3183
590 1 31.0131 38.5852599351 52.5533
6280 1 24.7518 41.5332599351 56.1875
3970 1 26.0855 32.5122599351 54.8241
2847 1 18.5837 40.3992599351 52.8983
424 1 29.7494 35.5452599351 55.3844
3250 1 30.7233 33.3044699243 58.9493
5861 1 22.8509 35.8860499459 53.0625
517 1 16.8059 38.7900499459 55.6082
4360 1 29.0806 31.1534699243 58.3714
4836 1 18.2811 33.6270499459 50.8686
5305 1 28.0805 42.0712599351 54.4243
7334 1 29.6174 41.1622599351 56.5825
6152 1 18.2499 42.5410499459 51.1362
6024 1 22.1668 37.3492599351 58.7309
7586 1 24.6116 39.2612599351 52.7163
3335 1 24.8584 37.1362599351 56.4156
3776 1 19.1667 36.9562599351 52.0402
7917 1 22.8111 39.0902599351 56.5644
5857 1 21.1355 40.1802599351 51.7931
7581 1 26.9871 40.7022599351 57.8506
6623 1 23.4948 40.8482599351 58.7366
6755 1 16.5222 35.7302599351 51.4059
3414 1 31.4825 43.0350499459 51.0054
154 1 28.8378 39.1540499459 50.7136
2821 1 16.5541 31.7592599351 52.2216
616 1 20.8773 43.0162599351 52.1414
3806 1 29.9203 37.5144699243 62.4154
5548 1 20.0139 36.5964699243 64.3534
6786 1 26.1412 34.2066799134 67.7107
7019 1 22.75 31.2802599351 60.0444
837 1 23.7633 32.5524699243 62.4324
1651 1 25.4615 40.2232599351 60.3692
7526 1 31.2984 30.3630428446 66.3766791582
6808 1 22.8978 29.8734699243 66.381
3805 1 26.2732 34.6995028555 64.1455991582
709 1 30.3437 32.6856799134 67.496
222 1 28.1407 33.2004699243 65.799
7903 1 27.1434 29.5566799134 67.4448
503 1 28.5366 36.7702599351 59.6571
6650 1 28.5392 36.6124699243 64.5365
2722 1 21.8182 33.6090428446 67.8106391582
6066 1 23.8495 34.5004699243 65.9001
3019 1 31.039 35.5284699243 60.7707
4667 1 20.0416 31.9984699243 66.2615
3373 1 26.0482 35.6522599351 60.7012
5725 1 20.3475 32.8874699243 63.545
3744 1 28.4097 31.2434699243 62.3059
7146 1 21.1381 35.8792599351 60.9814
6182 1 19.0769 32.2154699243 61.2581
919 1 22.7564 37.1424699243 65.16
3022 1 24.622 36.8814699243 62.8065
3516 1 17.028 36.3042599351 64.1197
3161 1 22.3405 34.8654699243 63.2489
793 1 24.5453 36.8604699243 67.496
1005 1 30.561 32.8456328555 61.9228691582
4055 1 17.2232 31.6046799134 66.4414
706 1 30.1501 34.3594699243 64.3197
2482 1 26.3742 33.1274699243 61.6759
3716 1 16.8399 39.1217428555 63.8232791582
4081 1 26.9936 30.8458428446 64.9121791582
5513 1 29.318 37.8794699243 66.8008
263 1 18.609 34.3784699243 65.5536
116 1 21.0492 30.0254699243 64.2745
2706 1 24.3923 31.8884699243 65.0149
1832 1 20.7161 37.4594699243 67.1424
1138 1 17.9998 38.1274699243 68.0408
7433 1 32.0848 34.9506799134 68.0398
1713 1 26.6777 38.5174699243 63.659
3111 1 31.4035 39.5724699243 66.4834
3943 1 30.6001 40.5942599351 60.4721
7599 1 31.6141 39.4294699243 63.7673
7676 1 19.4487 40.1134699243 64.0127
7139 1 25.4962 39.3094699243 65.9849
443 1 19.6867 38.1124699243 61.9495
6665 1 23.6458 39.2254699243 62.0733
5446 1 22.2221 39.6594699243 64.3128
2472 1 29.5707 29.5070428446 64.3237291582
950 1 21.4589 39.7008428555 60.3528691582
4909 1 17.108 35.8352599351 59.6994
1099 1 28.0751 39.3334699243 61.1352
3061 1 17.0195 38.3212599351 61.1979
2803 1 23.1657 29.6211828555 62.6014991582
2826 1 19.4755 35.0816799134 68.1476
6514 1 16.8466 40.6894699243 59.5554
5347 1 16.6342 29.6394699243 61.875
6726 1 19.4609 34.1502599351 59.349
2999 1 16.1143 32.2744699243 61.3094
3275 1 20.7964 28.2950428446 67.8956791582
1147 1 26.3271 31.7364699243 59.253
7233 1 40.1762 12.0666099892 1.93756
3796 1 38.2361 17.4756 -1.17517
7179 1 36.0833 18.9010370688 -2.1325691582
393 1 42.8201 13.1606099892 2.41324
4288 1 35.4463 13.2959099892 3.17237
2347 1 48.8051 14.1503099892 2.38849
3852 1 42.4318 10.8840370688 -1.7492691582
2451 1 44.5494 12.8209 -2.17351
269 1 46.6479 17.3470370688 -2.0388691582
3556 1 38.0296 19.3042099892 4.10918
5016 1 43.1081 15.1210370688 -1.8237691582
7734 1 42.3546 19.5460370688 -1.2416691582
82 1 38.7167 13.6950370688 0.0613308418
6088 1 46.1745 20.2386 -1.90129
6193 1 47.6402 17.1834199784 5.10407
2055 1 36.0736 12.9650370688 0.4521308418
6663 1 42.2856 13.3577099892 5.06639
76 1 35.7359 18.2162099892 5.30461
5263 1 34.6535 15.5280099892 0.576274
2910 1 39.8929 11.8317099892 -1.62224
1471 1 43.9816 17.5830370688 -2.6358691582
2588 1 40.2993 17.8326099892 5.29831
2066 1 40.404 18.2910370688 -2.6428691582
1601 1 34.4895 16.7470370688 -1.8697691582
1297 1 47.8572 16.8904 0.348449
9 1 38.7752 18.3298099892 1.36557
4448 1 33.091 14.5033099892 4.26033
5130 1 37.5461 10.9440370688 -2.9554691582
6549 1 39.9989 15.7678099892 1.34589
94 1 46.4333 12.4244099892 -0.364102
536 1 36.3829 15.8372099892 4.12312
6211 1 33.3355 10.8653099892 -0.441921
7054 1 42.7468 15.5885099892 0.909438
5945 1 46.4621 14.7919099892 3.97011
3131 1 46.3493 10.2465099892 3.07162
5491 1 36.148 17.4711099892 1.80621
1813 1 39.0073 15.6690099892 3.9776
1681 1 45.496 12.8046099892 2.26016
5153 1 43.7019 17.9929099892 1.85114
4884 1 46.3344 17.5005099892 2.55576
2955 1 38.7402 10.133247058 0.3228308418
3025 1 35.6008 9.3610099892 3.28472
5602 1 33.2337 10.4830099892 4.61106
3947 1 44.0085 8.7394199784 2.40114
5642 1 47.5113 10.084247058 -1.2639691582
1716 1 39.1496 9.6064199784 3.1833
7983 1 48.5924 14.271247058 -0.3891691582
5070 1 39.4802 12.9840370688 4.6969308418
2764 1 33.0546 11.9588099892 2.20877
4570 1 36.0735 13.2087 -2.25384
2141 1 36.9936 11.3734199784 4.43752
7784 1 42.4675 10.671247058 1.0243308418
1984 1 35.9167 10.0937099892 0.746841
6963 1 38.3193 15.0170370688 -2.4706691582
37 1 43.4015 8.3503099892 5.17663
4193 1 42.3779 18.9813099892 4.13389
4346 1 34.7155 9.9550370688 -2.7576691582
3429 1 40.2929 10.2884199784 5.67516
5708 1 46.047 10.6428099892 5.75195
401 1 37.3823 15.7114199784 7.62017
1724 1 35.8189 7.3439199784 10.9553
1400 1 43.9324 16.1394199784 10.5649
704 1 45.8498 17.7804199784 9.60902
6905 1 41.5946 16.6574199784 9.12565
3299 1 48.4651 9.0802099892 5.84358
1742 1 41.4957 15.724247058 6.6624308418
564 1 33.3688 17.2073099892 6.97625
4919 1 45.5496 17.2354199784 6.83637
4161 1 35.0435 16.4416299675 11.4842
504 1 46.8055 13.1634199784 6.4962
7462 1 48.3061 11.1624199784 10.2047
2471 1 39.4594 14.0459099892 7.32329
1372 1 43.4899 13.8176299675 14.3678
7820 1 37.3879 13.6124199784 13.7492
1526 1 39.793 15.9364199784 11.1302
345 1 43.0737 10.9384199784 5.98987
306 1 36.9276 18.4919099892 7.83937
6393 1 48.2975 15.3144199784 10.567
1295 1 47.2576 11.0946299675 13.7548
5692 1 46.8748 13.4784199784 9.23528
2281 1 33.098 14.6814199784 8.5166
4188 1 35.3407 6.7606299675 13.6835
5966 1 35.0819 14.8611099892 6.45363
6247 1 44.3602 14.783247058 6.2445308418
398 1 33.5904 11.4174199784 12.8177
6676 1 45.0823 14.2924199784 12.2242
7604 1 45.3536 8.4667199784 7.4852
1843 1 46.4618 8.2726299675 13.8571
6964 1 41.8156 8.3710199784 10.1919
2940 1 36.1673 12.3984199784 6.89666
7750 1 34.403 8.6875099892 6.45508
4855 1 47.5019 15.4456299675 13.3483
4322 1 38.2525 10.7034199784 7.78592
775 1 34.7508 13.8264199784 12.9018
3182 1 45.8782 7.4520199784 11.1293
100 1 40.3412 12.1024199784 9.06228
736 1 37.2611 15.0604199784 10.275
2214 1 34.9305 13.2464199784 10.0453
7868 1 39.8933 7.2706299675 13.7119
6598 1 44.2114 13.9034199784 8.76991
1206 1 38.8042 9.8054199784 13.1949
1894 1 39.4723 9.7154199784 10.3361
3467 1 38.9351 13.1194199784 11.4185
4034 1 43.2948 10.6244199784 12.5268
1063 1 41.2994 15.4714199784 13.337
6995 1 48.074 7.2446299675 8.0439
7640 1 42.4259 7.9920199784 12.8747
3732 1 43.0845 11.4794199784 8.62216
7815 1 34.0126 10.9784199784 8.26194
4527 1 37.0164 11.3324199784 10.269
4539 1 34.563 9.8624199784 10.7128
5179 1 41.3848 12.6064199784 12.8202
4584 1 45.6581 11.7714199784 11.3675
2272 1 44.4389 9.4684199784 10.1222
7504 1 37.1254 8.4467199784 6.54168
1696 1 37.6114 16.3736299675 14.2948
697 1 36.6651 8.9976299675 14.4631
6350 1 48.3524 8.4267199784 10.4997
7404 1 38.3879 7.1349199784 10.1681
7072 1 32.5129 12.6444199784 6.25761
6120 1 32.9645 7.2747199784 8.10723
3750 1 43.2731 17.4284199784 12.9162
3144 1 32.6457 6.9452199784 12.8013
485 1 48.4996 18.1244199784 10.1055
4033 1 39.5232 11.9346299675 14.7245
3142 1 40.385 6.9656299675 16.6117
6861 1 34.2241 7.2696299675 19.1731
6821 1 36.3905 5.7336299675 19.9539
842 1 36.405 12.9966299675 16.415
172 1 40.7984 5.0678399567 23.3187
6801 1 38.8613 10.0836299675 21.5864
7436 1 44.2832 5.8656299675 16.5477
760 1 43.3019 11.2096299675 20.0787
6763 1 39.3461 11.7786299675 19.3794
5291 1 44.8953 13.4826299675 18.8494
4682 1 46.5408 11.5984199784 17.2629
2592 1 32.5288 8.9106299675 22.0258
7834 1 41.2076 13.6656299675 16.3018
5327 1 47.7419 9.9826299675 21.0733
3826 1 37.8095 8.2026299675 16.7748
2711 1 36.5554 9.1156299675 19.1788
2430 1 46.015 14.7496299675 21.3093
4050 1 34.1571 14.4156299675 17.175
5164 1 36.856 11.6256299675 22.8173
4620 1 45.1699 15.0226299675 16.4003
4606 1 39.8152 14.3846299675 18.7135
7243 1 46.9604 9.0496299675 18.4652
1568 1 42.4835 14.8286299675 19.6644
1174 1 44.1072 8.3626299675 15.1717
2267 1 39.5611 10.3226299675 17.1024
3425 1 45.1435 10.6086299675 22.1271
3419 1 42.1871 9.3164199784 17.1713
727 1 37.819 15.4004199784 17.0673
7349 1 36.6294 11.8496299675 19.0405
3783 1 33.8905 11.3496299675 19.9208
6781 1 33.1441 15.3814199784 14.839
1256 1 40.1122 16.2044199784 15.5867
1482 1 36.9517 13.8426299675 21.0637
7990 1 33.0495 12.7676299675 22.2668
7030 1 41.2424 12.6656299675 21.3587
7517 1 47.9983 5.4216299675 20.462
7830 1 35.2794 9.6096299675 21.7418
4178 1 47.4507 12.6606299675 19.9323
392 1 43.1028 11.8836299675 17.1442
7691 1 41.0476 15.0596299675 22.9546
3855 1 45.2607 5.4448399567 20.9988
160 1 42.5332 15.9946299675 17.1253
6044 1 33.1697 9.3776299675 16.4327
5161 1 42.7706 8.5256299675 19.7635
2517 1 42.9282 8.8828399567 22.5885
45 1 34.6429 15.2166299675 21.6576
644 1 34.0089 6.7306299675 16.3468
6750 1 40.6968 6.3628399567 19.6362
2597 1 36.5831 5.7266299675 16.8983
2243 1 38.4078 7.5326299675 20.665
466 1 45.0076 7.2226299675 18.8715
6977 1 47.5255 13.4766299675 15.3435
6420 1 34.9937 10.8986299675 15.2136
2838 1 45.6587 6.2088399567 23.5813
4952 1 42.5378 4.6788399567 21.0355
5204 1 45.2608 13.0416299675 23.2786
7403 1 44.7901 11.1764199784 14.902
6758 1 38.5171 6.9218399567 23.2954
2222 1 46.7053 8.6188399567 23.4862
4871 1 41.1971 10.7398399567 23.3899
3267 1 48.3644 6.3466299675 14.8791
4874 1 33.5709 4.6086299675 19.8661
2621 1 48.8658 9.2134199784 15.1867
6074 1 32.5301 6.0328399567 22.2449
6167 1 47.5807 16.0536299675 19.2962
3027 1 32.9296 9.4708399567 24.7822
2400 1 38.6652 11.5136299675 24.9571
3773 1 34.4951 11.7976299675 24.3934
6421 1 39.7834 8.8218399567 25.0111
4652 1 42.9324 10.9738399567 25.5018
2862 1 47.5103 12.3738399567 25.1151
4949 1 44.7475 12.6128399567 29.702
2310 1 42.103 8.3688399567 26.4515
7204 1 39.5158 11.8878399567 31.8571
2375 1 45.6175 10.3958399567 25.5437
291 1 42.4641 11.4268399567 28.427
3076 1 35.2208 5.3630499459 31.146
4021 1 37.6404 4.4098399567 24.4035
5884 1 42.1644 12.8148399567 30.9668
5632 1 39.1902 8.9718399567 31.1909
5353 1 45.8318 8.9798399567 27.8745
7267 1 47.6043 3.2668399567 30.6386
7749 1 44.8167 8.8358399567 31.5813
3542 1 40.0491 4.3478399567 25.9289
2137 1 36.9355 3.0208399567 31.5776
6564 1 36.2322 8.3736299675 24.0584
7297 1 38.3788 8.7978399567 27.4583
5337 1 32.885 13.7406299675 27.5277
4845 1 34.1734 6.7268399567 24.4224
7567 1 46.8742 4.3438399567 25.1324
2591 1 46.6926 3.1728399567 27.7947
2734 1 33.7994 8.7270499459 30.0203
1425 1 43.3092 8.8278399567 29.1371
5635 1 34.2836 8.9178399567 27.2133
275 1 40.2636 6.5188399567 27.6627
5883 1 35.7154 10.6878399567 31.0335
7697 1 40.6857 4.5858399567 31.3419
4220 1 44.2674 4.2688399567 30.8542
7451 1 42.324 6.0588399567 29.6439
1285 1 36.2361 6.9898399567 27.6921
472 1 38.1137 10.9958399567 29.432
7892 1 38.9407 6.1868399567 30.0525
7916 1 36.8449 4.3920499459 28.9327
4053 1 34.2003 3.7810499459 28.1827
6530 1 37.9466 14.3796299675 25.3646
3184 1 46.4668 6.0528399567 27.6024
5184 1 43.7104 6.0408399567 27.0851
2853 1 36.6058 7.8778399567 30.5475
6937 1 46.0962 6.6188399567 30.4611
894 1 35.3909 4.8208399567 25.9199
1211 1 42.981 6.7208399567 24.2065
6679 1 33.0056 5.9758399567 29.5978
4948 1 48.224 12.7688399567 29.4417
1176 1 40.903 14.2446299675 25.6279
2619 1 48.4335 8.7488399567 29.2097
6239 1 46.5348 10.5498399567 30.1382
7992 1 36.4467 10.5006299675 26.1784
5866 1 34.3233 12.9818399567 30.1259
2595 1 35.0723 14.0686299675 25.9753
7747 1 43.5813 13.7946299675 25.308
2121 1 41.9924 8.3308399567 31.8292
1988 1 40.0433 12.1878399567 27.5475
173 1 36.3138 12.6746299675 28.0031
7329 1 45.2336 14.2848399567 27.426
546 1 32.7525 2.5900499459 32.1442
4607 1 32.6934 10.9908399567 28.7
7726 1 42.6748 3.4198399567 26.641
4395 1 48.7881 8.8298399567 25.368
3663 1 32.5947 6.6798399567 26.8774
7506 1 48.8611 6.6858399567 31.113
2487 1 33.5763 5.0440499459 33.2936
3059 1 46.5874 3.6340499459 37.323
3179 1 43.1788 2.2070499459 35.4767
5712 1 40.5877 3.7112599351 39.8697
4392 1 44.7412 1.3182599351 37.8153
6249 1 35.8606 2.9020499459 38.5363
5008 1 38.0838 2.2580499459 40.0661
1279 1 40.7713 2.6050499459 37.2439
6067 1 43.5066 2.8210499459 39.9312
1077 1 45.7854 3.0750499459 34.7511
2677 1 35.0879 3.3680499459 35.1075
5919 1 38.7672 1.3540499459 35.3418
2424 1 42.8539 0.1890499459 40.8188
7780 1 33.7638 4.0930499459 39.9123
7006 1 46.151 3.9582599351 40.1063
5737 1 43.0747 4.4460499459 37.4079
3980 1 47.3525 1.5652599351 41.083
7339 1 39.0387 4.2920499459 35.6992
4068 1 36.7542 4.9640499459 37.0006
653 1 40.833 12.0758399567 35.3903
1119 1 38.5774 4.6540499459 33.138
5731 1 38.1211 9.2730499459 33.7449
6962 1 44.3303 7.6382599351 38.5892
1487 1 46.4178 4.7018399567 32.788
6683 1 39.7516 9.4790499459 35.9249
2211 1 41.2677 6.1160499459 36.1171
6408 1 36.8228 6.7490499459 33.3723
4027 1 48.2957 6.4020499459 33.8106
4625 1 47.6665 7.5840499459 37.3854
4973 1 46.6844 6.9410499459 40.0028
7845 1 35.0897 6.5340499459 40.0815
1191 1 42.1063 6.0572599351 39.5648
2415 1 45.4098 6.0480499459 36.6129
6036 1 44.7674 7.1038399567 33.9281
7557 1 40.0719 7.6710499459 38.1949
3938 1 34.5194 7.1610499459 34.9936
7448 1 47.0126 8.7858399567 34.9875
1435 1 42.1824 8.6130499459 34.769
5429 1 35.6164 7.5910499459 37.5787
3788 1 38.4227 5.6580499459 39.1464
4921 1 33.1425 8.5020499459 41.0531
807 1 33.9982 11.1460499459 39.8328
618 1 43.2288 9.7670499459 37.0428
2895 1 44.2188 9.5880499459 40.5681
5433 1 36.1898 11.2300499459 33.6681
1345 1 42.6371 3.1448399567 32.8225
324 1 37.697 9.4820499459 37.8789
3803 1 33.8953 9.8680499459 34.4501
5831 1 42.2607 11.0698399567 33.1807
5729 1 47.6352 10.2498399567 38.5433
5860 1 42.135 5.8530499459 33.3863
4756 1 46.4177 10.7298399567 32.9922
7428 1 39.4503 11.0520499459 40.6126
732 1 36.7669 10.4680499459 40.3008
1255 1 33.1145 8.8060499459 38.1948
1690 1 45.7457 10.9340499459 36.5135
5718 1 33.0476 1.8880499459 36.3264
2655 1 41.5366 9.6670499459 39.5167
1070 1 44.5691 12.2480499459 34.2471
6797 1 37.4836 12.0310499459 36.8807
4963 1 48.7062 8.7820499459 40.8822
2 1 34.4978 0.1172599351 40.8263
3789 1 32.5306 10.9550499459 36.5161
3681 1 48.7647 12.1270499459 33.5394
4306 1 48.8937 2.3148399567 32.9653
4573 1 39.9945 0.2072599351 39.9841
4722 1 38.1979 -1.8307400649 49.5191
1183 1 45.0207 -0.2237400649 44.353
983 1 37.3998 -1.0115300757 45.7871
5941 1 34.7489 -0.4267400649 44.9896
3905 1 38.2164 0.1922599351 43.4362
3770 1 42.4107 0.0942599351 45.2076
1824 1 47.6455 0.0732599351 45.7468
4302 1 34.7029 -0.4475300757 49.053
2045 1 39.9261 0.1512599351 48.8362
2075 1 45.0991 0.8122599351 49.7256
1273 1 46.988 1.6052599351 47.9511
52 1 45.7242 2.2042599351 43.3121
3126 1 34.8215 2.6712599351 42.2863
3589 1 40.9331 -0.0097400649 42.8785
4001 1 38.2341 1.4554699243 47.1649
2666 1 34.0973 2.2772599351 45.2291
7790 1 32.8709 -0.7257400649 46.9802
5404 1 43.5906 3.7442599351 42.697
1368 1 40.8404 2.9382599351 42.6334
6286 1 37.6748 2.8382599351 42.7504
6744 1 42.3986 2.9082599351 45.1883
7360 1 36.7924 3.0952599351 45.3723
2854 1 44.5889 2.8182599351 46.7504
5066 1 36.0972 2.0424699243 48.8353
1638 1 41.3365 2.6034699243 49.3738
1296 1 46.7285 3.9142599351 45.1978
639 1 40.0718 3.6892599351 47.0994
4589 1 34.1373 3.7202599351 47.7977
4216 1 33.093 4.5612599351 43.6259
3563 1 45.4303 8.8082599351 47.5531
1790 1 48.3224 4.9632599351 41.5782
1000 1 41.5357 6.6032599351 42.1964
7342 1 39.3497 5.2272599351 43.1933
7884 1 47.9464 4.2034699243 47.7206
5545 1 46.9389 6.1792599351 43.726
1331 1 35.7694 5.8282599351 48.3086
5203 1 40.05 5.2544699243 49.6334
4916 1 37.3232 6.4742599351 41.6314
5644 1 44.1568 6.4512599351 43.5847
4272 1 37.082 5.7102599351 45.9209
6698 1 35.424 6.2392599351 43.8506
3211 1 39.9002 6.1872599351 45.8961
1546 1 44.0893 5.3072599351 48.2466
661 1 42.7164 5.6992599351 45.8213
3926 1 44.2254 -1.5467400649 48.6533
7587 1 41.8763 -1.3047400649 47.4761
3998 1 41.0336 9.0804699243 50.2761
7288 1 32.8691 10.0962599351 43.5274
2387 1 46.5771 6.5632599351 48.4605
7584 1 39.5046 7.7652599351 48.3859
4129 1 33.1951 8.9562599351 46.8472
4211 1 45.9632 8.4562599351 42.3958
6868 1 48.5076 8.0762599351 45.3016
3353 1 33.2325 6.9112599351 48.88
2374 1 43.5369 8.4892599351 45.3708
7779 1 37.3236 8.9650499459 42.6243
4676 1 41.0983 9.2722599351 42.3388
2383 1 36.9 8.3224699243 48.8164
5810 1 48.1287 10.2262599351 43.3935
6982 1 40.9119 8.8782599351 46.1634
7207 1 39.2753 10.0242599351 44.2973
2360 1 43.4715 10.1112599351 43.1933
7332 1 34.9716 8.9052599351 44.5515
1680 1 43.9457 3.3122599351 50.1906
2219 1 33.2464 -3.1275300757 58.3298
67 1 41.7491 -1.3315300757 53.1302
6130 1 34.8118 -2.5845300757 55.0648
97 1 36.1011 -1.3075300757 51.4835
4114 1 44.3614 -1.9265300757 52.4945
2115 1 35.9557 -3.1355300757 57.4545
1871 1 33.2069 -0.2875300757 57.5036
7593 1 32.8472 0.9734699243 51.0096
505 1 42.8387 -1.3035300757 57.4716
7420 1 39.3984 -0.2365300757 56.3376
6427 1 42.1001 0.2224699243 55.5014
4740 1 47.1703 -1.0865300757 54.5766
3178 1 40.7588 0.7704699243 51.6017
7787 1 38.103 0.4214699243 52.3013
6773 1 46.2613 -0.0235300757 52.1047
1385 1 34.5395 0.2914699243 54.9819
3052 1 48.3755 6.7334699243 53.4477
2947 1 37.3664 1.0844699243 54.9533
5864 1 33.3887 -1.1387400649 52.6893
6655 1 46.3053 0.5034699243 56.5432
3317 1 34.4445 2.3862599351 53.0266
1161 1 45.7414 2.4514699243 53.4456
6431 1 42.8499 2.7684699243 52.6797
2170 1 40.8503 2.7434699243 54.8025
7672 1 36.7459 2.6514699243 51.5011
689 1 44.2085 1.9444699243 55.7101
1023 1 48.4985 2.3084699243 54.0331
203 1 33.4359 2.5954699243 56.7098
4588 1 37.1764 5.3434699243 50.6116
7148 1 36.3152 2.8204699243 56.8886
5351 1 48.4379 6.6574699243 57.4242
7962 1 38.6015 -2.8835300757 56.5046
7084 1 40.0001 2.9174699243 57.6718
5798 1 46.2603 4.4394699243 51.3474
4999 1 46.5563 4.6164699243 56.857
5382 1 33.4646 4.9724699243 53.2341
6954 1 46.0903 5.3824699243 54.1463
2499 1 38.2902 3.6094699243 53.7424
7883 1 48.2807 2.5234699243 56.7911
3167 1 42.0118 5.3134699243 52.7773
2716 1 41.5583 5.4964699243 55.5596
3175 1 33.5835 5.4214699243 55.9474
6880 1 43.6449 4.4164699243 56.938
4862 1 45.2707 -0.7385300757 58.6454
4283 1 45.8341 -3.3855300757 58.0495
7579 1 43.9066 6.7894699243 58.8596
7176 1 43.7411 7.0344699243 54.2865
3674 1 35.3721 6.8904699243 52.0007
1943 1 46.6736 7.2112599351 51.1789
2406 1 48.8473 -0.7927400649 51.2579
3071 1 36.7001 7.3174699243 54.4115
1521 1 39.0974 8.5364699243 53.3027
6915 1 39.4812 5.4994699243 57.4817
7925 1 37.3828 5.1584699243 56.0042
3440 1 39.3683 5.7834699243 52.3697
5316 1 35.5305 6.5174699243 57.6523
219 1 44.3796 8.4702599351 51.8986
4610 1 33.0971 8.4972599351 51.3811
6492 1 39.1493 0.2614699243 59.1858
104 1 48.8721 4.0404699243 50.5261
4127 1 42.458 3.1364699243 59.18
5872 1 40.9816 -1.9345300757 59.1531
1413 1 42.5212 6.6164699243 50.3862
2699 1 45.3498 -3.9703200866 66.5232
892 1 34.931 -3.4513200866 63.5465
4823 1 38.4094 -4.2133200866 65.9551
1793 1 46.9308 -3.2185300757 60.6322
6762 1 38.0637 -3.6425300757 60.4532
7093 1 39.6161 -2.8733200866 62.7565
3347 1 44.9056 -2.1073200866 62.5148
4366 1 37.3008 -2.1503571554 64.3992291582
1694 1 41.2329 -3.3833200866 65.9295
4259 1 33.5822 -2.5925300757 61.1658
5587 1 42.2644 -2.1813200866 61.6141
4452 1 47.5036 -3.2133200866 64.7693
7164 1 33.9183 -4.6815471662 66.0302091582
7896 1 36.7609 -1.2505300757 59.5922
1132 1 47.5159 -5.6523200866 67.2537
4092 1 32.8823 3.0264699243 59.3532
5984 1 36.9826 -0.4395300757 62.286
7527 1 33.9137 5.6644699243 59.7037
1563 1 43.866 -1.9893200866 65.0797
3293 1 47.0906 -0.6513200866 63.7133
7025 1 47.9311 -0.7595300757 59.963
4212 1 41.423 -1.0023200866 64.1203
5726 1 33.583 -1.0273200866 64.3067
1661 1 33.5197 -2.5103200866 67.8056
6388 1 34.2897 -0.1785300757 60.0924
907 1 44.1232 0.2787428446 61.0116691582
6086 1 48.6614 2.0494699243 59.5366
4896 1 40.1492 6.0364699243 61.4121
1848 1 33.3024 5.3596799134 63.4979
96 1 46.8015 4.2484699243 59.713
4516 1 34.8886 1.0744699243 63.1051
319 1 34.5017 -0.0553200866 66.8786
2355 1 46.9064 1.2684699243 61.7433
4935 1 46.7928 0.1916799134 66.62
6651 1 44.1106 0.6947428446 65.9369491582
1443 1 35.253 2.4954699243 60.7312
1040 1 42.972 1.5034699243 63.4518
3132 1 37.2555 -0.0863200866 66.4753
5148 1 41.2603 1.2664699243 60.8668
386 1 41.2962 0.5406799134 66.7128
2601 1 39.4642 0.6539428446 63.0301291582
1278 1 39.1558 1.8536799134 65.469
7711 1 37.6616 2.7384699243 59.4049
5727 1 44.5583 3.1306799134 61.2086
4135 1 39.2838 3.2714699243 61.9495
1866 1 48.2836 3.8786799134 65.9511
16 1 34.9968 3.9426428446 66.7578091582
7626 1 36.3856 2.4056799134 65.0305
6918 1 43.3133 3.5746799134 66.3714
2651 1 41.1765 3.6276799134 64.3253
6202 1 47.8372 3.7086799134 63.1019
7022 1 44.985 3.6786799134 63.9495
2260 1 32.9387 2.2566799134 66.2855
1428 1 35.645 5.1756799134 61.9029
5430 1 37.4789 4.4614699243 63.7469
2209 1 42.7715 5.4954699243 60.7495
3107 1 37.7124 5.6644699243 59.8264
2426 1 39.6574 4.4076428446 66.7247791582
280 1 48.2077 6.0936799134 61.5768
2208 1 45.7431 5.0776528338 66.5268691582
7389 1 41.2489 -4.9663200866 63.5898
940 1 44.2152 6.2886428446 62.9904291582
7001 1 32.5245 2.6564699243 63.6072
3286 1 48.8114 -1.3632571554 68.0397291582
2128 1 48.8336 1.4086799134 64.7378
5947 1 46.6169 7.1844699243 59.3849
5855 1 40.9018 -1.6884571554 68.1355291582
4959 1 36.3064 24.7090370688 -2.7732691582
4387 1 41.0921 26.1570370688 1.7015308418
5889 1 39.428 29.2932 2.41239
7668 1 40.9055 27.259 -2.83545
1334 1 40.6221 30.8490099892 0.273909
2017 1 34.3164 22.7066099892 4.64028
7802 1 32.9415 30.4380099892 1.54235
822 1 45.5867 30.3461099892 2.72377
4726 1 35.8258 23.1587 -0.352421
4424 1 44.5064 22.6920370688 -2.6479691582
3521 1 43.6944 27.0536 0.710536
199 1 42.2223 23.3970370688 -1.0741691582
4262 1 37.1566 30.9226099892 2.17961
5419 1 42.0248 29.5929 -1.81053
6014 1 46.7049 20.4479099892 2.43395
3072 1 38.4241 28.2685 -1.80556
88 1 43.1791 25.9096 -1.72854
6307 1 35.7134 27.506 -2.43865
2671 1 35.6348 24.131247058 2.2529308418
3080 1 35.0355 29.3508099892 2.82041
1571 1 38.4669 27.2580370688 0.7318308418
7249 1 32.7166 29.0561099892 -0.733798
1580 1 36.314 26.1454099892 4.28358
3023 1 38.9294 27.2820099892 4.2608
3552 1 33.2367 23.9090370688 -0.6814691582
5556 1 46.1187 28.2434099892 0.715554
3726 1 41.7432 21.4188099892 2.77447
1574 1 40.89 25.232247058 4.2711308418
6441 1 42.2335 28.6727099892 2.64207
7638 1 39.6446 24.6640370688 -0.1545691582
4237 1 46.2849 28.4479099892 4.68758
5388 1 35.9861 26.9700370688 1.6766308418
4384 1 47.4405 26.700247058 2.8180308418
2453 1 33.7157 19.9351099892 4.1447
5532 1 43.6981 25.5611099892 5.04582
970 1 33.9669 26.7207 -0.102577
7100 1 44.7353 29.4128 -2.65001
1451 1 38.4476 30.9883 -1.48138
5343 1 46.7325 30.5024099892 -0.817874
2010 1 47.1976 26.3186099892 -0.789245
2580 1 38.0989 20.9596 -2.20146
130 1 45.0083 25.2650370688 2.4130308418
5287 1 45.9877 23.9165 -0.328293
957 1 48.1163 24.1372099892 3.86801
2313 1 38.4368 22.2533 0.246764
131 1 43.5448 28.3266099892 5.15822
7894 1 43.854 22.7866099892 4.27152
4890 1 37.4836 21.9078099892 2.84811
557 1 43.6761 22.8833099892 1.32074
3311 1 46.0533 21.3603099892 5.04778
7335 1 39.8885 22.7320099892 4.00047
2615 1 34.4657 27.9729099892 5.18363
5309 1 47.9936 22.0130099892 -0.690131
5744 1 35.2725 20.3386099892 2.01035
7212 1 47.7971 31.4396099892 1.57299
6645 1 39.2757 24.9540370688 -2.9922691582
5530 1 34.6218 20.5360370688 -0.5654691582
7228 1 48.4792 29.8673099892 5.60753
3257 1 32.7977 23.5270370688 2.2549308418
2078 1 36.8775 21.9235099892 5.65761
1013 1 43.1627 31.2710370688 1.6853308418
7053 1 48.8761 22.0413099892 2.07832
1757 1 44.5956 20.3679099892 0.330879
5555 1 39.8388 30.7117099892 4.86981
897 1 40.4211 20.3790370688 0.5964308418
113 1 34.0988 29.9160370688 -3.0129691582
5596 1 48.2861 19.852247058 5.6847308418
4429 1 42.278 29.0277099892 7.66598
5965 1 45.0722 26.6104199784 8.86294
1614 1 42.3172 27.2544199784 10.0532
4619 1 33.9621 28.2283099892 10.4313
901 1 46.6314 19.7144199784 14.0963
2088 1 37.3733 24.6188099892 6.3202
6348 1 46.2564 26.3104199784 6.40626
1582 1 39.5717 28.6312099892 6.71239
5594 1 39.9005 25.7191099892 7.20957
2004 1 48.4482 28.6064199784 9.9657
7796 1 35.0021 28.4320099892 7.83862
7769 1 39.62 26.6134199784 9.90029
7368 1 39.4294 19.3900099892 7.50503
2521 1 48.5551 22.8286299675 12.4951
4647 1 48.6265 20.5073099892 8.28451
5735 1 35.2402 25.5720099892 8.01439
36 1 40.136 28.5024199784 12.8032
3645 1 36.3544 18.7054199784 10.4644
4940 1 44.1704 19.5436099892 6.12534
964 1 33.32 22.1674199784 9.23821
7520 1 38.4673 24.1694199784 13.8295
6063 1 38.5394 18.1974199784 12.1603
990 1 38.3182 29.2506099892 10.7959
4097 1 40.6065 23.1424199784 11.0634
1006 1 44.8999 29.3644199784 8.80269
3403 1 43.1817 23.3344199784 9.97829
133 1 38.5343 23.0524199784 9.24993
5953 1 32.9199 20.1644199784 7.02108
3485 1 40.4531 25.6834199784 12.5665
1201 1 36.4396 25.6514199784 12.8856
359 1 45.8059 23.8874199784 9.00848
4858 1 34.8318 23.7404199784 11.1802
3146 1 40.3361 20.4834199784 12.0119
6034 1 33.1747 19.5034199784 13.4336
347 1 42.26 22.765247058 6.5546308418
1330 1 42.1519 19.8516299675 13.7623
4329 1 33.4481 23.8062099892 7.0445
7594 1 36.4883 21.6254199784 10.2861
3417 1 47.0142 23.5684199784 6.41347
4402 1 43.3282 25.4264199784 12.0666
1838 1 47.1222 26.2664199784 13.0345
5022 1 44.9971 20.2086299675 10.2937
4979 1 41.1949 19.2304199784 9.55895
2650 1 42.6484 25.237247058 7.8280308418
549 1 43.203 20.8474199784 8.38712
7058 1 37.0513 25.1324199784 10.0135
1533 1 44.5243 20.9074199784 12.9226
3148 1 35.5906 20.9154199784 7.73718
4203 1 44.822 27.7984199784 13.2265
6581 1 47.0917 21.8904199784 10.3037
5830 1 33.1439 23.9036299675 13.5524
7918 1 46.7635 23.9706299675 14.4873
1502 1 47.521 25.9814199784 10.3579
105 1 37.9096 21.5084199784 12.9482
5467 1 35.9829 28.3394199784 12.1635
7087 1 39.539 21.9957099892 6.80995
6306 1 34.9575 17.3944199784 14.1826
6095 1 33.2728 25.6194199784 10.0171
2656 1 33.7109 19.6864199784 10.7443
2204 1 44.136 23.5524199784 13.9998
2637 1 37.5314 29.5294099892 8.23967
7234 1 48.4535 27.7786099892 7.35695
3384 1 45.5902 17.2336299675 14.4498
1405 1 36.6753 17.1886299675 18.7731
4137 1 37.9292 19.0826299675 20.6565
6304 1 48.1761 15.5856299675 23.1761
5110 1 47.6438 25.7466299675 16.5675
6400 1 44.5033 21.6556299675 17.4424
335 1 34.0627 16.4076299675 19.1787
2956 1 41.0302 24.6484199784 15.2936
2405 1 35.2614 24.5346299675 23.3121
311 1 33.4765 25.9984199784 15.1418
2351 1 40.4976 21.0326299675 17.7835
6640 1 37.3638 24.1096299675 16.5233
6500 1 42.2661 22.0016299675 15.6394
3911 1 46.8097 21.5816299675 20.4312
4383 1 39.1122 23.4026299675 21.6758
2877 1 33.7508 25.2116299675 21.0097
7379 1 44.8104 23.2336299675 19.6807
6008 1 40.9663 21.7486299675 20.5289
3801 1 36.1392 26.4284199784 15.6653
5629 1 44.0473 16.8666299675 21.4175
5784 1 36.5095 22.4816299675 21.7078
1626 1 37.5667 20.7616299675 18.1876
3229 1 33.4343 23.4836299675 18.814
7867 1 40.7339 18.8986299675 15.9092
2937 1 43.7147 25.1234199784 16.4344
1673 1 39.2219 25.6806299675 20.0233
5230 1 45.6422 25.6166299675 18.4881
5286 1 36.2038 23.0756299675 18.9324
6729 1 46.7194 21.6676299675 15.9008
5236 1 40.8008 27.2384199784 16.6759
1076 1 42.0792 18.5196299675 18.4155
5661 1 36.4592 25.8206299675 19.98
5246 1 39.7867 23.8116299675 17.7389
6749 1 44.6823 19.1916299675 18.3936
7140 1 48.3091 21.8536299675 18.1696
832 1 47.938 22.6356299675 22.6635
1108 1 35.9908 18.8384199784 16.5681
4730 1 41.8844 25.4946299675 18.7829
3603 1 33.9281 19.8506299675 20.3313
2026 1 42.5607 23.9526299675 21.1944
2543 1 33.4563 18.9536299675 17.6977
3377 1 41.252 17.1786299675 20.8546
1409 1 32.7155 21.4366299675 17.2254
6634 1 44.1615 27.6896299675 15.8363
6588 1 35.8853 19.7516299675 22.215
1769 1 36.5987 21.5504199784 15.4223
1196 1 47.7762 18.4286299675 22.6592
6437 1 33.9337 21.8556299675 14.772
4859 1 43.2796 20.3976299675 22.0463
1959 1 38.3177 19.1654199784 14.7395
7306 1 45.528 19.2216299675 21.056
1280 1 40.3823 19.4556299675 21.9437
6434 1 46.3399 17.3496299675 17.1569
5561 1 38.6198 16.1716299675 20.4395
7369 1 47.4597 26.2106299675 20.5766
2860 1 33.0518 17.9266299675 23.3734
5449 1 35.7881 17.1426299675 23.3853
12 1 42.016 26.2616299675 23.0445
5031 1 46.7861 25.3346299675 23.1401
5569 1 38.4776 16.2956299675 23.3502
206 1 38.5335 28.1914199784 15.2754
6811 1 32.578 25.8026299675 17.7414
5219 1 35.7966 27.7966299675 18.0621
2721 1 32.917 25.0938399567 24.8951
7009 1 43.5949 16.2376299675 24.2449
6596 1 35.0697 25.0798399567 26.7286
2750 1 45.4164 23.9926299675 26.7751
5138 1 33.9211 22.4066299675 24.7813
2011 1 32.7029 16.2868399567 28.6171
4655 1 38.1299 23.9146299675 28.0542
7511 1 44.3069 25.2956299675 24.5913
707 1 46.7023 20.7838399567 29.7641
4618 1 37.2752 19.2838399567 26.527
2192 1 40.8335 23.2936299675 27.8478
5622 1 45.1205 18.7058399567 28.6444
6631 1 40.9204 22.8596299675 25.0564
3734 1 39.1235 21.3116299675 23.6182
7770 1 36.0389 22.4468399567 32.3391
2689 1 35.8514 23.0398399567 29.4702
1908 1 47.384 18.4428399567 31.378
6813 1 43.6298 22.3996299675 28.1931
1827 1 38.4773 14.3758399567 28.2883
4650 1 35.5648 14.7508399567 32.0579
6364 1 40.7401 15.9178399567 27.904
887 1 46.3341 14.6818399567 30.7605
1411 1 39.6207 25.0796299675 24.0731
1129 1 38.3394 14.2298399567 31.0548
2550 1 38.8081 21.2028399567 28.2413
4627 1 47.2067 25.4278399567 28.4529
3113 1 47.9168 16.6198399567 29.4378
566 1 42.3322 23.7958399567 30.2364
2084 1 41.1273 19.9458399567 29.1114
3258 1 35.8353 18.7948399567 31.2648
399 1 37.0222 16.8318399567 28.1028
4438 1 33.5302 19.9158399567 28.0869
2234 1 48.4342 22.7048399567 30.9254
4802 1 39.3158 17.8148399567 29.499
6950 1 47.896 20.3248399567 27.0257
7873 1 39.7347 16.3788399567 32.0127
2327 1 44.6723 22.2678399567 30.7957
788 1 35.2261 17.1506299675 26.0076
1244 1 42.0025 15.4388399567 30.3404
1529 1 43.0045 19.9238399567 27.118
4072 1 41.707 17.7386299675 25.9693
2067 1 45.6894 18.0276299675 24.4945
7046 1 42.7337 20.2708399567 31.2459
5389 1 44.3413 16.1238399567 29.2769
1902 1 33.8004 22.5516299675 27.5887
4422 1 36.5359 21.3606299675 24.5788
4585 1 46.9616 17.6858399567 26.8632
1873 1 39.3946 18.5986299675 24.5324
1693 1 46.6842 22.0406299675 25.1771
1168 1 44.4895 18.0998399567 31.4482
1950 1 44.4365 20.3818399567 24.8559
571 1 38.5405 21.5028399567 31.053
5490 1 36.1456 20.2128399567 28.9958
5451 1 34.9885 16.5308399567 30.0234
3909 1 37.357 24.0746299675 25.3604
4595 1 46.331 24.4998399567 31.0415
6291 1 38.7433 18.8998399567 32.1293
4435 1 47.5806 15.1856299675 25.9938
3220 1 32.5041 17.8676299675 26.2848
5381 1 33.9856 20.5318399567 32.4001
5687 1 40.7117 23.1548399567 32.3667
3743 1 43.2238 22.8966299675 23.686
814 1 42.0624 12.1770499459 37.9033
6287 1 32.797 17.0188399567 34.2238
2608 1 47.8533 20.0228399567 34.4527
4666 1 34.8519 15.3040499459 38.4705
5444 1 45.5436 11.8070499459 39.9985
4490 1 33.4298 20.7740499459 35.0956
2857 1 35.0196 18.5372599351 39.991
3703 1 43.0512 13.4320499459 40.2283
2705 1 43.7215 13.8460499459 36.3829
4669 1 46.0383 21.4990499459 39.029
7595 1 39.0567 14.4970499459 41.1063
2284 1 45.1251 15.3460499459 39.8997
6215 1 46.0213 13.5920499459 37.952
6603 1 40.8558 20.3238399567 33.4112
4732 1 34.9843 13.6748399567 34.8248
7530 1 39.3697 13.0380499459 38.4565
6242 1 41.5027 15.7150499459 41.01
3255 1 42.4653 22.5870499459 36.9217
2537 1 47.0111 22.9958399567 34.9662
390 1 43.58 19.4400499459 40.7302
2012 1 37.2722 16.5350499459 39.6348
4972 1 39.8787 21.6390499459 35.7664
3565 1 41.468 14.9748399567 35.0323
828 1 33.9125 21.6390499459 39.0517
1213 1 34.3535 17.7490499459 37.4074
7851 1 34.7855 12.6260499459 37.4016
6503 1 48.4308 17.2930499459 33.8262
2049 1 43.8723 20.2820499459 36.4722
3994 1 37.7144 18.2998399567 34.7687
229 1 47.7945 15.7060499459 37.1461
5127 1 47.7292 17.8310499459 38.7913
5576 1 42.663 16.3988399567 33.0281
4372 1 45.9838 16.4530499459 35.1011
1458 1 38.8058 15.6238399567 34.5109
4817 1 45.1458 18.9658399567 34.1173
3082 1 42.7617 23.1958399567 34.195
7591 1 37.2996 21.8470499459 34.7904
550 1 39.3073 19.1768399567 36.9742
4117 1 45.0083 14.7490499459 33.155
7561 1 45.2897 18.8800499459 38.4636
5278 1 43.9296 22.3510499459 40.8315
4348 1 41.4208 17.0978399567 36.9784
5850 1 41.5145 18.0620499459 39.5736
937 1 42.4449 18.5478399567 34.7357
5734 1 34.2531 14.6332599351 41.2222
3598 1 35.4682 17.0278399567 33.5023
7537 1 48.6871 19.8452599351 40.5044
2077 1 36.3258 15.9500499459 36.0143
7508 1 45.0739 21.7488399567 33.4605
5418 1 38.9381 15.6780499459 37.4272
5284 1 44.214 16.4060499459 37.427
6696 1 38.8571 18.9270499459 39.6744
4048 1 47.7686 16.1650499459 40.9596
4779 1 36.5165 20.7070499459 38.692
501 1 35.9069 19.7690499459 36.1735
5489 1 39.7193 21.4750499459 41.0866
532 1 48.7405 13.0250499459 38.3565
6433 1 34.1454 23.4998399567 35.4734
1795 1 47.8148 22.7600499459 40.7571
7993 1 38.385 12.7978399567 34.3453
6053 1 48.5297 14.7708399567 32.5992
5402 1 39.008 23.3510499459 37.8466
4381 1 41.5131 23.0170499459 39.5951
3456 1 44.7481 12.6662599351 49.8239
7284 1 38.593 21.2492599351 44.5146
2244 1 35.7793 20.0342599351 42.7971
7801 1 35.6068 15.3072599351 47.6315
1371 1 43.9428 16.7972599351 42.0081
3921 1 41.4996 11.0672599351 48.1124
5397 1 43.3797 12.9792599351 47.3955
3757 1 35.1507 18.2102599351 48.0402
2876 1 44.7379 20.1790499459 46.4367
3073 1 47.1661 10.6472599351 46.1805
1992 1 46.8937 17.0482599351 47.5341
1012 1 34.6707 17.0132599351 45.3409
6062 1 42.7621 12.8552599351 42.9526
1955 1 39.171 12.0172599351 46.6952
1209 1 36.731 10.9012599351 45.5051
7241 1 46.0437 14.2730499459 43.9534
1494 1 32.6484 18.0932599351 49.1623
6425 1 33.8803 12.9862599351 47.3118
3197 1 40.7508 19.8232599351 49.6484
3191 1 37.5958 13.4782599351 48.3779
4067 1 37.1596 15.8220499459 45.2311
2146 1 47.1502 12.8002599351 48.3077
4056 1 41.5364 15.0402599351 46.9897
7664 1 39.5905 14.3322599351 45.0038
3644 1 34.9195 17.0332599351 42.5207
2474 1 42.9854 17.3482599351 47.78
6606 1 36.034 13.1542599351 44.1092
4621 1 33.4011 12.9112599351 44.5973
6222 1 40.7483 16.4182599351 43.5408
5539 1 47.1817 12.4610499459 42.0225
5528 1 39.6866 15.1832599351 49.2968
7994 1 44.8689 17.5452599351 45.4639
4408 1 44.7866 11.9102599351 45.0368
5668 1 43.2252 15.2980499459 44.4123
2535 1 47.3188 14.6252599351 46.3043
5796 1 38.4994 18.1392599351 46.3889
5245 1 46.7448 17.0802599351 43.2337
87 1 37.8558 16.5092599351 42.5428
1891 1 38.87 17.8894699243 49.126
1364 1 48.7062 14.3362599351 49.7548
4739 1 39.9512 12.5770499459 42.891
5603 1 35.3041 10.4962599351 47.9741
182 1 45.8265 21.1862599351 43.9734
6694 1 45.3081 17.6622599351 49.6647
5867 1 43.0172 19.1380499459 43.6083
7162 1 43.1179 22.0790499459 43.6958
3446 1 47.5749 19.8362599351 46.8249
2778 1 36.6033 20.1702599351 46.4485
3697 1 41.8734 19.7342599351 46.9329
4744 1 40.4657 19.0082599351 44.6212
7457 1 46.177 19.4870499459 41.8863
4163 1 38.4571 19.2200499459 42.4665
4111 1 34.0608 19.7642599351 45.1395
4745 1 43.8333 9.8102599351 49.4078
211 1 48.6791 21.6842599351 44.9801
5676 1 33.4583 21.2420499459 41.7198
5484 1 32.5179 15.6702599351 47.8342
1054 1 32.5625 12.4310499459 41.9184
365 1 41.9635 16.4382599351 50.1562
7740 1 36.5695 13.0900499459 41.4777
2516 1 44.346 10.5154699243 53.6258
327 1 39.9028 9.1044699243 55.9296
5565 1 35.7078 19.2324699243 55.0286
5095 1 47.3033 19.2512599351 52.7685
6864 1 37.5626 19.9624699243 52.9368
3700 1 36.5672 18.8572599351 50.3972
3917 1 38.1331 17.2914699243 58.6005
4854 1 38.3939 9.4374699243 58.2969
4296 1 45.7289 11.3914699243 57.4286
4036 1 36.3243 11.3784699243 57.5056
7039 1 42.9361 12.0054699243 58.0584
2195 1 35.4718 9.1484699243 56.0779
6332 1 33.4978 11.0254699243 52.6213
5758 1 40.7646 11.6414699243 56.3273
7402 1 33.9566 12.4194699243 58.896
7714 1 47.1251 13.9634699243 57.5918
3296 1 34.8163 14.9194699243 57.7164
7633 1 46.6269 11.8344699243 54.7294
1501 1 32.8702 9.1844699243 56.9724
469 1 38.5424 17.3254699243 53.0015
2884 1 41.0003 18.1062599351 51.9654
5551 1 46.8954 18.4704699243 58.4742
6700 1 33.9629 14.8444699243 53.6992
1695 1 37.8213 14.0964699243 55.1379
5227 1 45.2208 17.8404699243 53.8223
7231 1 35.0464 13.1594699243 55.497
1476 1 38.8139 13.0804699243 57.6381
5973 1 46.5195 14.6494699243 54.7434
6941 1 40.0905 15.9304699243 55.0648
1238 1 37.9145 15.0474699243 51.5312
1629 1 42.0982 14.5054699243 53.95
2150 1 36.3226 11.9944699243 50.3634
5034 1 42.0224 11.7854699243 53.9214
1158 1 35.7066 17.4384699243 57.379
7412 1 45.3699 16.0712599351 51.6124
7732 1 42.7033 16.7864699243 57.7443
4617 1 43.1555 14.3724699243 51.3524
4523 1 36.2527 16.5194699243 54.5559
1990 1 44.0394 15.7184699243 55.4072
4300 1 47.482 14.5114699243 52.2468
7596 1 34.0345 13.4214699243 51.2757
6210 1 46.3962 11.7352599351 51.9097
5043 1 37.7612 12.5784699243 52.7138
2559 1 34.301 17.7614699243 51.4284
1140 1 47.8948 9.7372599351 50.9941
6953 1 44.9432 9.1074699243 55.9818
6745 1 36.9025 9.3314699243 51.4863
4489 1 44.3928 14.4484699243 57.8022
7836 1 39.9624 10.9304699243 52.3391
6686 1 35.9213 10.8614699243 53.7594
5720 1 42.7094 19.0144699243 53.6902
7826 1 40.238 15.6074699243 57.8943
2662 1 41.2578 18.2424699243 55.8164
7489 1 47.9043 16.4474699243 56.6551
7901 1 32.9151 19.1604699243 55.2442
4393 1 35.4675 15.5324699243 50.3735
7434 1 47.7546 8.5804699243 55.4262
778 1 45.6942 20.0312599351 50.7113
6657 1 40.4846 7.7034699243 59.0583
7455 1 32.5319 12.0084699243 56.537
1810 1 42.3937 8.0064699243 56.749
294 1 40.9637 12.8114699243 50.4199
1059 1 39.2049 11.7584699243 60.2616
4659 1 40.7553 15.8664699243 60.7344
2462 1 35.0185 8.7746799134 64.8982
1880 1 48.0853 11.7854699243 66.2391
7198 1 44.7749 9.2681428446 67.3260491582
516 1 33.5815 15.1174428446 65.6282491582
5938 1 48.1717 10.1286799134 62.31
2593 1 37.5422 9.5452428446 66.0402991582
6537 1 46.4917 7.7266799134 65.6329
2091 1 47.2994 15.0206799134 64.7445
2858 1 33.8157 10.1251528338 67.3535091582
5443 1 40.7702 7.7869428446 66.4518191582
4695 1 41.4138 12.1957428446 65.8006991582
622 1 38.3782 6.6486799134 65.3243
1939 1 33.7378 17.6564699243 62.524
6619 1 32.9691 13.9444699243 60.9605
6265 1 42.5288 9.7773428446 65.5991091582
5634 1 39.4001 10.7642428446 64.1324791582
7254 1 41.5868 12.0566799134 62.9607
6895 1 39.1483 8.1966799134 62.9709
177 1 42.9479 8.8116799134 63.154
987 1 35.9412 14.1644699243 64.1842
3718 1 36.4424 7.8856799134 62.5128
4084 1 39.1696 13.9642428446 65.9681991582
6871 1 46.4955 8.0686799134 62.8082
4363 1 40.8376 9.6794699243 61.2686
6849 1 34.7332 10.0304699243 61.4238
5492 1 44.4121 12.4366799134 62.6271
5841 1 34.9218 11.4824699243 64.0828
143 1 44.8394 9.9774699243 61.4724
796 1 36.3425 6.3530428446 67.3515491582
5409 1 41.7002 13.2284699243 60.3509
1589 1 42.0545 15.6596799134 64.8165
895 1 46.8757 9.9384699243 59.5445
5207 1 36.3942 11.9554699243 60.3344
5970 1 34.013 6.3476428446 65.8574891582
2997 1 37.9804 12.6726799134 62.7771
5670 1 43.9391 13.5916799134 65.2184
2819 1 45.3584 15.6006799134 66.8038
4020 1 36.703 12.3716799134 66.2394
3685 1 46.9613 12.4744699243 63.6816
1089 1 40.0665 14.4326799134 63.326
259 1 44.3314 14.3294699243 60.6873
308 1 37.0391 14.7714699243 59.3711
5333 1 47.655 17.1524699243 60.8269
7684 1 44.8945 16.8144699243 61.8226
7333 1 36.3968 8.3524699243 59.7421
929 1 37.6912 16.3126799134 64.9738
4173 1 47.0676 14.3454699243 60.3639
5653 1 35.1744 15.5586799134 61.5725
917 1 41.4409 6.4724699243 64.0125
1512 1 38.029 16.0722428446 62.0000191582
7805 1 42.6914 17.7514699243 60.4621
5617 1 41.2418 15.5046799134 67.458
2338 1 32.9947 8.3596799134 62.8751
3280 1 36.8892 14.9956799134 67.5253
4409 1 42.9568 9.4954699243 59.3778
7240 1 44.5565 17.2436799134 64.4748
5010 1 32.5633 9.9544699243 59.7139
7354 1 41.9492 5.6296799134 67.9616
6719 1 46.2146 11.4326799134 68.1368
3306 1 38.5267 39.9330370688 -2.6637691582
6381 1 43.7144 43.1205 -2.53079
11 1 46.574 37.1964099892 1.1732
4734 1 43.4547 32.8840370688 -2.8809691582
3154 1 41.6991 34.4122099892 -0.941089
3164 1 35.8736 35.6766099892 2.65805
3464 1 42.6391 39.8480099892 2.56982
559 1 47.6052 33.9849099892 2.31519
2912 1 45.6898 34.6419 0.528052
6508 1 35.4773 36.9714 -1.74854
4022 1 38.9906 41.874 1.87498
2100 1 46.2106 38.0053 -1.55837
279 1 46.9346 35.0981 -1.95284
1349 1 39.3337 37.1635099892 3.63103
6115 1 37.7691 34.8276 0.765148
6399 1 43.3009 35.7608099892 1.08473
2869 1 33.377 36.9818099892 2.08114
6731 1 36.4773 41.1450370688 -1.3088691582
1971 1 37.7042 35.0785 -2.1215
6751 1 35.8964 39.7921099892 4.63713
5504 1 45.8121 41.3200370688 -2.6610691582
1554 1 48.5624 39.933 3.48702
1233 1 36.8665 37.1754199784 4.95029
6080 1 43.7974 39.6728 -1.08375
5472 1 41.7276 41.6859 -1.25792
4711 1 36.5374 32.3698099892 -0.0478984
2057 1 34.227 41.7235099892 0.143114
6158 1 41.9271 38.1520370688 0.3215308418
6840 1 36.5195 38.6087099892 0.249594
2811 1 39.6793 40.1618 -0.11695
7789 1 32.943 37.5242099892 -0.576601
2745 1 44.788 41.1410099892 4.12791
422 1 42.8383 42.2744 1.1674
6231 1 39.0888 37.5003099892 0.888259
6488 1 40.1558 33.5547099892 1.15916
6428 1 45.3054 39.6617 1.51766
7803 1 46.7178 41.5664 0.0820087
7154 1 34.609 39.4757 2.23123
5294 1 40.0707 39.9787 3.75075
5944 1 32.7016 35.1063099892 4.10002
980 1 43.728 37.3027099892 3.39595
3029 1 46.3519 38.0093099892 3.96431
5967 1 41.9903 32.3660099892 5.45526
1422 1 34.0629 32.3551 -1.60263
507 1 39.7451 33.2428 -2.53139
1304 1 44.7381 31.9460099892 4.95842
6828 1 41.53 36.7630370688 -2.3130691582
7067 1 33.7164 34.9955 -2.81292
1903 1 47.2576 35.5167099892 4.59833
484 1 39.7495 34.4189099892 3.82352
797 1 35.0743 33.4374099892 3.99911
7121 1 34.0129 32.8576099892 1.19407
228 1 44.7026 32.2370370688 -0.3364691582
2069 1 42.4683 33.735247058 2.9540308418
4964 1 37.7128 32.5860370688 4.4963308418
7238 1 44.5045 34.853247058 4.8927308418
3249 1 41.6484 37.4903099892 5.4694
5878 1 34.0815 31.0156099892 4.96084
1519 1 37.1826 42.2178099892 3.68923
1223 1 48.7193 39.073 -2.38587
7635 1 32.5065 40.1276 -1.29946
7299 1 39.0818 37.2300370688 -3.1507691582
7036 1 32.8263 36.5804199784 10.7487
6792 1 32.9913 31.0184199784 13.3187
6558 1 37.3517 40.6225099892 6.93741
7575 1 41.2772 39.3678099892 7.62661
7275 1 39.9396 41.2697099892 6.06462
4813 1 38.6131 39.0651099892 8.91631
5264 1 43.7484 40.8627099892 6.86314
1525 1 40.0952 32.4904199784 14.289
912 1 45.6129 39.1444199784 12.5803
2590 1 46.1631 39.5374099892 6.32186
1395 1 32.7294 34.1246299675 11.7725
7259 1 34.2217 38.2005099892 7.21595
7725 1 45.6327 37.2394099892 7.84204
2316 1 33.7978 35.6954199784 14.0092
4451 1 33.8223 40.9972099892 6.19559
384 1 42.335 30.8254199784 14.489
2062 1 35.8204 38.2020099892 9.54263
7999 1 37.5003 32.0992099892 7.2212
1664 1 37.0792 35.7462099892 9.27086
6618 1 43.6279 34.6534199784 13.8085
6789 1 41.0366 37.2134199784 13.3561
6863 1 39.6432 33.3123099892 8.54465
2031 1 40.6185 34.8132099892 6.46898
6990 1 41.9371 37.1594199784 9.17056
1264 1 47.5396 35.4057099892 11.9661
1469 1 32.7618 30.6904199784 10.5679
5256 1 38.6331 31.8024199784 11.9938
5657 1 32.9115 30.2283099892 7.72382
3033 1 44.6526 35.5014199784 11.3137
6443 1 42.1704 31.7858099892 8.17182
5619 1 43.3004 35.6444199784 7.22966
75 1 43.8647 31.3294199784 10.4508
7835 1 48.1706 32.9074199784 10.839
1818 1 37.0838 34.1774199784 11.6046
6474 1 46.6811 33.2766099892 8.34458
4500 1 36.718 37.4754199784 13.1111
4564 1 35.4338 33.8383099892 8.03932
7052 1 47.5678 35.5207099892 7.25412
2407 1 32.972 38.4194199784 14.4715
2654 1 41.0749 34.5774199784 12.5287
1831 1 38.9537 37.9819099892 11.6131
890 1 35.9537 31.0904199784 12.8094
7889 1 41.1598 32.3724199784 10.9044
1906 1 34.8035 32.7534199784 10.6285
7320 1 46.3654 30.9614199784 7.03355
4514 1 48.3528 40.8429099892 7.35374
6081 1 38.5265 36.7408099892 7.102
4866 1 46.0181 30.2894199784 13.3686
6800 1 39.8166 35.5156099892 10.2872
3272 1 46.5479 37.6549099892 10.4564
4502 1 46.6834 30.5184199784 10.6898
7550 1 34.504 38.5164199784 11.9892
3560 1 44.1615 33.7958099892 9.14671
601 1 43.0694 37.9824199784 11.6418
5452 1 36.3736 35.0574199784 14.1319
3224 1 34.6417 35.6222099892 6.04282
5740 1 42.6427 29.4044199784 12.0792
4340 1 48.8183 39.0608099892 10.6672
2348 1 32.5581 35.9680099892 8.05936
3084 1 32.6564 33.0444199784 7.53215
3488 1 42.4438 40.5334199784 11.98
6394 1 40.2502 36.7578399567 23.3269
2182 1 38.9982 30.8666299675 22.4482
5641 1 40.4991 33.7754199784 19.0285
5315 1 47.8458 34.9026299675 22.8701
4636 1 42.3522 31.2776299675 20.8207
4113 1 48.7066 33.8696299675 20.2293
6258 1 42.2274 29.5254199784 16.8658
374 1 40.4219 29.3336299675 20.4388
3784 1 45.0255 27.9816299675 20.0485
6317 1 44.6081 36.8574199784 15.6168
2779 1 46.8655 30.0366299675 18.7826
985 1 37.3313 30.4786299675 18.5952
1355 1 46.3951 29.5956299675 22.2069
4643 1 40.1421 31.1176299675 18.1335
1195 1 34.4856 28.7656299675 22.1369
2286 1 46.7816 28.3774199784 16.4476
27 1 36.5207 30.7416299675 21.2119
5681 1 43.9276 30.4726299675 18.7124
5766 1 39.6626 38.1476299675 19.7548
2962 1 34.7904 30.6016299675 17.1411
6342 1 47.4456 32.8316299675 17.7014
4833 1 44.1419 33.6534199784 21.0944
378 1 33.323 27.6986299675 19.7901
4090 1 33.513 33.7716299675 21.9522
862 1 38.5455 38.4084199784 17.1546
6984 1 35.9321 32.6694199784 15.3273
5295 1 40.9669 38.0904199784 15.9825
2741 1 37.4592 35.7654199784 16.5534
3083 1 41.9891 37.9206299675 21.3763
5450 1 44.38 36.5084199784 21.4243
7129 1 46.5021 32.1466299675 20.8666
1351 1 42.1952 35.5294199784 16.2284
4133 1 44.8144 37.0454199784 18.4799
2379 1 42.2238 38.3884199784 18.47
7245 1 38.2438 30.9664199784 15.898
7854 1 44.6374 32.8414199784 17.5323
818 1 38.6286 35.6994199784 19.9454
3845 1 39.7584 34.3834199784 16.3584
336 1 36.0994 33.3916299675 21.1959
6180 1 48.5689 28.8496299675 20.5667
394 1 40.4379 33.2076299675 21.8882
71 1 34.1954 33.4416299675 17.7381
4276 1 35.9902 35.2156299675 19.0228
2698 1 47.083 36.3746299675 20.3929
2660 1 43.1162 34.7516299675 18.6874
1799 1 47.2648 33.3444199784 14.8592
4301 1 38.2698 34.6746299675 22.5446
2964 1 42.443 27.4506299675 20.6074
4962 1 34.6901 37.3676299675 20.009
3137 1 37.553 39.4834199784 14.74
5939 1 47.3004 35.6044199784 17.5318
1876 1 38.6651 27.9406299675 18.356
6605 1 44.0175 30.6638399567 23.0209
6094 1 33.6012 31.2806299675 23.3074
4654 1 44.13 39.4224199784 14.9228
1317 1 35.4892 29.0544199784 14.8856
884 1 47.2662 36.2694199784 14.785
5405 1 39.3095 27.3286299675 22.3625
1032 1 44.6398 32.3044199784 14.8173
2334 1 47.4319 32.0776299675 23.4871
5105 1 36.1208 38.2466299675 22.0631
225 1 36.6414 26.9276299675 22.6565
2309 1 32.5901 28.6944199784 14.7991
6298 1 47.6128 39.1974199784 14.727
3371 1 48.3882 29.9344199784 14.8438
3095 1 40.0191 26.8776299675 26.1397
4674 1 41.5213 34.1576299675 24.3399
4889 1 46.2205 34.6926299675 25.226
1603 1 35.8412 35.7158399567 30.2222
1157 1 33.0731 36.4138399567 27.8146
3124 1 35.0979 25.1988399567 32.4883
5699 1 41.1585 25.9416299675 28.7687
5975 1 33.8513 34.7406299675 25.8274
2423 1 36.4818 34.9666299675 25.7236
6429 1 44.7147 36.3246299675 29.1752
3620 1 43.0459 35.0798399567 27.5495
6338 1 46.9327 34.6548399567 29.8804
348 1 42.2637 36.6466299675 25.319
7257 1 37.1542 34.5168399567 32.2898
1934 1 44.0418 33.1566299675 24.0644
1049 1 37.9023 32.6936299675 24.5908
5379 1 39.288 27.9368399567 32.008
512 1 33.1466 27.9778399567 24.4632
7441 1 37.5833 35.1758399567 28.1921
5202 1 43.5835 33.5468399567 31.897
2735 1 40.4952 34.5968399567 28.8437
3949 1 44.7317 36.9406299675 24.2066
1735 1 33.2579 31.8328399567 28.7081
2153 1 40.0158 30.3276299675 28.808
4192 1 35.6315 30.9148399567 27.8123
4458 1 38.1715 28.3376299675 27.7629
553 1 39.9781 33.0088399567 26.3989
6854 1 46.7673 31.9728399567 28.9651
6630 1 37.9255 32.3178399567 28.4116
5926 1 44.9089 26.9048399567 28.9255
7391 1 37.2624 29.7088399567 31.3858
2690 1 35.8729 30.8796299675 24.989
6424 1 43.2421 29.1966299675 28.3057
4735 1 37.0223 28.3836299675 25.0117
6023 1 41.6788 30.7078399567 26.3505
6913 1 34.6497 27.8108399567 26.7207
5064 1 46.5717 32.1678399567 26.2015
1475 1 38.3617 32.1998399567 31.2602
6536 1 35.422 25.8586299675 29.6556
7866 1 37.497 37.0796299675 24.2434
4305 1 41.1322 32.4618399567 30.6086
3652 1 33.4488 34.3458399567 29.9614
1877 1 45.812 27.7906299675 24.326
4045 1 33.803 29.9228399567 30.7256
3509 1 43.1989 28.4458399567 32.4603
5420 1 43.8297 32.4586299675 26.8721
200 1 43.965 25.8458399567 31.0954
7665 1 39.851 29.2466299675 24.6343
4824 1 47.3428 29.2828399567 26.1385
692 1 45.3461 29.8198399567 31.3029
2478 1 42.9102 26.8136299675 26.6496
5695 1 35.803 28.6048399567 29.2627
2732 1 43.8018 31.6088399567 29.7084
6150 1 46.6268 29.2118399567 28.8674
6204 1 42.8761 28.6126299675 24.5504
7063 1 41.4351 28.3006299675 30.2645
4600 1 38.4554 26.2978399567 29.7285
5694 1 48.8062 32.0378399567 31.8691
4801 1 47.4788 36.8996299675 26.5662
5299 1 32.6417 32.2988399567 25.9682
7882 1 32.6478 25.7608399567 29.5934
3063 1 47.5821 37.5946299675 23.7949
5089 1 32.8403 36.0036299675 23.5872
1672 1 35.1474 25.0060499459 39.909
432 1 33.1149 24.2070499459 38.198
2447 1 36.861 24.2958399567 36.246
5507 1 32.5972 27.0648399567 38.1732
3389 1 40.7572 30.5810499459 40.3824
4522 1 36.4303 26.4430499459 37.9202
1305 1 39.0491 34.8550499459 36.0004
3263 1 33.0905 34.0088399567 32.6872
3948 1 40.7255 25.5210499459 37.9641
6582 1 32.7434 27.7248399567 40.9106
4083 1 42.8496 33.1880499459 37.3341
2806 1 38.1151 27.8340499459 40.7658
1358 1 44.3185 25.1610499459 40.7544
7232 1 46.8849 25.2660499459 39.5935
7132 1 47.7088 26.8448399567 37.505
4632 1 39.6246 25.5448399567 33.5828
6414 1 41.4896 25.6528399567 40.8065
6642 1 44.4022 27.9570499459 40.8265
35 1 45.646 26.2118399567 35.6527
7013 1 47.3897 25.4548399567 33.541
5267 1 41.4258 35.2558399567 34.3433
1744 1 37.0603 31.8070499459 37.7626
2856 1 48.8059 26.1220499459 41.2542
6288 1 41.8867 28.2150499459 39.2273
3747 1 38.8743 27.7510499459 38.177
7952 1 47.9095 29.3720499459 38.8766
5270 1 34.4527 32.8088399567 36.655
6909 1 40.7207 29.1498399567 34.1728
4052 1 40.5699 31.7158399567 37.7963
243 1 38.885 29.9838399567 36.3895
748 1 46.8175 35.2268399567 32.5687
7370 1 34.6135 28.2220499459 36.8223
1365 1 44.3346 32.1100499459 39.3282
4927 1 39.0421 33.9500499459 38.61
1061 1 36.6503 28.7538399567 35.0556
3265 1 40.3798 31.9248399567 33.3857
1133 1 36.9785 26.1358399567 34.2221
1030 1 43.3854 25.8308399567 34.0053
5788 1 37.3738 23.1080499459 40.2559
1700 1 46.5525 28.2590499459 33.6304
1106 1 43.581 27.9998399567 36.9708
171 1 45.1982 29.6698399567 38.7987
349 1 33.4402 32.9878399567 39.4269
2161 1 45.2793 33.2488399567 35.9282
2531 1 42.8882 32.8228399567 34.4973
1126 1 36.1137 29.7760499459 40.6533
5582 1 46.6667 33.5370499459 38.452
3046 1 32.8723 29.2858399567 34.4223
3450 1 34.5465 30.3010499459 38.4554
5176 1 41.2855 26.6378399567 35.5719
7848 1 35.5442 32.8088399567 33.915
5509 1 35.2857 30.1428399567 33.1537
3722 1 38.09 32.4818399567 35.06
2305 1 43.5253 29.8800499459 34.9416
4583 1 46.1764 30.8118399567 34.9265
2943 1 38.2519 31.7240499459 40.5112
4285 1 46.1703 32.4088399567 32.6345
4883 1 43.8119 25.2598399567 37.7987
1128 1 48.4059 32.0738399567 39.9205
2668 1 48.3452 30.7298399567 36.4075
3875 1 34.1187 35.2640499459 35.118
848 1 46.0246 23.6710499459 37.4404
7463 1 47.0079 35.2568399567 35.3345
4582 1 45.6508 34.1040499459 41.1137
1668 1 35.3863 27.2940499459 41.5327
4781 1 39.909 28.9118399567 42.5341
7621 1 32.7347 29.3420499459 43.2821
1288 1 33.0483 27.5500499459 45.1826
5422 1 48.5222 29.5600499459 46.0601
429 1 44.5247 31.6590499459 45.671
2685 1 43.8833 31.5702599351 50.1532
5974 1 42.5929 23.2360499459 46.3173
6021 1 41.7247 25.8810499459 43.7475
4261 1 40.2121 24.8972599351 49.8491
6464 1 42.679 28.5880499459 42.9641
7098 1 39.4245 27.3670499459 44.931
4911 1 42.2276 31.2250499459 44.256
4834 1 38.4185 28.6630499459 48.4957
4644 1 45.1281 29.4342599351 49.1482
2082 1 43.1625 28.7012599351 47.3173
4482 1 40.4518 23.2290499459 43.2167
3011 1 40.3194 33.1870499459 44.2923
4971 1 42.867 25.8982599351 49.412
3346 1 38.6546 31.1850499459 43.4697
3548 1 36.9188 28.4390499459 45.921
4273 1 34.5722 23.9450499459 44.4813
5897 1 34.7097 27.6880499459 47.618
2196 1 38.1337 24.9160499459 44.3599
7613 1 44.6666 28.8710499459 44.9388
1493 1 36.6558 22.6290499459 42.9981
332 1 35.5322 26.4700499459 44.2323
5300 1 44.3759 22.3742599351 48.3594
6607 1 46.3701 24.4232599351 47.8746
4846 1 40.7827 29.5830499459 46.0205
4333 1 44.4406 24.6930499459 43.4691
4844 1 38.2485 24.2872599351 47.0598
6709 1 45.447 26.0570499459 45.5713
3617 1 36.2085 25.5870499459 48.6223
3733 1 42.7326 25.9672599351 46.5671
6471 1 39.9867 26.4302599351 47.5401
3634 1 47.15 23.6742599351 43.38
4223 1 40.1952 22.1262599351 46.9135
5526 1 36.6706 22.0512599351 48.3203
4587 1 42.8123 31.9738399567 41.6564
2207 1 34.5484 23.5730499459 47.2283
5518 1 41.2544 28.2692599351 49.5366
5782 1 39.3503 22.2662599351 49.6273
6728 1 46.7058 30.9560499459 47.3906
5167 1 46.9943 21.5922599351 48.819
1353 1 47.732 30.8480499459 42.2819
6681 1 34.9426 30.6920499459 47.8079
6128 1 37.2759 32.0220499459 49.0073
3075 1 36.4376 31.1430499459 45.248
3965 1 35.0524 30.9160499459 42.9199
865 1 47.2019 27.8770499459 44.2947
7577 1 39.7424 31.1872599351 48.0727
4633 1 34.0322 33.5410499459 42.1
439 1 45.4443 32.2350499459 43.0397
6826 1 47.8808 28.5032599351 50.0622
841 1 32.7717 25.5122599351 48.3042
1253 1 46.7523 25.8452599351 50.1908
6141 1 32.7513 20.9362599351 49.7179
7869 1 47.0944 28.3408399567 41.4798
4798 1 38.7799 25.2370499459 41.651
3504 1 48.8164 25.7110499459 44.2495
6183 1 37.4996 29.9370499459 51.06
7850 1 42.4513 22.2014699243 59.1377
7278 1 48.0898 20.9964699243 56.1969
6163 1 35.4459 24.1822599351 50.8311
1991 1 37.5006 30.3302599351 56.6781
5076 1 33.1751 23.4774699243 56.0466
312 1 44.7681 23.1544699243 57.8055
7870 1 45.3798 19.6974699243 56.1191
1251 1 36.5138 20.8234699243 57.4174
5671 1 40.72 20.6774699243 57.2921
623 1 34.9123 31.0142599351 50.6555
554 1 46.968 21.8562599351 53.726
6807 1 42.4424 21.6994699243 53.5616
1640 1 38.139 24.9524699243 58.2098
5495 1 40.1431 22.2574699243 55.0682
7888 1 44.174 25.8544699243 58.3746
6783 1 39.1562 22.3014699243 52.4143
1230 1 34.2754 19.6604699243 58.8041
7323 1 35.6871 24.0652599351 54.7995
6387 1 44.2148 25.0132599351 54.5204
7825 1 44.5733 27.4262599351 51.0543
6934 1 43.0704 21.0562599351 50.7963
2495 1 43.3561 19.6344699243 58.1383
5212 1 41.4834 24.0672599351 52.1747
1995 1 45.9094 26.4132599351 56.168
988 1 47.5272 22.8374699243 58.4529
2865 1 35.9996 27.8212599351 52.1289
4531 1 42.6541 27.2712599351 53.4658
761 1 43.8638 23.8382599351 50.7879
2364 1 33.3901 28.8942599351 56.018
4765 1 44.4496 22.3394699243 55.2566
6328 1 36.6274 26.5344699243 56.109
3205 1 39.8177 30.2242599351 52.766
4932 1 48.2742 28.1182599351 52.9137
7194 1 41.4689 26.0864699243 57.328
18 1 34.9825 30.1892599351 57.9252
5655 1 34.2255 25.8662599351 52.9474
5705 1 37.8146 27.8962599351 58.4387
3253 1 37.6076 24.6252599351 52.7264
5169 1 47.7766 25.5184699243 58.0533
3343 1 46.1426 24.1972599351 52.5306
7493 1 38.9513 26.5672599351 54.5547
3649 1 45.3042 29.1922599351 55.7759
2448 1 39.9208 29.1474699243 55.4839
5314 1 37.7889 23.0324699243 56.2764
954 1 35.2595 21.7462599351 53.43
1605 1 41.2516 25.0482599351 54.9676
7069 1 37.3452 31.1072599351 53.827
1072 1 44.511 28.7154699243 58.4735
5590 1 40.7015 28.5904699243 58.1055
2931 1 33.8329 26.2214699243 56.8341
3798 1 35.8575 28.8502599351 54.6427
6257 1 33.1381 22.2284699243 58.5073
5820 1 42.7367 29.7994699243 54.9562
567 1 47.7268 25.7772599351 54.2736
547 1 40.1275 27.6302599351 52.071
3334 1 45.6791 29.2802599351 52.9685
47 1 38.0085 26.5612599351 50.5938
6214 1 38.6853 20.1504699243 58.8425
5037 1 33.9146 28.3022599351 50.3976
301 1 32.537 24.6592599351 50.958
120 1 35.3718 21.4372599351 50.6235
1074 1 41.1575 31.0272599351 50.4226
114 1 48.7779 30.9462599351 50.8705
447 1 47.048 25.7606799134 64.5993
5628 1 36.9732 19.6972428446 65.6015491582
5048 1 46.3784 19.5234699243 61.97
5233 1 34.0937 22.6036799134 62.9865
2108 1 47.8018 26.6346799134 67.1562
1407 1 43.2369 19.5654699243 67.2246
945 1 41.9492 23.6316799134 63.7046
5223 1 35.3027 26.3371428446 67.6881891582
1828 1 47.1097 23.0106799134 64.8167
4929 1 35.7907 21.9924699243 66.8198
6315 1 45.7284 20.8436799134 67.3234
770 1 44.028 25.1794699243 64.6816
6517 1 46.4923 19.2986799134 65.1076
4087 1 40.7275 25.4616799134 67.3917
6118 1 40.8206 28.6704699243 64.5759
5200 1 40.6156 29.7054699243 60.7555
6602 1 38.2085 22.4966799134 63.2781
7394 1 44.4032 25.2314699243 61.0421
6037 1 39.6229 24.2716799134 65.0607
1359 1 35.4087 28.3294699243 59.9888
5195 1 42.8323 27.1644699243 66.0963
6477 1 41.0939 19.2216799134 62.2028
5071 1 33.0564 19.5029428446 65.9055391582
4268 1 45.1293 23.6934699243 66.7893
7336 1 33.5224 26.4784699243 59.3741
1669 1 33.0629 27.1616799134 64.0543
5162 1 38.6053 18.6474699243 61.348
7685 1 44.9985 21.4494699243 63.8839
1656 1 39.5733 21.2616799134 65.3795
147 1 37.0042 24.3890428446 66.4307191582
6309 1 36.169 24.2706799134 63.6266
5135 1 34.212 24.0164699243 60.4112
2566 1 34.3479 20.1104699243 61.4741
2425 1 42.5201 21.3614699243 65.203
2871 1 38.9997 22.2704699243 60.5927
4054 1 41.5724 21.8114699243 61.7014
4904 1 45.6137 20.8334428555 59.4434691582
389 1 42.467 23.2796799134 67.5935
278 1 36.9425 24.4294699243 60.8223
4512 1 44.4459 22.4456799134 61.3682
931 1 36.8563 20.0604699243 62.7903
6188 1 39.4718 27.9828428446 66.8957291582
3315 1 41.7024 25.5404699243 61.576
2646 1 33.4211 22.2592428446 65.6726091582
4241 1 39.4834 18.2196799134 65.9763
702 1 47.3518 17.4586799134 67.3012
7650 1 35.9839 17.7336799134 67.6885
3391 1 37.7873 27.2494699243 61.2519
6721 1 47.1277 26.3294699243 60.9288
3434 1 45.1005 27.2499428555 62.8735591582
2419 1 35.8934 27.0672428446 63.5782291582
2417 1 46.9876 28.9612599351 59.783
7724 1 39.5574 26.4017428446 63.2188391582
7915 1 48.7032 23.7237428446 60.8982691582
5029 1 36.9037 27.9830428446 65.9736591582
7776 1 42.0026 18.5035428446 64.6808191582
3664 1 48.1812 21.5356799134 62.5493
4465 1 42.3982 28.1662228555 62.3137291582
6417 1 33.2049 24.5270428446 67.5104691582
4136 1 33.2004 28.1475428446 66.7232891582
2005 1 34.9899 17.5276799134 64.8913
3301 1 40.5455 24.3164699243 59.3601
3304 1 44.5102 29.5454699243 61.1163
1001 1 48.8475 27.0536799134 63.0295
7659 1 32.969 43.2507099892 4.39958
86 1 34.4847 52.5242099892 4.21541
416 1 45.5863 53.7210370688 -1.7604691582
6756 1 36.0885 53.6368270796 -1.0588691582
660 1 46.5157 49.316 4.63675
1055 1 34.6079 49.8908 -2.16008
4396 1 48.2677 48.1252 1.18077
2276 1 44.5468 46.3487 0.397657
2167 1 36.9446 44.5221 -2.65984
2498 1 42.7405 53.787 -2.4083
7386 1 40.0103 51.8709099892 3.58796
4005 1 37.1111 51.9563 1.18112
2116 1 34.1349 49.9624099892 2.72888
5846 1 40.2718 53.8048 -1.07536
1557 1 41.8847 49.9856099892 4.53497
3050 1 37.1081 47.2209 -0.0269018
4157 1 48.1656 50.3919 -2.42031
1841 1 41.0666 47.53 3.18413
6377 1 32.8558 44.0927099892 -0.590724
2752 1 45.2768 51.9578099892 4.58614
7781 1 36.8816 49.1576099892 2.20599
6447 1 43.997 50.6754 2.47236
3690 1 37.3493 52.9204099892 3.8813
6704 1 37.8789 50.1705 4.5255
6855 1 41.3024 47.9642 -1.05956
3601 1 43.0696 51.2830370688 -0.9194691582
6284 1 45.3704 52.4050370688 0.6082308418
4899 1 45.592 48.3903099892 2.15057
1483 1 40.4599 45.8700370688 -2.7317691582
5396 1 44.1598 48.6454 -1.18193
5560 1 46.4993 49.9496 -0.177676
1064 1 34.4762 51.4855 0.156569
125 1 39.1171 47.8572099892 5.38633
861 1 39.0771 51.2604 -0.552389
5277 1 48.0748 53.6786 0.678409
4007 1 41.2006 53.8783099892 1.78925
3623 1 34.3571 45.5212 -2.57188
3914 1 41.3027 51.1056099892 1.19613
3775 1 34.5481 47.5919 -0.793352
34 1 39.5586 48.6981099892 1.06987
3358 1 47.6586 53.1902099892 3.64231
7694 1 37.5705 44.2362099892 5.36024
1492 1 41.7379 45.8390370688 0.8626308418
4307 1 35.0144 47.0689099892 3.22979
1851 1 32.8676 47.6254099892 4.89906
1427 1 48.1936 45.8541 2.90715
1481 1 43.2696 46.6253 4.68515
4154 1 39.0602 45.5046099892 3.41244
2044 1 40.9785 43.6890370688 2.7010308418
3906 1 45.2291 45.7569 3.19308
342 1 33.0346 45.5677 1.73579
799 1 45.6901 44.1010370688 -0.6114691582
576 1 36.659 45.2327099892 1.82416
5074 1 42.296 42.7139099892 4.96241
3460 1 40.3147 43.9515 -0.693741
2867 1 45.3042 43.1763 2.14529
1737 1 34.0134 50.0702099892 5.60955
2015 1 34.8232 43.2674099892 2.27677
5123 1 37.7918 47.2272 -2.59453
7513 1 46.9185 45.6230099892 5.50359
4324 1 36.4006 46.7577099892 5.49119
7353 1 38.7208 49.9728 -2.95011
2844 1 41.4106 50.2336 -2.93924
1715 1 46.7826 44.9610370688 -3.1288691582
603 1 37.6065 43.3960370688 -0.0778691582
2915 1 48.8026 50.7358 4.01092
4350 1 48.774 44.2826 -1.02532
6535 1 47.4435 42.4775099892 3.89165
5568 1 38.202 53.9224 -2.98689
3349 1 41.6796 50.4132099892 10.5243
210 1 40.4742 49.8772099892 7.03893
3238 1 46.4254 50.8694199784 9.37078
7255 1 44.9092 48.0354199784 14.1505
3710 1 41.913 45.0664199784 11.5907
4134 1 39.1993 50.9014199784 11.7672
4747 1 33.7779 41.1754199784 14.5159
6157 1 37.6704 44.1794199784 9.36433
6829 1 34.7986 51.3007099892 9.26155
1120 1 47.5447 46.7562099892 14.3714
6780 1 44.2692 47.7262099892 8.36729
5666 1 38.6182 51.9421099892 7.61463
2808 1 44.6071 51.4323099892 7.32464
2220 1 48.2301 41.7216099892 10.0801
3940 1 39.5072 40.5444199784 12.9066
2215 1 38.7618 42.8464199784 14.4921
7473 1 35.6404 42.5685099892 8.01056
4511 1 42.1823 51.9908099892 8.38446
6595 1 45.6191 41.4924099892 11.114
1750 1 35.308 47.4354199784 14.5635
7991 1 35.6975 49.6054199784 12.6419
6555 1 46.4633 50.6164199784 12.328
339 1 42.4851 49.2094199784 13.8355
4123 1 48.2933 48.0168099892 6.44688
111 1 35.965 47.8920099892 7.89874
6975 1 32.6605 45.9869099892 7.037
5605 1 38.102 46.9413099892 9.06806
1275 1 34.0828 42.4894199784 10.2173
1518 1 34.881 44.5448099892 6.22696
7230 1 38.6507 41.5135099892 10.3763
4456 1 36.283 41.7936099892 13.5923
6396 1 41.8369 43.7711099892 9.24171
5109 1 40.6023 47.4724199784 12.6946
701 1 44.9573 45.3211099892 7.50776
2993 1 39.1683 44.0962099892 11.8657
5981 1 36.3821 50.4284099892 7.05643
77 1 44.3555 46.6182099892 11.7846
66 1 37.159 45.8152099892 13.0074
1835 1 43.5386 51.2474199784 12.2599
4956 1 44.5132 42.8050099892 8.76985
4446 1 47.2115 44.1157099892 8.90167
3251 1 33.2027 45.1994199784 12.7312
5341 1 43.5966 43.0184199784 12.3887
2801 1 35.3839 44.9459099892 10.8594
1404 1 47.918 46.7992099892 8.86833
2218 1 45.961 44.3789099892 11.6093
6987 1 48.3707 43.4144099892 6.48032
407 1 33.9268 46.7768099892 9.52142
6515 1 47.2331 44.1009099892 14.2109
4709 1 48.2474 48.1854199784 12.2094
6177 1 42.2056 44.9744099892 6.69563
5111 1 33.4555 49.3218099892 10.7888
3820 1 42.0343 47.7074199784 10.2084
3646 1 46.2096 48.1774199784 10.2569
2518 1 37.766 50.8714199784 14.3013
2544 1 38.1187 48.2074199784 11.603
4245 1 40.5994 47.0584199784 7.82492
2357 1 39.5578 43.8071099892 7.27911
3172 1 35.2474 44.3574199784 14.6245
1685 1 44.0756 48.9259099892 5.96419
2145 1 41.3304 41.1634199784 9.66071
2533 1 32.6341 40.7764199784 11.8661
4344 1 48.8215 50.1723099892 8.16832
2331 1 40.899 53.1895099892 6.08009
3244 1 36.115 40.8207099892 10.9976
4332 1 33.5855 48.6374199784 17.7565
6626 1 48.5074 45.5824199784 17.5833
3038 1 47.2708 48.0164199784 16.9053
1942 1 34.2055 43.8474199784 18.3106
4445 1 36.6488 49.3166299675 21.8687
7619 1 41.729 50.2064199784 16.3538
4791 1 39.0432 48.9534199784 15.9865
5761 1 42.4382 48.8654199784 18.6734
4369 1 32.8745 44.3084199784 16.0487
2081 1 46.2981 50.2204199784 15.2748
6137 1 36.8281 46.3774199784 18.4898
2959 1 36.3584 48.4593099892 16.8951
2540 1 46.3663 39.5866299675 19.186
7920 1 34.2575 39.8066299675 23.3731
3444 1 41.1529 45.4394199784 16.6843
6949 1 43.0009 47.7676299675 22.0481
4934 1 40.8517 42.6964199784 16.4387
921 1 38.5646 47.9326299675 20.1819
2432 1 42.7988 43.7896299675 23.2578
4487 1 37.4327 44.5474199784 16.3054
2301 1 42.9398 45.2304199784 20.6467
4719 1 40.9112 46.6264199784 19.1149
6897 1 47.7408 47.6436299675 22.0567
724 1 33.9696 48.3786299675 21.7632
7963 1 40.1755 44.3536299675 20.7827
5704 1 43.6017 42.1856299675 17.1456
4101 1 47.7928 42.8754199784 16.6122
4983 1 34.065 46.3816299675 19.5181
4152 1 47.0781 43.7776299675 19.257
1181 1 35.1263 45.6286299675 22.0748
4364 1 44.8446 47.5426299675 18.1462
7419 1 40.2039 48.0776299675 22.485
926 1 35.5897 40.3534199784 16.6328
1703 1 43.787 46.0964199784 15.9304
520 1 36.7876 42.4974199784 18.2311
5899 1 37.4449 44.4094199784 20.4483
6435 1 45.3606 43.6366299675 21.5857
4496 1 32.6003 44.5776299675 22.5254
6499 1 39.0493 41.1276299675 17.9693
1378 1 40.9349 41.6406299675 23.1086
6458 1 38.7626 50.2824199784 18.5785
2820 1 45.377 48.2606299675 20.7697
2813 1 38.3459 39.7956299675 21.5094
6921 1 44.438 44.6574199784 18.3069
6671 1 40.3196 41.6106299675 20.3515
5253 1 46.6216 40.1026299675 23.3251
2098 1 48.7688 41.2796299675 19.7178
7674 1 37.4443 44.2976299675 23.3317
6341 1 42.8726 40.8844199784 19.4126
3336 1 36.2724 41.7576299675 21.0086
5301 1 44.9419 40.9526299675 21.2246
3015 1 33.6945 41.6326299675 19.9086
7536 1 46.0298 40.7274199784 16.5582
1410 1 43.016 39.9086299675 22.8762
5345 1 41.6127 40.4974199784 14.7227
4356 1 39.3182 46.3884199784 14.9707
7833 1 48.3205 38.8446299675 21.2833
3108 1 44.5905 43.6184199784 14.9098
4012 1 33.7728 39.3696299675 18.3716
2494 1 41.3805 47.2096299675 28.6032
7472 1 38.8223 47.5106299675 25.1586
7188 1 43.9057 47.4694199784 24.4988
6742 1 36.2773 46.5156299675 24.7168
5146 1 48.2432 46.7276299675 26.5079
3407 1 42.9686 45.2826299675 25.69
5425 1 35.5212 45.0956299675 26.8319
241 1 38.8345 48.3976299675 27.8667
4860 1 37.7786 45.7396299675 28.3302
6015 1 34.1595 48.3106299675 24.5768
2020 1 44.2038 47.9376299675 28.814
2059 1 46.9399 44.7546299675 27.9676
1235 1 33.432 46.6376299675 27.7747
2485 1 34.8477 44.6998399567 30.6636
3815 1 42.2772 40.3068399567 32.2341
6253 1 39.4029 39.5038399567 24.1458
7611 1 45.9228 41.2738399567 32.0234
1657 1 41.0484 38.8268399567 26.4856
6524 1 44.0735 45.0198399567 28.0722
7302 1 46.3804 46.3586299675 30.3534
5680 1 47.3454 39.0428399567 30.7814
202 1 43.5852 46.6598399567 31.3779
674 1 44.7278 39.5406299675 25.2856
7932 1 47.1603 43.9758399567 31.4924
4440 1 47.1374 40.5746299675 26.83
7846 1 46.6293 47.3816299675 24.4087
5542 1 37.8288 41.5658399567 28.6379
2747 1 33.6386 38.2678399567 25.579
6734 1 35.2711 42.2698399567 29.2851
5921 1 42.6969 38.1308399567 30.4219
2191 1 39.6953 43.5948399567 28.8493
6506 1 40.2708 45.4096299675 26.5953
6716 1 46.6953 42.1986299675 29.2537
1977 1 48.5882 41.7846299675 24.4755
1823 1 33.5135 40.0918399567 29.6871
4704 1 43.6841 42.3696299675 25.6738
1620 1 38.1937 39.2548399567 30.0892
3049 1 41.9479 44.7456299675 30.0939
718 1 41.2594 41.7626299675 27.0261
1602 1 43.5926 39.3526299675 27.9999
7514 1 34.2707 40.5718399567 32.4089
6505 1 35.0505 38.1246299675 28.7758
5610 1 44.0068 42.2186299675 28.638
535 1 46.1866 38.4446299675 28.3823
4576 1 34.5216 42.4616299675 26.4238
2147 1 37.7204 40.9376299675 25.9816
5593 1 43.4687 42.6486299675 31.4959
4760 1 46.382 43.1326299675 25.7884
2459 1 37.5176 45.6116299675 31.2538
6254 1 38.874 37.6366299675 27.7759
2002 1 38.7177 43.2968399567 31.58
934 1 36.6023 38.4706299675 26.5289
43 1 39.5006 42.9496299675 25.0966
6104 1 36.0624 38.3368399567 31.5561
2890 1 40.2706 37.0238399567 30.1855
1043 1 36.031 41.9796299675 23.9657
5011 1 32.5341 40.5956299675 27.0581
7366 1 34.6689 47.5148399567 30.2513
7476 1 39.5672 40.6298399567 32.1077
5755 1 46.6725 44.7346299675 23.6657
875 1 48.5501 37.3368399567 32.4123
6534 1 39.4394 47.8316299675 30.6411
5896 1 44.0505 36.3728399567 32.2182
4805 1 40.1817 45.3876299675 23.592
5621 1 48.1512 42.9610499459 39.5963
1393 1 33.32 36.8178399567 39.1671
3898 1 37.5459 35.9788399567 40.0049
4353 1 37.7017 38.0268399567 37.9886
3608 1 45.6905 37.3648399567 36.4494
5579 1 41.3309 36.7758399567 36.7319
6810 1 40.2737 38.7450499459 40.3299
6787 1 47.1669 36.3598399567 38.7854
6622 1 41.4883 35.1980499459 38.9898
5458 1 36.6965 35.9860499459 36.2427
4140 1 33.9282 39.5160499459 39.0797
4517 1 44.8518 37.9498399567 38.9699
2444 1 47.1865 45.7050499459 36.8948
2236 1 43.6033 35.9060499459 40.6386
3762 1 42.336 38.9828399567 38.4801
2545 1 35.3642 34.8860499459 38.5733
7186 1 32.9253 46.3008399567 33.9046
7829 1 36.5349 42.3150499459 32.9649
5330 1 47.1471 39.6658399567 36.3388
7149 1 37.9536 40.2500499459 39.4623
1689 1 41.2827 45.4898399567 37.4453
4917 1 45.0248 43.9680499459 36.045
7908 1 32.9978 42.8008399567 33.2778
4593 1 35.0866 44.6838399567 33.5552
5421 1 40.0279 36.1620499459 41.3288
5822 1 43.6236 44.3818399567 38.4858
1017 1 35.8073 40.0280499459 41.1756
4184 1 40.3373 46.9028399567 33.004
5529 1 48.5122 42.4508399567 34.7966
1578 1 43.4131 37.3678399567 34.9029
5005 1 36.4805 47.0848399567 33.7426
5240 1 35.6481 37.7958399567 34.3441
4442 1 45.7962 41.6858399567 34.9723
600 1 38.4069 38.3638399567 33.6582
3291 1 39.7196 42.3248399567 34.7315
776 1 46.8414 46.4118399567 34.0741
1231 1 35.5247 39.3608399567 36.683
4634 1 36.1731 44.4320499459 36.2384
641 1 39.6436 38.9378399567 36.2306
1747 1 39.8147 42.2290499459 40.4381
2257 1 46.2837 45.2268399567 39.5547
1510 1 42.2423 41.8598399567 39.0752
5636 1 43.5832 40.0728399567 34.5247
354 1 38.0617 43.9260499459 39.1214
456 1 41.6306 40.8538399567 36.3844
6699 1 47.2829 40.4720499459 39.0178
1116 1 33.6447 42.1430499459 38.0419
5038 1 42.6488 45.1488399567 34.9657
7807 1 37.4621 40.7910499459 35.1679
4466 1 33.1959 39.3788399567 34.8665
28 1 38.9546 44.4840499459 36.3287
572 1 45.6184 39.6940499459 41.0532
3355 1 36.4567 42.0830499459 37.6677
1274 1 44.7867 44.6358399567 33.11
7385 1 41.0408 44.2488399567 32.8027
277 1 32.8203 43.6418399567 40.0134
6597 1 34.7703 46.0738399567 37.9707
1441 1 43.9745 41.8160499459 41.2109
381 1 39.4811 36.0498399567 32.6777
2009 1 48.447 41.6670499459 44.0395
4095 1 41.9904 34.6010499459 42.5536
886 1 37.9206 42.4290499459 44.2562
3303 1 34.1481 41.1070499459 44.8393
2989 1 41.2383 41.7120499459 46.8324
4291 1 33.9928 33.3730499459 47.5787
6430 1 40.5536 33.5630499459 47.0331
3695 1 39.4917 40.1430499459 45.0795
2509 1 36.1014 43.1950499459 47.7079
6652 1 33.5898 42.1660499459 47.2845
4957 1 44.8498 39.9450499459 48.3069
743 1 48.6432 36.9960499459 46.7624
239 1 36.2212 37.5338399567 41.9793
845 1 33.994 36.5170499459 44.7319
7988 1 34.2629 40.5302599351 49.6169
6353 1 36.7218 33.6560499459 46.8869
4697 1 40.8768 39.1350499459 43.0314
860 1 48.0637 34.1530499459 46.4507
764 1 39.4929 36.7560499459 44.051
6533 1 39.1481 41.4950499459 48.5689
4003 1 45.0951 38.6380499459 44.8858
522 1 47.4778 40.7830499459 48.1024
5809 1 47.8569 32.9360499459 48.909
6087 1 36.6036 40.0420499459 45.3499
4533 1 47.1977 36.8100499459 44.1597
2158 1 36.6331 40.5150499459 48.2482
4412 1 47.4931 39.3270499459 43.01
302 1 39.993 38.3870499459 47.2786
7819 1 43.5165 36.0650499459 44.2885
3662 1 36.8796 37.2460499459 44.7346
1594 1 37.3659 37.6050499459 47.6771
7794 1 42.0758 39.4712599351 48.6179
3339 1 43.9664 40.9120499459 45.8156
3692 1 37.6513 34.5280499459 44.4285
4304 1 44.8115 35.0952599351 47.7503
5747 1 46.0174 37.6020499459 47.4113
710 1 47.0166 36.7592599351 49.9181
2177 1 45.6671 34.3980499459 45.0159
4318 1 41.5369 36.1020499459 46.1029
1430 1 38.7934 35.1530499459 48.4459
4160 1 42.7216 36.7052599351 48.7141
373 1 34.6593 36.8950499459 47.5134
4961 1 43.5175 38.1040499459 42.4233
283 1 42.4953 41.2570499459 43.461
7442 1 35.6075 42.2290499459 42.7032
2457 1 44.987 41.9570499459 50.2837
2760 1 40.3616 42.9020499459 42.9268
3379 1 47.8983 43.8130499459 42.4503
2703 1 45.1711 43.2840499459 46.2345
4503 1 47.9843 42.8760499459 46.4258
1517 1 45.0987 44.1890499459 41.8626
671 1 33.4838 43.9590499459 42.8945
5208 1 33.6737 36.3380499459 41.9174
6112 1 34.1049 35.1660499459 49.7876
4718 1 32.719 38.4340499459 48.6678
1846 1 43.2053 32.9372599351 47.7299
6273 1 45.6267 33.9580499459 50.2288
1743 1 47.7807 42.3142599351 50.2905
2620 1 36.7803 44.5190499459 41.5864
2618 1 47.7965 35.7630499459 41.5794
5272 1 32.542 38.7770499459 45.0393
7743 1 36.8329 33.9560499459 41.8982
1945 1 44.4223 38.1522599351 50.5903
1333 1 38.0971 32.5582599351 58.2213
6494 1 40.7066 40.6602599351 50.7694
1292 1 48.6971 37.4122599351 55.9941
3973 1 40.7388 31.9182599351 54.9521
4867 1 45.0525 31.9062599351 56.7048
5999 1 34.7087 32.0602599351 53.3847
7066 1 40.7864 33.0372599351 57.6731
6405 1 47.7334 31.1822599351 56.9533
4376 1 42.5105 30.6954699243 57.6822
506 1 45.3487 42.2692599351 54.5989
3366 1 47.7816 33.3712599351 54.8472
2148 1 43.8848 31.6162599351 52.9633
5478 1 38.8252 33.6232599351 53.7435
4217 1 37.9547 33.9152599351 50.9456
927 1 42.713 39.8762599351 58.4049
2000 1 44.5834 36.1722599351 56.9665
4706 1 46.5045 38.1822599351 52.4476
6426 1 46.1368 38.2832599351 56.3136
406 1 44.7369 39.5012599351 54.2289
6226 1 42.0188 38.5122599351 54.5339
6423 1 40.7229 33.6272599351 51.4945
3742 1 41.0572 35.3392599351 55.8756
4142 1 48.0911 40.3632599351 52.009
5340 1 38.3715 36.0602599351 55.1335
4385 1 36.1396 35.9362599351 51.3618
1953 1 43.3544 40.4310499459 51.8706
2903 1 42.6657 36.6002599351 52.5839
2450 1 45.544 39.6432599351 58.6253
2144 1 41.8678 41.4632599351 54.0555
4536 1 39.1669 41.3832599351 54.3219
2436 1 42.2023 37.6202599351 57.1213
4590 1 38.5916 39.1702599351 57.2371
1025 1 35.4916 40.0012599351 52.2171
414 1 35.8333 36.2632599351 54.0491
5929 1 45.3332 35.3772599351 52.6222
7112 1 35.9364 39.9782599351 56.9817
2829 1 47.8402 35.8852599351 53.6693
6981 1 36.8299 42.2042599351 53.1392
7220 1 40.1976 41.1702599351 58.4824
2809 1 39.2672 38.6342599351 54.4278
4035 1 46.7189 32.1152599351 52.4065
7158 1 42.3254 33.9242599351 53.8445
932 1 39.3016 38.4152599351 51.5469
1972 1 33.0236 33.7382599351 51.7536
3702 1 32.6993 40.6800499459 52.1738
1608 1 36.9051 34.8352599351 57.2697
3950 1 34.274 38.8642599351 58.7241
2556 1 34.9794 38.8962599351 54.6561
260 1 44.8724 34.1992599351 55.1338
1913 1 34.837 34.0852599351 55.4486
1144 1 39.5365 42.9272599351 51.921
3944 1 43.3651 41.9034699243 56.5114
7705 1 40.7993 36.7824699243 59.2121
5774 1 37.0129 38.4542599351 50.3731
7487 1 38.1194 37.0254699243 58.7702
4700 1 32.7732 36.6114699243 58.7681
6646 1 40.7931 36.3110499459 50.5546
6553 1 32.5792 35.6372599351 56.2437
5618 1 32.5646 41.7442599351 54.7115
5410 1 47.8204 42.1672599351 56.2662
4171 1 36.7312 35.3994699243 64.5413
4330 1 47.7358 37.4124699243 61.9844
6171 1 35.6961 32.9104699243 63.7984
2025 1 36.5446 30.5902148555 64.9519191582
3727 1 45.9053 29.3694699243 64.6432
2381 1 37.4155 32.5024699243 60.6987
91 1 33.2993 35.1858028555 62.5299791582
3245 1 47.2836 31.6502599351 60.6746
1541 1 45.8086 35.9054428555 63.6522091582
4733 1 35.3541 31.9426799134 67.1641
5276 1 43.0826 37.0284699243 64.0396
2136 1 42.8424 36.3024699243 66.6408
3431 1 40.4628 33.1034699243 64.0647
4049 1 42.7063 33.3646428446 65.9489891582
5078 1 46.8311 36.5554699243 67.4768
7178 1 36.2225 37.6992599351 60.679
6823 1 33.0576 31.6624699243 59.2776
1670 1 42.4147 40.7114699243 61.1164
6213 1 46.1694 38.2644699243 65.2962
5093 1 47.9918 33.6176799134 65.4621
2293 1 34.7207 36.4231428446 65.9397491582
2283 1 43.661 35.3155828555 61.6921591582
4714 1 42.708 31.6274699243 60.587
6806 1 47.2514 33.6294699243 62.7534
1980 1 48.4615 29.9816799134 65.8139
3459 1 48.0536 35.1154699243 60.2807
3837 1 45.4459 31.4904699243 62.959
5042 1 34.7512 33.1324699243 61.1105
102 1 38.0507 36.5124699243 62.3742
7519 1 41.9673 30.7066799134 66.3721
6132 1 39.1095 30.7454699243 64.0909
3031 1 45.4719 35.3852599351 59.3692
2093 1 39.2702 34.1284428555 61.7656191582
1725 1 47.8207 31.9769428446 67.8364091582
4792 1 44.9521 32.1806799134 67.5997
4762 1 45.4129 34.6091428446 66.1916991582
6138 1 40.3092 37.5964699243 66.1659
6440 1 41.3973 34.2094699243 60.2083
1581 1 47.4395 40.0124699243 63.4085
3654 1 43.2648 33.0607428446 63.1223291582
4437 1 33.3376 31.8764699243 65.0622
1552 1 39.2629 35.0116799134 65.6891
1777 1 35.1106 38.8320028555 64.7861791582
2181 1 38.0925 30.0254699243 61.591
1320 1 45.036 32.7354699243 59.3359
3888 1 39.9896 38.2504699243 63.4668
5191 1 36.3112 40.3544699243 61.7214
5119 1 33.3731 40.2254699243 60.8628
2581 1 43.8715 39.9094699243 64.6806
5441 1 48.184 39.1632599351 59.3774
7431 1 32.9095 37.7372428446 67.9370291582
2573 1 44.9211 38.0604699243 60.9723
4987 1 35.3418 29.6644699243 62.5769
7201 1 41.9486 37.8454699243 61.4013
4918 1 33.7499 37.8752928555 62.3559691582
271 1 32.9134 31.2474699243 62.2984
2738 1 37.6809 39.6134699243 64.1193
2907 1 44.2485 29.4944699243 66.9621
7244 1 45.0011 40.7001328555 62.0956191582
2119 1 32.6781 34.6474699243 65.2128
6625 1 35.1005 35.2904699243 59.2808
7728 1 41.9938 39.8184699243 66.904
4958 1 36.375 35.8335428446 68.1287091582
4768 1 50.1218 8.4993099892 2.51926
6048 1 50.1121 20.3115 -1.49787
7923 1 58.1130153495 19.4950370688 -2.0902691582
3002 1 64.1560753495 11.0981099892 -1.06959
4809 1 55.5222 13.3101099892 -2.2021
5585 1 59.1026 18.6424099892 5.39734
5182 1 52.1073 16.9245 -1.20866
6039 1 51.5984 14.1640370688 -0.4250691582
4378 1 64.0781 13.6727099892 3.04994
2996 1 51.4348 18.7094099892 2.72634
4967 1 62.4391 15.8015099892 3.13196
6933 1 58.3237 10.0502099892 5.52931
6209 1 60.3208 12.7332099892 -1.90375
3611 1 59.6876 15.4105099892 -2.46282
2510 1 63.3663953495 20.0410370688 -1.4975691582
5273 1 52.8705 13.9781099892 -2.94602
4454 1 55.8291 17.0018099892 2.97705
6407 1 54.5683 15.1419099892 4.63692
870 1 58.1963 16.6669099892 1.61482
2151 1 64.1180853495 17.796 1.86543
404 1 56.8254 17.3288099892 -0.686998
6449 1 62.8153253495 10.0634199784 4.95494
1254 1 56.8996 14.0924199784 5.39744
4707 1 65.1661 18.1463099892 4.69956
5714 1 59.2521 19.0706099892 2.74699
7877 1 54.3413 13.7169099892 0.282364
524 1 61.066 18.8020370688 -0.3485691582
4658 1 63.2322253495 16.0382 -0.459273
5971 1 54.3776 18.6330370688 -0.3224691582
1156 1 63.2354 17.3377 -2.87808
3704 1 57.1526 14.019247058 1.3865308418
6475 1 51.5859 14.7339099892 2.58061
2942 1 64.1178153495 13.504247058 0.1620308418
138 1 50.2792 18.306 0.235557
6228 1 53.6705 16.4184099892 1.24543
3246 1 60.552 16.0559099892 0.159938
5558 1 61.2197 13.385247058 0.6619308418
1632 1 51.9673 16.6991099892 4.64104
1711 1 56.9616 15.5215099892 -2.88364
5501 1 64.4597 12.4284199784 5.68951
328 1 60.3757 8.4636199784 4.64755
2614 1 59.8703953495 15.6729099892 3.60291
1083 1 51.6865 9.5422099892 0.460681
2843 1 53.4954 11.3971099892 1.41206
2183 1 57.8695 12.3276099892 -0.757006
4997 1 51.4656 11.5050099892 -2.92279
450 1 53.5474 12.7008099892 3.94759
6705 1 61.8672 19.5828099892 2.31612
3782 1 49.8588 11.5524099892 -0.486872
2718 1 62.0427 11.7134199784 2.86317
1162 1 59.5531 11.1223099892 1.43626
5767 1 50.7526 12.4047099892 4.18425
5991 1 63.9553453495 10.1090370688 1.5081308418
7919 1 60.2464 13.0104199784 4.35992
5790 1 57.54 12.0390099892 3.40227
6875 1 56.0631 10.5260099892 1.57629
2636 1 50.9127 9.6824199784 4.90858
5170 1 54.1529 20.4327099892 -2.49194
5465 1 65.1576 20.0728270796 0.4762308418
4796 1 57.4424 9.7279099892 -1.0094
4380 1 60.9678 9.4740370688 -0.3284691582
1613 1 61.8799 10.5614099892 -2.58861
2328 1 64.4813253495 8.0283199784 4.42324
79 1 60.4109 18.0545099892 -3.08432
2586 1 49.0105 11.1785099892 2.21507
1586 1 54.8943 19.2856099892 4.11801
3832 1 58.8026 8.553247058 2.2295308418
2863 1 63.2386753495 16.5018099892 5.58208
7127 1 49.1456 18.2860370688 -3.1628691582
2640 1 60.1046 14.6424199784 8.55668
1565 1 59.7602 7.3876299675 14.2985
1806 1 64.5235 10.3644199784 9.25018
1396 1 61.2475 17.6994199784 7.16228
6848 1 61.3985 17.0046299675 12.4874
6667 1 58.8853 15.9284199784 6.3179
5032 1 52.9659 16.3934199784 9.53925
3308 1 60.6768 17.0764199784 9.80206
3522 1 57.1166 17.3974199784 8.0692
7934 1 57.9355 17.4314199784 10.5266
586 1 54.6166 16.2394199784 7.38861
7957 1 50.6367 17.4614199784 8.58754
5547 1 64.7446893495 14.7874199784 7.26848
6245 1 64.6317 16.4204199784 9.85143
5331 1 53.6034 9.8754199784 9.90232
2336 1 49.5948 13.4254199784 6.49004
1109 1 61.6538 12.7234199784 12.3257
5192 1 49.8615 16.0422099892 6.13693
1053 1 63.7456 14.1794199784 11.299
6732 1 56.3947 9.1784199784 9.3079
7147 1 49.7839 11.6354199784 12.5682
6593 1 52.2568 13.8334199784 10.0971
6946 1 54.7958 9.3884199784 13.6011
483 1 58.5744 11.0714199784 9.53938
5001 1 60.4814 7.5560199784 7.49409
999 1 53.8791 15.6344199784 14.0101
4279 1 55.5663 13.6314199784 7.8761
4170 1 62.5331 11.4222099892 7.45641
481 1 53.271 18.7005099892 6.43026
1858 1 53.4273 6.8186299675 12.863
3449 1 63.1593 8.3056299675 13.0471
2111 1 55.8102 9.2649099892 6.45081
544 1 56.2779 7.7112199784 11.8178
2766 1 62.6736 13.7754199784 8.73739
7082 1 54.5189 12.4636299675 10.2571
2659 1 52.583 7.1644199784 9.97171
7539 1 59.7246 12.1354199784 7.02651
1081 1 57.0435 11.3226299675 13.6061
1026 1 57.7149 13.6864199784 9.48636
6846 1 61.0393 9.7074199784 9.25654
1490 1 59.2793 11.0066299675 12.245
2467 1 63.7664 16.0374199784 13.531
5812 1 60.1574 14.7484199784 13.2369
7986 1 52.1644 10.1476299675 12.4686
4560 1 62.6241 10.4546299675 11.4044
2753 1 57.5979 15.0284199784 12.1267
5050 1 54.1427 11.5164199784 6.43796
3709 1 50.3778 14.1216299675 11.8545
1865 1 52.0425 10.0324199784 7.53025
6952 1 50.5072 12.1054199784 8.75037
2725 1 58.863 8.2516299675 11.912
5599 1 50.7957 7.5736299675 7.97166
7437 1 50.5895 7.6983199784 11.9734
1852 1 64.4566 7.6199199784 9.71865
6892 1 55.3492 13.4336299675 12.6406
7264 1 60.6034 6.9726299675 10.2596
5073 1 53.5609 17.3974199784 11.9351
6812 1 51.1598 15.1676299675 14.3572
204 1 63.1426 16.6606299675 16.2576
5367 1 53.6953 9.1826299675 23.2343
2603 1 52.1574 5.3386299675 20.9492
3626 1 64.7512 7.1726299675 21.9826
1770 1 65.0709793495 13.7236299675 22.3609
1163 1 57.1621 13.9154199784 16.2752
1100 1 57.9712 11.0866299675 16.2899
6511 1 63.4674 14.7006299675 18.4311
3103 1 64.3538353495 12.0826299675 18.7043
5843 1 60.105 14.7396299675 21.6344
1956 1 56.8564 12.5136299675 22.7211
5583 1 56.0528 9.0026299675 16.2721
656 1 52.8016 13.4136299675 21.5315
2386 1 51.8994 10.0926299675 18.7375
4651 1 49.7271 13.7536299675 21.5513
4486 1 62.3864 10.3326299675 17.6175
5842 1 53.4091 8.6076299675 16.9644
6107 1 50.782 15.9926299675 17.0734
3724 1 50.5156 6.0274199784 16.5446
7757 1 54.0853 13.7416299675 18.2529
4417 1 62.6481 11.7296299675 14.7551
4924 1 49.1843 11.5658399567 22.8984
162 1 55.9229 10.1756299675 21.7881
7347 1 64.7088463495 7.8276299675 16.5593
965 1 56.5771 14.6756299675 18.9528
4663 1 61.6883 5.0768399567 22.1089
3510 1 61.4757 12.6376299675 22.7278
527 1 62.1579 8.1146299675 15.593
3472 1 59.8336 11.3166299675 18.5905
4177 1 55.3276 14.5136299675 21.6111
7723 1 62.9389 10.8966299675 21.0884
7313 1 56.4475 9.3326299675 19.1149
2911 1 58.4384 13.0826299675 20.2968
6360 1 55.4709 5.5348399567 22.5497
2851 1 58.4659 9.3148399567 22.1857
6997 1 59.1783 8.8646299675 19.4704
6065 1 49.4534 11.2866299675 17.4129
6927 1 51.2536 13.0466299675 19.0163
3242 1 59.6313 14.7336299675 15.9072
3903 1 54.1993 11.3096299675 19.8036
2879 1 61.4744 13.1156299675 17.0684
412 1 49.7472 8.4616299675 17.9049
3988 1 63.0854 5.8626299675 19.7356
6579 1 54.4574 13.0876299675 15.4313
6643 1 49.4937 7.8496299675 20.7726
1189 1 64.3843053495 4.3096299675 22.559
6033 1 50.4749 12.5246299675 15.1839
5098 1 57.5212 6.6626299675 15.7383
6045 1 60.2867 10.1904199784 14.763
1024 1 61.9192 8.5216299675 19.9362
1343 1 52.3656 8.4186299675 20.7224
3388 1 59.0733 6.4366299675 18.3377
3870 1 61.6565 6.0356299675 17.3687
7812 1 54.9881 7.1546299675 20.0719
6129 1 60.9256 7.8216299675 22.4876
388 1 52.746 6.2606299675 18.3097
2633 1 52.6893 10.9096299675 15.3194
4944 1 63.2301453495 9.2026299675 23.3364
5274 1 51.5181 8.0166299675 14.7659
453 1 52.7714 16.1996299675 18.7472
7251 1 59.5611 4.4916299675 20.2286
6692 1 52.9248 6.3848399567 23.5409
4257 1 50.4052 7.4816299675 23.4841
4670 1 56.5848 16.1896299675 14.7539
1432 1 48.8948 14.2366299675 17.793
2174 1 63.1393 13.9036299675 24.387
226 1 58.5309 14.0866299675 24.8687
3665 1 52.8823 12.6098399567 24.0891
6775 1 59.401 11.3696299675 23.9627
6532 1 55.3045 12.7968399567 25.2224
3302 1 48.9052 11.0448399567 27.3723
92 1 57.3044 10.8468399567 25.9841
6312 1 62.3609 12.3088399567 26.6968
1466 1 53.7618 12.3348399567 27.5978
4176 1 62.6445 6.9498399567 28.5563
496 1 57.7817 12.2428399567 31.2432
6480 1 52.4427 12.7858399567 30.9909
4221 1 58.5366 5.4488399567 31.0243
2114 1 59.6696 13.6668399567 29.5995
951 1 54.2712 10.6838399567 30.0301
7947 1 61.3214 9.8768399567 25.5204
991 1 56.4899 11.9348399567 28.6804
808 1 51.2987 10.2348399567 24.2826
978 1 51.8113 6.0328399567 28.4325
3055 1 62.7955 4.2508399567 28.6383
6011 1 61.9074 5.3968399567 32.2427
1548 1 51.4967 10.6398399567 27.0836
7524 1 57.4955 4.8048399567 25.3608
4993 1 61.8205 5.4838399567 24.8779
1729 1 52.5174 8.7148399567 28.7215
4231 1 49.6473 14.0738399567 27.1578
2582 1 57.0051 3.3008399567 32.1172
7745 1 51.6749 3.4448399567 25.9432
1431 1 60.6841 3.7288399567 30.3369
1826 1 50.1153 4.3878399567 30.0443
5374 1 60.5681953495 9.4948399567 31.0529
1919 1 57.8706 9.4618399567 31.6091
4467 1 54.3219 7.1738399567 32.2065
3659 1 53.9804 5.3898399567 30.0622
5647 1 60.0151 7.3368399567 29.3712
6736 1 56.6311 6.1238399567 29.111
7044 1 50.7541 9.0818399567 30.9721
1545 1 49.9454 11.6750499459 31.0891
4309 1 49.4874 5.0828399567 24.7612
4085 1 52.2782 3.6338399567 31.5852
1171 1 53.3191 5.6598399567 25.9905
4460 1 55.6304 8.7498399567 25.1439
3774 1 58.891 5.7318399567 27.4705
6798 1 63.2982 7.7778399567 25.882
7748 1 56.7672 9.1118399567 29.0348
4928 1 60.6520853495 3.6638399567 26.7375
1394 1 54.7223 2.4658399567 30.5847
5979 1 54.778 7.7138399567 27.4523
4913 1 63.4988753495 11.5218399567 29.2185
4303 1 64.5742553495 5.1588399567 25.4124
419 1 59.2369 9.4038399567 27.5322
6153 1 59.7619 7.4768399567 25.2504
7209 1 63.1868753495 9.1928399567 30.5152
3141 1 60.7335 11.2628399567 28.9653
7032 1 64.7656 3.0348399567 30.5208
1250 1 64.6395783495 5.6188399567 31.9712
4507 1 57.461 7.2448399567 23.8806
621 1 55.1519 3.4148399567 25.8786
5077 1 56.3423 3.3308399567 28.4074
6916 1 63.7237 13.5428399567 30.8373
6101 1 49.2215 6.6718399567 27.1759
5251 1 49.7687 3.0238399567 27.8293
6956 1 65.1556 12.7618399567 25.9313
6969 1 60.4998 14.3888399567 26.9742
756 1 57.6879 0.7922599351 39.7731
7045 1 63.0858353495 10.2520499459 36.1232
2922 1 64.8588723495 0.3422599351 39.1705
3443 1 64.796 7.2770499459 34.2486
6768 1 49.3421 3.6280499459 37.4566
7056 1 51.8526 4.0290499459 41.0726
2463 1 60.5539653495 3.1760499459 37.3846
5053 1 53.7437 2.2860499459 34.9765
2579 1 64.5519053495 2.6490499459 37.5448
4715 1 54.1445 3.2490499459 39.6985
1478 1 63.9759353495 7.5922599351 40.281
7847 1 60.4059 1.9200499459 39.7292
4432 1 56.8608 3.6560499459 39.4779
6976 1 52.2528 4.4440499459 34.2035
3232 1 57.7742 3.9890499459 36.9259
602 1 59.2793 2.6728399567 33.6058
4428 1 63.233 3.0590499459 34.9516
5318 1 53.8186 1.5600499459 37.6522
7161 1 61.0387 4.6318399567 34.8477
4077 1 64.4245 4.6510499459 39.7286
5415 1 56.1039 5.6080499459 33.6069
4328 1 55.237 4.6850499459 36.0585
4816 1 50.4187 10.9842599351 40.7768
3536 1 50.4917 10.8430499459 37.8712
2404 1 52.879 9.7200499459 40.1246
3261 1 62.1924 0.9210499459 36.4277
121 1 52.0485 8.5080499459 37.6754
6416 1 49.6606 4.1330499459 34.7344
7754 1 53.388 11.9098399567 33.5501
3526 1 58.3319753495 7.1678399567 33.4271
5541 1 49.6284 2.8010499459 40.0335
7421 1 57.3447 6.0650499459 40.7725
836 1 61.9306 5.3420499459 38.6196
5181 1 50.1838 7.4510499459 35.8585
4461 1 61.0628 7.5462599351 39.9395
7026 1 56.664 9.1038399567 34.9155
757 1 52.6135 7.0990499459 34.3585
2018 1 61.1232 7.8068399567 33.1215
6238 1 55.1458 7.6600499459 39.9847
593 1 54.5821 7.6018399567 36.2075
681 1 51.5906 9.5298399567 33.4558
5426 1 60.632 8.6400499459 36.0054
3468 1 53.9633 5.7690499459 38.4942
1336 1 59.089 6.3290499459 36.094
773 1 51.1963 5.7400499459 37.9622
1612 1 62.7677 6.5232599351 36.0469
258 1 58.5658 7.6332599351 38.6809
7590 1 63.5675 9.5628399567 33.3376
2431 1 64.4050453495 8.2540499459 37.6696
4209 1 49.6164 10.1600499459 35.2824
314 1 60.1501 11.6018399567 33.004
1920 1 62.7851 12.3198399567 33.2367
1110 1 58.5469 10.4900499459 39.3154
619 1 59.0227353495 10.5198399567 35.2753
1829 1 50.5112 6.6212599351 40.5908
1499 1 54.9066 11.7138399567 38.2286
2416 1 61.9513 3.8982599351 41.0352
6682 1 61.3767 10.1150499459 38.5014
4494 1 55.4472 11.6630499459 35.5289
3551 1 56.4346 9.1480499459 37.8345
2525 1 50.9746 0.3962599351 41.1647
5832 1 65.2008873495 11.8290499459 37.1286
1830 1 57.8134 1.4860499459 35.4787
6199 1 55.1951 1.2892599351 41.3677
1172 1 55.22 9.8328399567 32.504
3106 1 51.4066 -0.4527400649 44.5489
31 1 49.2696 1.3832599351 49.5641
3511 1 58.4642 -0.3157400649 44.8439
7377 1 60.1229 1.0192599351 43.1158
2720 1 50.15 0.0892599351 47.2319
2036 1 63.4878 0.5482599351 44.7031
4549 1 56.1981 0.6492599351 48.6265
4416 1 53.0578 1.3672599351 43.1424
5497 1 53.5654 -0.0677400649 48.4722
6528 1 62.5476453495 -0.1877400649 49.992
1509 1 60.3727 0.6552599351 48.5737
5009 1 56.8604 1.6672599351 46.016
561 1 58.0483 3.6862599351 50.2196
4601 1 58.5683 2.8832599351 41.7513
5988 1 50.7439 5.9532599351 49.4542
700 1 52.1867 2.1252599351 47.2963
7741 1 56.2725 2.8242599351 43.4276
3766 1 61.5332 2.7402599351 44.8606
7307 1 54.2106 2.6732599351 45.3318
4950 1 63.7694 3.7362599351 43.1804
1008 1 61.1655 3.1942599351 47.6531
4130 1 52.0761 3.8142599351 43.7595
7131 1 58.4011 3.6592599351 47.3408
493 1 63.9653 3.4762599351 47.6913
2454 1 53.1328 4.2552599351 49.271
7977 1 60.3502 5.2332599351 44.785
4128 1 50.4075 4.1552599351 46.3825
2185 1 59.8222 5.5542599351 42.0818
2864 1 51.5239 6.6072599351 46.525
377 1 56.3947 5.6712599351 43.4508
953 1 60.7489 4.9492599351 49.8738
7752 1 53.3926 6.2102599351 44.1818
1767 1 53.9941 5.0502599351 46.8085
5652 1 64.6268 6.4922599351 42.8555
5511 1 64.1313453495 5.3732599351 45.4238
6830 1 57.8843 5.9442599351 45.8018
1677 1 52.0262 1.6444699243 50.2026
5237 1 58.4056 10.6250499459 42.1536
7144 1 49.0247 0.4792599351 43.2891
6865 1 58.9007 8.4182599351 44.9077
5651 1 49.1818 3.2912599351 43.942
2679 1 52.4071 8.3782599351 48.6882
5648 1 64.2721553495 -0.3069500541 42.1073
7893 1 60.3066 9.2422599351 47.0494
6282 1 49.0688 7.6172599351 47.915
4235 1 52.0643 7.9350499459 42.37
7762 1 51.1157 8.8262599351 44.7814
492 1 56.0786 6.7752599351 47.8631
83 1 62.028 7.1322599351 46.0628
6834 1 54.9311 8.0872599351 42.8611
7970 1 56.6494 9.8272599351 44.4141
4721 1 60.6321 9.0942599351 49.769
24 1 64.9401 10.0042599351 45.1471
4141 1 64.2782 8.4142599351 47.4928
3420 1 63.3512 10.2810499459 41.4309
4603 1 54.1256 6.6782599351 50.0841
4181 1 62.7839 8.6822599351 43.7584
2673 1 62.3436 7.0622599351 49.0022
5795 1 60.3939 8.3680499459 42.5016
6289 1 55.8273 9.3852599351 47.2815
4501 1 53.0811 9.9342599351 46.3049
3571 1 64.9574 -0.5967400649 48.3388
3836 1 61.4687 -1.6225300757 54.4294
5289 1 53.9992 -2.1925300757 56.0383
7327 1 58.8409 -1.7045300757 51.7696
5505 1 52.5307 -0.6057400649 51.8356
5685 1 59.5456653495 6.8474699243 55.7612
5811 1 63.3078 -0.4195300757 56.3692
3421 1 49.5423 -1.9805300757 57.9597
7409 1 51.2722 -1.1675300757 56.0124
1046 1 56.6411 -1.8865300757 55.1416
7696 1 58.4385 -0.7735300757 57.0874
362 1 59.8074053495 -3.1355300757 57.843
5414 1 63.1448 -0.5405300757 52.5781
7998 1 54.647 0.5464699243 55.1124
6860 1 55.0864 0.4372599351 52.2472
2522 1 58.9347 -0.2665300757 54.2416
1051 1 49.9773 4.3944699243 53.158
4281 1 50.9369 0.5104699243 58.3624
2781 1 60.9671 0.6604699243 57.9786
648 1 51.9911 1.3534699243 54.9063
6569 1 57.4378 1.8604699243 53.1013
95 1 60.3145 1.8224699243 55.566
801 1 56.5064 1.3614699243 57.3011
2052 1 62.4185153495 1.7814699243 53.8134
5757 1 63.2362 2.4204699243 58.5817
2143 1 52.4933 2.8364699243 52.7472
3584 1 64.1196 2.3014699243 55.9155
4407 1 59.4729 7.1024699243 51.276
5013 1 51.0669 2.9334699243 56.9721
6345 1 55.7298 3.2984699243 55.098
2092 1 62.06 3.8162599351 51.95
7548 1 53.7385 3.6164699243 57.2257
1433 1 64.3496953495 6.9682599351 50.8978
5688 1 64.2827 7.3234699243 55.324
5395 1 49.6758 -0.1725300757 53.85
2672 1 59.3589 3.8204699243 52.7848
3786 1 58.1217 3.6506799134 58.2863
4976 1 58.5673 4.1634699243 55.4998
7773 1 54.7589 4.3272599351 52.8112
5517 1 50.5811 5.4064699243 55.8988
2623 1 63.8091 5.3454699243 58.3412
7134 1 53.7125 6.8414699243 52.9379
3448 1 56.9935 7.2374699243 54.6596
6842 1 55.9415 -1.9897400649 51.3479
6397 1 51.0959 6.9314699243 52.0879
3512 1 61.1615 7.2504699243 53.4411
2030 1 62.0517 7.0624699243 56.9602
4577 1 58.9156 6.2794328555 58.4298691582
3320 1 53.8377 1.1404699243 58.5142
685 1 57.1048 5.6874699243 52.3003
1340 1 52.6575 7.2264699243 58.5713
2523 1 52.9139 7.1764699243 55.7512
4728 1 55.3702 5.8894699243 56.3007
791 1 63.5155153495 5.7424699243 53.1875
3534 1 56.8203 7.9932599351 50.4251
6746 1 56.2704 7.0454699243 58.6277
630 1 62.7916 -1.1993200866 59.1276
7373 1 51.1412 -2.5935300757 53.4662
6056 1 54.6063 -1.5095300757 58.8463
6577 1 55.3188 2.7112599351 50.5865
7159 1 58.2959 0.6402599351 50.4632
3693 1 63.7726 2.3932599351 50.3782
3098 1 49.4775 -3.6133200866 66.6662
4891 1 55.1402 -4.5643200866 64.8127
3793 1 62.6513 -3.8543200866 63.5127
6851 1 59.6817 -2.7393200866 65.0957
961 1 56.2946 -2.0613200866 64.0107
7395 1 60.4158 -2.4033200866 62.4519
1637 1 51.7833 -3.0495300757 64.9223
61 1 57.7489 -2.9683200866 61.795
5157 1 63.2439653495 -4.1625300757 66.2519
7242 1 55.9032 -4.6330571554 67.4518891582
3362 1 52.8637 -1.9895300757 61.0801
4162 1 53.007 -4.4505300757 62.7616
6930 1 65.0547193495 0.6054699243 59.7806
2162 1 61.3298 -3.4675300757 60.0393
4243 1 53.227 2.2684528338 67.4770291582
3934 1 49.6183 -2.0565300757 63.1057
2834 1 61.5157 -1.7739471662 66.9386791582
2891 1 50.6251 -0.4045300757 61.0031
4857 1 63.4800953495 -1.2313200866 63.7253
3203 1 62.7315953495 0.3404699243 61.536
195 1 58.1622 0.6344699243 61.1289
852 1 57.9503 -0.5253200866 65.7621
4271 1 60.3038 0.3844699243 62.8296
2188 1 53.7276 -1.2153200866 65.6868
6100 1 54.2526 -0.3716571554 62.9676291582
3491 1 51.1069 -0.1613200866 64.7114
7843 1 51.0233 -3.6755300757 59.5942
7956 1 58.6345 5.5126799134 62.4438
1091 1 50.1225 6.4714699243 59.6327
6571 1 60.5354 6.6506799134 60.7206
367 1 54.2763 5.1604699243 59.6449
7378 1 50.4226 5.5256799134 65.6465
6358 1 59.913 2.3344699243 59.8224
1066 1 61.106 4.6436799134 66.5155
3824 1 56.4969 4.7278899026 67.466
1298 1 57.1589 -1.4465300757 59.5587
977 1 53.0488 6.1724699243 62.1293
606 1 62.6814 0.5176799134 65.7707
1399 1 59.9761 1.2116799134 65.4626
4637 1 62.0204 4.2544699243 60.2769
2176 1 60.6085 3.2106799134 62.5673
2440 1 50.8102 0.3916799134 67.4932
1153 1 52.6414 1.9284699243 63.4249
2477 1 56.0879 1.9346799134 62.4329
4820 1 63.4045 2.8306799134 62.5591
5853 1 54.707 5.6806799134 64.412
4505 1 50.2257 2.1774699243 62.0159
5880 1 53.5737 2.6224699243 60.9146
7521 1 52.7853 3.9081428446 65.3370991582
1599 1 51.0453 3.8846799134 59.8339
6334 1 63.5072053495 3.2846799134 65.2397
6520 1 55.4107 0.9856799134 66.3165
4367 1 56.1899 3.2806799134 64.9502
3003 1 56.7797 4.1696799134 60.6333
190 1 64.274 5.3364699243 61.8507
7004 1 58.8958153495 3.7706799134 64.7885
3281 1 49.2563 -4.5995300757 61.4676
2905 1 58.737 -5.2696471662 64.9048591582
6685 1 63.7772 27.5466099892 2.75313
2567 1 56.7917 28.9479099892 3.41358
3045 1 49.6589 23.6705099892 -2.09703
6545 1 57.164 26.1822099892 2.65687
5575 1 60.4934 32.2905 -2.38925
2773 1 58.3165 23.5580370688 -1.5314691582
2789 1 55.1035 30.5650370688 -1.7502691582
2743 1 57.8149 31.3395 -2.83645
5438 1 50.9464 28.4938099892 -1.29042
411 1 49.9787 27.3356 2.11911
4724 1 49.7065 29.9796099892 3.07792
530 1 54.786 24.4874099892 2.82328
1136 1 53.6993 25.2780099892 -1.05471
3962 1 58.8802 28.8951 -1.55565
5068 1 64.719 27.6970099892 5.36436
3997 1 60.6144 30.2360099892 1.60701
7079 1 63.7635 31.7470370688 -1.0293691582
5609 1 55.9074 23.7204199784 5.1549
6878 1 54.3068 30.2222099892 4.37373
1241 1 61.4535153495 29.8530370688 -1.0906691582
2575 1 62.7808 27.3860370688 -1.5130691582
3672 1 63.0128 29.8602099892 5.63453
4015 1 54.7501 27.6590370688 -2.4473691582
4856 1 49.8872 26.1568099892 -0.469344
1560 1 55.3558 22.7565099892 -1.25797
2210 1 59.3247 22.3154199784 5.40867
5035 1 58.2878 26.2679 -0.864173
233 1 59.8328 25.9779099892 1.44819
6592 1 56.9315 29.5728 0.405079
6149 1 51.827 24.4071099892 0.673967
1127 1 52.4013 26.0097099892 2.84218
6925 1 61.1745 27.8262099892 3.1898
7533 1 53.9911 28.3689099892 2.17772
1010 1 52.9881 29.8032099892 -0.0119744
683 1 61.9391 25.1966099892 -0.148434
5027 1 55.6572 26.9994099892 0.344433
7293 1 61.8284 22.3574 -0.984425
6392 1 64.0857253495 25.0936099892 1.71675
4635 1 53.4505 32.3220370688 -3.0398691582
2341 1 63.3005 20.4275099892 4.62514
872 1 60.7691 25.6363099892 4.91193
6637 1 50.6141 24.7509099892 4.94202
7647 1 61.813 22.2692099892 1.87415
2065 1 60.2424 29.569247058 5.2778308418
1857 1 59.8261 23.5872099892 3.03773
7182 1 50.2905 20.7241099892 4.00036
4574 1 51.442 21.7557099892 0.680288
5473 1 59.2557 21.1607099892 -0.263772
115 1 63.8012 23.0726099892 3.70114
3235 1 55.3676 22.3731099892 1.40511
4292 1 57.9321 21.5561099892 2.15511
3799 1 56.7635 21.1864199784 4.6638
5838 1 53.4419 27.5073099892 5.10174
5247 1 53.463 20.3451099892 1.73281
2787 1 65.0345 29.6961099892 1.68324
5918 1 49.1049 30.2099 -2.00416
4649 1 63.5447 25.0939099892 5.4871
4982 1 57.7751 25.7683099892 5.35064
7211 1 65.2073543495 28.2478 -0.592927
1513 1 51.0704 28.4944199784 11.1277
461 1 52.4469 28.4074199784 13.6717
482 1 55.5171 27.1724199784 6.90804
1480 1 61.2347953495 20.4954199784 6.28738
699 1 52.3183 26.8704099892 9.0897
2319 1 57.1954 25.5514199784 14.0383
3797 1 57.7079 28.0624199784 8.88154
6489 1 54.5339 25.1334199784 8.65624
2827 1 60.4038 27.4924199784 8.96855
3332 1 54.7109 28.4634199784 9.2701
3200 1 51.2936 22.305247058 6.1323308418
2870 1 63.041 18.9144199784 9.11518
1764 1 49.505 27.8614199784 13.4937
1760 1 51.1131 27.0402099892 6.61873
2073 1 61.0318 19.1466299675 14.3416
2632 1 51.1835 23.5604199784 11.8283
4535 1 49.2722 23.2105099892 7.93413
2253 1 61.4175 21.1514199784 8.91698
296 1 63.9978 25.0884199784 9.23786
4773 1 64.6695163495 25.2154199784 13.4872
3544 1 49.467 17.5406299675 13.9646
4908 1 55.2991 22.0224199784 14.5432
4311 1 50.2049 25.1394199784 9.62052
2346 1 52.4588 29.5961099892 6.71281
2160 1 55.8769 18.8114199784 11.5555
7078 1 61.6214 23.8424199784 10.2518
1524 1 61.0711 27.6994199784 11.8088
7135 1 59.0552 20.4694199784 13.2013
3850 1 61.2881753495 29.8654199784 7.87344
4447 1 57.8553 23.2892099892 11.1533
1739 1 52.0507 21.0644199784 10.8257
1152 1 58.7229 21.6324199784 9.16419
4201 1 60.0879 24.8734199784 12.2341
1239 1 51.4791 20.1834099892 8.27613
3712 1 54.8619 20.7134199784 7.61499
1217 1 59.8936 19.5234199784 10.8537
4556 1 51.6606 19.3146299675 12.884
7838 1 63.3742653495 22.3394199784 11.745
5378 1 55.2731 23.0204199784 12.0223
6002 1 61.4676 25.3224199784 7.61099
1736 1 58.13 26.9534199784 11.5398
4441 1 57.2337 25.2154199784 9.4143
5957 1 56.4771 19.6134199784 14.0763
6498 1 54.5596 27.8854199784 11.9858
7035 1 53.4794 25.2044199784 11.3711
1916 1 53.8934 23.2025099892 6.87667
3893 1 54.7764 20.9464199784 10.3239
3136 1 57.4137 20.0324199784 7.19155
2169 1 58.9353053495 24.0669099892 7.56436
7024 1 58.6288 23.1384199784 13.9394
6612 1 63.6724453495 26.5964199784 11.473
5072 1 62.7658 19.6604199784 11.8325
6083 1 54.5298 25.7974199784 14.1127
7657 1 65.1768 27.6114199784 8.19526
6205 1 57.9566 28.574247058 6.1083308418
6256 1 51.8135 24.5924199784 14.4099
157 1 65.2112 18.0996299675 12.1933
7841 1 63.4062653495 23.0294199784 14.4832
655 1 48.9281 19.8614199784 12.4599
7698 1 49.5213 17.4846299675 20.5654
6263 1 64.1169 19.7466299675 21.9074
5384 1 53.6316 22.4654199784 19.362
81 1 54.9045 24.2004199784 16.5344
5166 1 60.5183 17.3506299675 16.402
3765 1 49.5569 24.1416299675 17.8154
5175 1 55.1181 25.1886299675 22.0964
783 1 55.8542 27.3746299675 18.0379
1474 1 59.9972 24.2944199784 17.6176
3020 1 50.4902 23.5846299675 22.2694
2713 1 63.5982 25.7616299675 22.5299
3977 1 64.3896053495 22.9926299675 19.0869
2792 1 54.7466 25.0676299675 19.3343
3481 1 50.2408 26.3914199784 15.7414
1776 1 60.3119 27.0866299675 17.3418
4572 1 62.7564 23.1116299675 21.5537
916 1 64.6957143495 18.9436299675 16.9228
5502 1 52.4281 26.5446299675 19.665
7405 1 60.7598 24.6156299675 20.3841
5442 1 60.0306 18.0496299675 19.0965
5044 1 57.9263 20.6496299675 17.8496
3116 1 57.8278653495 27.2044199784 16.0348
5765 1 58.7547 22.7096299675 20.9648
7043 1 55.7644 20.5746299675 19.4425
5759 1 60.1802 20.8276299675 19.4069
4415 1 54.6053 22.7096299675 23.274
2607 1 61.9192 22.1926299675 17.8682
4044 1 57.4361 23.0104199784 16.5061
303 1 57.8979 18.3216299675 16.2711
3021 1 52.5907 20.2646299675 17.9258
587 1 50.0408 25.2998399567 20.2446
6943 1 57.464 24.4306299675 19.1086
7225 1 56.8155 21.2346299675 22.1956
44 1 51.7023 16.0676299675 21.4794
1641 1 57.0202 18.6926299675 21.1695
4657 1 52.488 21.9456299675 21.7217
5075 1 54.0235 27.9504199784 15.9319
1921 1 52.2537 23.0534199784 16.8186
6960 1 61.7615 16.0396299675 20.195
3676 1 64.1544153495 27.4154199784 15.0815
2245 1 57.8038 24.7116299675 22.8098
6009 1 63.7549 17.0496299675 21.7532
4122 1 49.9672 19.7886299675 18.8877
4355 1 55.4115 17.0668399567 22.6995
5847 1 62.7270253495 20.6806299675 15.7862
410 1 54.5345 18.3466299675 18.5295
1243 1 51.8225 27.8094199784 17.4502
4006 1 61.4588 20.5136299675 21.8192
925 1 59.4773 18.6416299675 22.1184
7912 1 54.4108 18.1006299675 15.6711
6108 1 57.0817 17.2696299675 18.7506
7646 1 57.7655 27.0486299675 20.1196
7208 1 51.126 19.6576299675 21.5629
2061 1 59.6441 26.7136299675 22.2216
2172 1 49.0747 18.1406299675 16.7355
6794 1 52.8427 20.4824199784 15.0639
3500 1 52.8428 18.2866299675 23.0412
5837 1 65.1117 20.1806299675 19.2608
6767 1 53.0427 26.1416299675 23.5714
7018 1 62.0706 27.2606299675 20.4788
7580 1 63.1047 27.8016299675 17.6964
7571 1 61.0571353495 24.3274199784 14.9183
217 1 61.2728 27.1214199784 14.7264
1650 1 51.0598 24.7126299675 24.8258
691 1 62.668 22.5036299675 24.4927
4316 1 53.4701 23.8276299675 27.8781
4125 1 59.6097 16.4346299675 23.7491
117 1 57.335 14.5578399567 28.6
3629 1 60.345 24.8788399567 26.8124
1416 1 56.2411 15.1778399567 26.1433
1987 1 55.8327 25.0646299675 28.6813
3876 1 53.2345 14.5718399567 29.017
7953 1 51.2905 22.0208399567 25.3975
6620 1 62.7333 25.1448399567 25.2373
4371 1 49.7561 24.2858399567 29.047
725 1 58.3806953495 23.6366299675 25.3317
6563 1 49.538 20.2858399567 32.1991
5987 1 50.0976 21.8398399567 27.8029
6260 1 58.342 19.9646299675 24.4332
4901 1 53.1371 22.3498399567 30.0605
627 1 51.0903 15.0318399567 31.7507
5297 1 58.1304 16.9218399567 32.4719
868 1 61.258 16.9128399567 26.0955
5675 1 53.8117 16.4508399567 26.899
5993 1 60.1263 19.4456299675 26.5973
726 1 54.2113 22.0856299675 25.822
2709 1 61.0839 23.0188399567 28.7542
6276 1 63.3677 16.4776299675 24.4653
7440 1 65.0113 15.5068399567 29.4726
240 1 57.1575 17.4096299675 24.7825
3641 1 55.5499 18.8066299675 26.5761
6305 1 63.8709 20.0328399567 28.7464
2318 1 57.0923 22.6578399567 29.0735
3206 1 61.1159 17.2628399567 29.8673
543 1 56.8892 21.5118399567 26.3865
5262 1 63.312 23.6258399567 30.0946
580 1 53.0403 19.5688399567 25.4392
2643 1 56.5934 19.1578399567 29.1345
49 1 59.1333 23.8288399567 30.5898
7374 1 59.2061 20.6078399567 28.9489
4255 1 63.2865 20.2498399567 31.4342
2097 1 49.4784 18.3508399567 25.8463
1362 1 55.4784 21.2048399567 30.7537
6833 1 61.9857 21.2488399567 26.8938
7603 1 51.4346 20.2278399567 29.8792
7644 1 55.3658 15.1310499459 30.4121
2433 1 61.4431 15.0358399567 31.447
2799 1 50.6667 16.5156299675 24.2004
5198 1 58.2934 17.0078399567 29.6471
1002 1 50.6015 15.9588399567 29.0689
5808 1 54.9764 17.6578399567 30.9126
7858 1 49.5313 20.5226299675 23.7098
7011 1 51.6779 18.3198399567 27.7113
1782 1 60.6726 19.6538399567 31.0066
5630 1 63.2418 17.2948399567 28.2049
6720 1 52.2322 17.7178399567 30.9929
1522 1 65.2224243495 21.1546299675 24.1822
7538 1 57.3801 22.5758399567 32.4718
63 1 56.5228 25.8056299675 26.0764
4459 1 49.0482 26.4096299675 24.2725
6988 1 51.9625 14.7286299675 25.7108
994 1 60.0105 22.2108399567 23.595
542 1 52.4051 13.7070499459 35.3773
5916 1 62.8807 22.7338399567 32.69
1732 1 64.9151 13.3770499459 39.6858
1928 1 59.3197 14.4208399567 33.0745
5380 1 54.5143 14.6700499459 40.5595
6779 1 60.8624 13.5030499459 37.5999
5538 1 52.3811 12.7980499459 38.0764
3847 1 60.6603753495 16.1768399567 38.826
5669 1 59.8446 18.8598399567 33.4829
6281 1 49.7038 13.6098399567 35.6865
338 1 64.5334753495 15.3278399567 37.4551
6583 1 49.58 23.1238399567 35.8659
6038 1 62.1458 22.1480499459 40.7716
6162 1 56.4951 14.1170499459 38.5297
1347 1 58.2707 15.7858399567 36.8751
6366 1 60.6526 15.0188399567 35.3184
1397 1 57.6815 17.2280499459 40.9504
1962 1 58.0191 14.5592599351 40.9245
2259 1 58.1119853495 21.1330499459 40.1376
2131 1 54.8355 16.1330499459 37.2045
297 1 59.5379 18.8020499459 39.7635
1315 1 63.1577 13.3288399567 35.6928
6401 1 51.7124 18.8318399567 33.5027
5046 1 55.6987 13.5660499459 32.5831
4698 1 57.1988 13.8478399567 34.9666
1968 1 54.0497 22.2798399567 34.7372
7601 1 62.868 16.2768399567 33.7281
3701 1 57.5822 20.3638399567 33.8779
1188 1 53.0423 23.6568399567 32.5178
1978 1 50.3356 23.0438399567 33.2247
5665 1 55.149 17.4930499459 39.8522
3192 1 57.967 22.6618399567 37.8826
2664 1 54.3195 21.6780499459 39.653
4266 1 60.1057 23.3608399567 33.1527
3014 1 52.1234 19.6118399567 36.3881
3966 1 52.2975 16.1338399567 34.139
7839 1 54.6508 19.5890499459 37.9185
3189 1 56.3227 21.1438399567 36.2204
1456 1 51.4934 21.6520499459 39.2213
1785 1 55.7946 18.2498399567 33.5761
5877 1 61.3154453495 21.0920499459 34.5235
1374 1 56.7187 18.1280499459 36.4012
6639 1 55.0573 15.7358399567 34.2915
7051 1 53.9976 20.2638399567 32.8563
7612 1 51.4925 18.8620499459 40.0446
4144 1 52.1344 22.4548399567 36.608
4671 1 61.2215 17.7658399567 35.6917
4481 1 60.3493 21.5818399567 36.9788
5086 1 52.1715 17.1380499459 37.96
2782 1 62.2788 12.3960499459 39.7948
4990 1 62.7984 21.4760499459 38.2052
2123 1 50.3244 16.4750499459 36.0786
6991 1 64.5546 18.2198399567 32.6519
7352 1 62.9933 17.5770499459 38.055
3746 1 63.5085 19.6408399567 36.0405
1731 1 64.4984253495 19.4290499459 39.6837
6764 1 59.2326 19.1058399567 37.0534
4374 1 49.2817 19.0990499459 36.673
684 1 51.8699 14.9400499459 39.6064
3848 1 60.7023 14.2912599351 41.1241
5462 1 54.5621 11.6940499459 41.0197
6146 1 49.604 13.7502599351 40.9116
3393 1 58.4248 12.3390499459 37.2393
4038 1 48.9004 21.3808399567 38.1308
3573 1 59.336 14.1942599351 45.4644
6568 1 64.7746173495 16.4092599351 45.3127
7077 1 52.9248 16.7910499459 43.4606
5136 1 54.0929 10.3742599351 49.5363
5753 1 53.5059 20.0582599351 45.4529
7529 1 62.2566853495 15.1912599351 49.9265
4521 1 64.1623053495 18.9500499459 44.1006
5794 1 49.7039 19.8900499459 43.1395
3810 1 56.0120553495 19.6480499459 44.2112
4923 1 60.4992 19.8282599351 44.0942
3622 1 58.0146 20.6862599351 45.6696
6351 1 52.1527 20.8642599351 43.0981
188 1 60.07 12.5352599351 43.3116
3004 1 64.0161 21.5160499459 42.8776
5139 1 62.4691 20.0120499459 46.1205
2970 1 64.0046 13.8462599351 48.2639
4166 1 59.2637 20.4832599351 49.0036
4772 1 50.6848 16.5580499459 41.7569
5428 1 62.5321 11.5642599351 43.896
6738 1 49.3806 16.8842599351 48.8039
4484 1 62.4049 19.4742599351 50.1875
1949 1 64.2238 18.1042599351 48.4045
2761 1 63.6426 14.4032599351 43.8001
382 1 51.5118 15.1822599351 47.8516
361 1 61.6178 16.0230499459 42.9671
6302 1 63.645 11.0362599351 48.098
4043 1 55.8114 20.9138399567 41.8242
1593 1 51.2265 21.2002599351 46.5077
387 1 58.8461 18.5242599351 47.1641
497 1 56.8636 15.4862599351 45.6505
3899 1 56.62 16.9472599351 48.0896
1389 1 56.5548 12.5012599351 45.3809
2228 1 54.3608 15.1662599351 47.1299
3941 1 50.9223 11.4062599351 43.5916
6318 1 62.09 14.3092599351 46.0774
5375 1 49.9914 14.7262599351 45.6059
1377 1 49.745 11.8842599351 46.0615
4548 1 60.7075 17.3012599351 48.9873
3387 1 62.2019 17.2722599351 46.5905
3669 1 58.628 15.4272599351 49.39
6270 1 59.5057 13.0582599351 48.1363
4314 1 57.1385 11.6962599351 48.1287
72 1 55.2519 15.1930499459 43.3851
2954 1 53.7199 13.3702599351 45.0137
5563 1 57.374 17.3822599351 43.6907
2744 1 63.4958 17.6880499459 41.7147
882 1 54.44 18.8752599351 47.825
5525 1 59.9468 17.0132599351 44.8542
4290 1 51.4533 14.1542599351 43.2551
1575 1 53.6854 17.7652599351 50.2347
5515 1 52.1906 12.3872599351 47.4223
6460 1 56.6225 12.8902599351 42.5701
3300 1 61.5407 11.5862599351 46.5882
7926 1 54.6392 13.0932599351 48.9622
3233 1 50.0721 18.6302599351 46.6598
5015 1 52.5581 17.4092599351 46.2587
7309 1 51.2814 10.8052599351 49.838
4755 1 48.9208 10.3462599351 48.4702
4815 1 53.6339 18.8972599351 41.7243
5187 1 49.346 17.2722599351 44.2591
2421 1 53.8474 10.7372599351 43.6463
866 1 61.4130353495 19.5480499459 41.5619
5147 1 65.2234993495 21.2950499459 46.4635
2468 1 56.2664 9.8760428446 55.5770691582
4561 1 48.9681 18.4004699243 55.016
3321 1 52.8386 15.1272599351 50.3937
2658 1 63.6213 10.2224699243 57.5117
7943 1 53.3064 9.8794699243 55.9752
1817 1 55.2529 9.5520328555 58.1462691582
7563 1 59.2681 10.1136799134 59.0649
643 1 52.7102 10.4482599351 53.4198
3873 1 51.9807 11.8974699243 57.6415
151 1 49.6201 16.4204699243 53.0075
1781 1 61.7481 9.9334699243 53.2658
2152 1 49.7547 13.4594699243 53.7615
1205 1 49.2202 10.7184699243 54.5425
3060 1 62.7431 12.7304328555 57.5470691582
4341 1 57.8487 14.7942599351 52.0718
313 1 64.1928 10.0594699243 54.6404
2048 1 58.8781 9.5474699243 56.3739
7881 1 54.9895 13.6654699243 51.8011
1035 1 51.4231 18.7154699243 56.3288
3501 1 56.8907 13.5624699243 58.8102
4277 1 49.3762 18.4972599351 51.0183
5131 1 56.3866 17.9862599351 50.7478
6724 1 61.3576 15.0774699243 52.6074
5059 1 51.9222 19.0174699243 51.9651
7341 1 52.4458 16.2012599351 53.1893
2133 1 61.9125 16.1824699243 55.9936
1567 1 64.8309073495 15.9144699243 56.3348
2154 1 50.9287 13.2122599351 51.1735
2634 1 63.6141353495 16.3492599351 53.6103
1590 1 50.5477 15.2894699243 57.5497
6504 1 57.0335 18.2382599351 54.5127
6487 1 60.0227 11.5654699243 54.7619
730 1 62.9700253495 15.5154699243 58.6873
3006 1 59.1294 15.9114699243 56.0526
6531 1 61.0452 18.8024699243 54.7882
1507 1 56.3346 15.5214699243 55.5633
1646 1 64.4441953495 16.6922599351 51.0279
6922 1 50.4514 9.5962599351 52.2667
106 1 64.9990283495 9.4172599351 51.9179
7738 1 56.1771 11.5924699243 53.3926
1944 1 62.0344553495 13.4744699243 54.9457
360 1 54.8145 17.0444699243 57.3948
59 1 53.5058 13.4734699243 55.9563
2802 1 63.7456753495 19.2124699243 53.9397
5573 1 56.3055 12.7304699243 56.03
7689 1 60.7877 12.8472599351 50.7526
2027 1 52.6765 13.2702599351 53.4903
6961 1 52.599 16.1982599351 55.9991
5487 1 59.532 17.5844699243 58.1704
5225 1 59.4628 16.8674699243 53.314
3992 1 55.4848 16.3012599351 52.7874
1683 1 49.4483 12.8594699243 56.5916
2422 1 59.1146 18.5064699243 51.0666
2443 1 64.4206 18.8704699243 56.6683
2647 1 54.8472 9.4482599351 52.0752
2731 1 58.9883 13.1074699243 56.8658
5371 1 64.2664053495 12.7814699243 53.4453
1122 1 58.6881 12.0582599351 52.4475
4132 1 62.7442 10.7272599351 50.7251
7294 1 65.0836 19.5252599351 51.4765
4662 1 65.0672 12.6902599351 50.7246
2688 1 61.8413 8.9456799134 59.17
6406 1 49.3948 11.3754699243 59.1631
5326 1 58.1819 10.3662599351 50.411
3461 1 55.1651 11.6650428446 64.9599691582
3825 1 55.9114 13.7496799134 66.7824
7075 1 65.2857793495 13.4156799134 66.8971
5849 1 51.4035 12.7056799134 63.0888
635 1 62.3822 13.8737428446 61.0418691582
2323 1 52.2064 8.7843528338 67.9725391582
2352 1 57.1534 9.7384428446 65.3453191582
7922 1 56.0156 12.5984699243 62.3158
4991 1 52.0895 11.5786799134 67.8677
5829 1 50.8976 9.7916799134 63.5146
3920 1 61.5427 9.4926799134 66.6992
7280 1 60.2933 8.4236799134 64.2582
2489 1 56.6305 7.6521428446 67.4324191582
122 1 54.8493 15.4544699243 59.4712
5155 1 63.3325 9.3466799134 61.5492
4543 1 62.9937 11.8146799134 67.0157
6820 1 56.7612 11.0803428446 60.1137691582
1182 1 58.7737 12.8076799134 62.8666
7289 1 53.6041 9.6656799134 63.9801
6050 1 56.9728 10.5096799134 68.0456
4225 1 58.6187353495 12.5636799134 66.933
2694 1 59.7085 11.0696799134 64.9472
6232 1 63.9492753495 7.9826799134 67.205
6217 1 54.0543 8.5194699243 61.5781
2839 1 59.3026 9.0166799134 61.6807
5546 1 54.0863 7.7306799134 66.1003
3861 1 53.344 12.2704699243 61.2033
4678 1 65.047 12.9144699243 60.8881
1755 1 62.4073753495 7.1234699243 62.8398
6436 1 56.8983 7.4026799134 63.8381
4806 1 50.2429 10.1486799134 66.0586
3198 1 50.2041 9.1414328555 60.5947691582
238 1 60.9346 16.6356799134 60.3522
1121 1 63.2975553495 6.0226799134 65.223
3328 1 64.7345053495 10.1476799134 65.5657
3688 1 61.1246 11.3804699243 61.8246
5663 1 58.9083 6.5916799134 65.7707
3067 1 52.3785 14.1864699243 59.4429
3380 1 51.6527 13.3905428446 65.6940491582
812 1 52.752 9.9624699243 59.6149
5083 1 62.0681753495 12.3676799134 64.3171
879 1 59.3119 14.6256799134 64.9495
7965 1 64.4534153495 11.4474699243 63.092
6390 1 56.7103 8.3694699243 61.1374
7498 1 53.5832 15.2476799134 65.6938
7088 1 63.3094853495 15.5626428446 66.2063591582
7008 1 58.8397 14.4916799134 60.6259
146 1 57.1256 16.1653428446 65.5986291582
5133 1 50.7454 15.1494699243 61.6317
5368 1 56.8701 16.2454699243 61.3921
1936 1 51.6861 16.5684699243 64.1104
821 1 53.521 16.5234699243 61.924
3217 1 55.3563 15.0994699243 63.4224
534 1 64.3483 16.3564699243 62.8723
6912 1 61.9765353495 15.2104699243 63.7278
2702 1 64.471 17.4364699243 60.2206
6680 1 50.6044 6.8086799134 63.1299
7693 1 60.0982 17.5064699243 63.9774
502 1 61.1802 14.0176799134 67.2928
1588 1 48.9802 12.7984699243 61.5658
1073 1 49.2456 14.3278428446 66.6652591582
1454 1 50.1301 17.0894699243 59.6017
2780 1 48.9052 16.6596799134 63.3465
93 1 49.0341 7.8086528338 66.5732491582
2089 1 60.528 7.1886799134 67.9877
1815 1 51.7057 5.9319428446 68.1309491582
1886 1 50.1192 16.9235428446 66.6598991582
3530 1 65.1867833495 5.4986799134 68.1198
180 1 60.4512 12.5831328555 59.2624691582
231 1 59.7842 37.0005099892 3.77841
7730 1 62.8762 42.1147099892 4.6172
5660 1 54.4708 33.3941099892 1.15839
2904 1 57.1729 35.5528 -2.27162
7715 1 52.0375 31.4982099892 3.03048
2157 1 63.7954 32.3424099892 4.41614
3833 1 64.2169153495 42.3837 -2.05365
3351 1 49.5565 41.6778 -2.07762
1044 1 63.1132 38.1059 -1.46037
2365 1 60.4587 34.4334099892 -0.583864
1645 1 57.1144 40.5140099892 5.05
2109 1 54.4081 34.977 -2.52031
1714 1 51.6378 33.2954099892 4.94116
2719 1 52.9697 40.9444 2.71031
5716 1 52.0595 32.3878099892 0.497286
5523 1 49.2935 40.9084 0.790149
7751 1 55.8367 40.2543099892 2.57129
2676 1 49.1159 38.025 1.33958
7886 1 51.3788 36.4584099892 2.51217
2138 1 52.442 38.4061099892 4.2126
3359 1 53.3533 41.3483 -1.60828
3058 1 50.6597 37.7090370688 -0.9090691582
3024 1 61.1235 38.1419099892 1.64297
6465 1 60.9815 40.9641 1.13314
1537 1 53.8847 35.9149099892 1.75043
3885 1 60.6815353495 37.1089 -1.005
6815 1 57.9639 37.151 -0.0280526
3016 1 63.7299 37.641 2.40418
2758 1 56.9138 39.7193 0.069493
3863 1 53.3693 37.0832099892 -0.754578
2733 1 63.2897 40.4798 -0.229195
3473 1 52.247 41.8102099892 5.29535
5959 1 64.5158553495 34.5145099892 -0.900718
5257 1 58.9634 41.2233 -0.640481
631 1 50.0931 34.4689099892 1.09017
7085 1 64.0755 39.7107099892 4.13034
119 1 54.9581 39.0590370688 -1.8418691582
6959 1 51.7998 40.086 0.284182
2460 1 55.1608 37.6254 3.57751
1859 1 49.6189 35.0473 -1.55464
5045 1 57.4573 36.1260370688 2.6206308418
236 1 64.0218053495 35.1017099892 3.54482
1808 1 50.8565 32.4463 -1.98723
4818 1 50.106 35.4809099892 4.77615
5827 1 56.1968 33.2394 -1.10348
5210 1 58.2088 33.7700370688 0.9826308418
5763 1 62.7395 34.2754099892 1.28858
2611 1 61.8643 35.9937099892 5.4317
5399 1 59.7047 32.3626099892 4.74207
7722 1 56.4174 34.5943099892 4.94053
254 1 60.2386553495 34.3439099892 2.79964
41 1 55.7327 32.4231099892 3.22467
6278 1 58.7017 38.5321099892 5.72268
6216 1 60.4673 40.9689099892 5.43205
5764 1 50.317 39.893 5.60745
6404 1 65.1994 37.0880370688 0.0659308418
4966 1 59.9156753495 40.991 -3.14672
465 1 58.2071 31.2674099892 2.42806
3479 1 63.0349053495 31.5031 1.74083
208 1 54.6097 38.6014099892 7.94531
7479 1 61.9513 39.9537099892 7.90756
5510 1 64.2184 32.3053099892 7.83901
1141 1 62.476 30.0565099892 11.606
4696 1 50.2896 38.9537099892 8.33812
6154 1 63.7471853495 30.0244199784 14.1474
6191 1 61.1767 39.6714199784 10.724
6000 1 58.8709 32.8674199784 13.1949
6290 1 55.5911 41.1003099892 7.26013
7509 1 52.6372 40.1966099892 9.56028
1749 1 58.8693 36.5314199784 11.9356
3892 1 53.1528 39.3674199784 12.3028
7910 1 54.6131 32.3824199784 14.3028
2216 1 49.1553 32.1764199784 13.2371
5709 1 56.3204 37.1627099892 6.14367
6275 1 58.5642 38.4854199784 10.0948
1558 1 53.8813 34.4548099892 6.06493
5479 1 61.6319 35.4664199784 8.20885
1812 1 57.0229 29.1464199784 12.8651
2887 1 64.3886553495 36.6354199784 13.3746
2929 1 59.5341 30.3804199784 12.1942
7247 1 61.918 33.3084199784 6.33098
6743 1 51.9423 32.7324199784 12.9437
5778 1 56.2316 30.9099099892 6.49476
2298 1 56.0302 37.5555099892 9.91118
4370 1 56.2923 34.2624199784 13.0819
1963 1 54.3299 33.9713099892 8.71223
7940 1 52.8569 36.9020099892 6.5246
3951 1 58.3119 30.6224199784 9.65045
6641 1 56.7728 35.2382099892 8.42605
614 1 50.5755 31.5840099892 6.70471
3614 1 54.655 37.1604199784 12.2931
3932 1 60.0537 32.2854199784 8.23744
2527 1 52.1988 30.8964199784 10.7347
1889 1 60.9399 34.0014199784 10.4178
1807 1 51.7229 34.9394199784 9.60694
4554 1 50.2021 35.8964199784 11.7682
4206 1 58.0443 34.2374199784 10.8068
5235 1 61.5813 36.2774199784 12.3066
7357 1 50.2427 36.3409099892 7.49473
4263 1 57.4241 39.8074199784 14.0281
4646 1 54.1317 31.1089099892 8.37188
3990 1 62.7733653495 32.7804199784 11.9357
3725 1 61.3372 33.9374199784 14.0759
7007 1 60.0444 37.8034199784 7.93833
3437 1 63.5669 38.2024199784 11.0299
565 1 50.4909 32.4894199784 9.26524
6659 1 56.174 32.1924199784 10.1392
479 1 53.7608 34.4244199784 11.5917
1337 1 54.7947 30.7544099892 12.0721
7875 1 57.9257 33.149247058 6.7350308418
7978 1 50.5337 38.5889099892 12.6462
1652 1 63.9957 35.9654199784 9.37867
1101 1 57.046 37.0724199784 13.9494
2769 1 64.0082 29.8277099892 9.04255
6181 1 51.5767 35.1844199784 14.2585
717 1 63.3963 38.0441099892 6.38037
772 1 64.9996 33.5757099892 10.2781
4898 1 65.0482823495 33.8744199784 13.3831
5989 1 64.4005 41.3425099892 8.41054
7746 1 60.2149 40.1184199784 13.335
6446 1 61.1337 37.7204199784 14.6568
4310 1 50.0404 28.4646299675 22.8613
2770 1 55.0328 29.8096299675 19.2165
3383 1 54.4124 37.8854199784 19.3917
608 1 62.0966953495 36.4066299675 22.3808
582 1 58.3236 35.3256299675 20.2578
2754 1 60.1976 37.3116299675 20.5679
7115 1 50.8111 37.9516299675 20.2522
3402 1 61.7886753495 37.8836299675 18.608
508 1 49.9826 35.7566299675 18.4124
1419 1 57.0182 31.8494199784 18.6646
4086 1 65.0181 31.9774199784 17.8518
3729 1 55.8937 32.3526299675 21.9187
7959 1 57.2678 29.7764199784 15.6222
4763 1 54.5102 36.0424199784 21.4927
22 1 57.9429 32.6964199784 15.963
6567 1 53.781 33.0864199784 17.7437
4357 1 51.2057 33.2766299675 21.1195
3578 1 64.1410453495 32.7656299675 21.6779
637 1 60.8613 34.1206299675 23.4172
7708 1 51.9544 35.9056299675 21.698
6236 1 56.7529 36.5526299675 18.0436
5871 1 62.1594 31.5524199784 15.7004
5335 1 64.7954243495 37.3306299675 22.0408
7564 1 64.4008 36.7616299675 19.3081
455 1 49.7775 31.4374199784 16.6423
4810 1 49.9093 37.3004199784 15.0273
268 1 58.3563 35.4316299675 23.0063
1149 1 55.6343 34.4134199784 16.2992
4808 1 60.1029 34.4224199784 16.487
6178 1 51.3571 33.8694199784 16.6999
1997 1 58.877 36.9554199784 16.1051
1039 1 62.7785653495 34.6546299675 20.1674
3981 1 54.6714 30.5644199784 16.4797
6711 1 50.9358 38.3366299675 17.3451
107 1 62.3884 36.1404199784 16.5726
2388 1 57.09 38.8224199784 19.5782
7895 1 53.5757 30.8576299675 22.3597
3190 1 53.5642 38.1684199784 16.8148
5834 1 60.2027 33.6356299675 19.2199
6777 1 59.835 31.0746299675 17.6796
3181 1 52.7632 31.3296299675 19.7755
4630 1 55.6446 34.1516299675 19.7336
7541 1 60.2579 32.1076299675 21.5484
4000 1 63.8285553495 33.8304199784 16.006
4488 1 50.7265 29.9394199784 18.7004
6285 1 63.5347853495 28.7036299675 22.3744
5686 1 59.8593 28.8196299675 19.5437
1328 1 62.5366 30.8636299675 20.9057
941 1 60.0192 29.6966299675 14.9498
785 1 62.7345753495 30.5546299675 18.1223
1477 1 54.2526 36.3464199784 15.0451
7864 1 52.6394 28.3216299675 21.7056
3567 1 55.5928 28.0686299675 21.6044
3185 1 58.1371 30.6666299675 21.0306
7967 1 52.0351 30.7846299675 14.9048
2599 1 64.6456 37.7444199784 15.8915
928 1 58.8208 39.3344199784 17.3899
2963 1 57.977 28.8186299675 23.1701
7775 1 54.8656 36.2796299675 24.3988
310 1 49.0993 35.6368399567 28.5584
2427 1 58.7798 30.3248399567 32.1018
1520 1 57.6693 34.5866299675 26.512
221 1 52.0901 36.6436299675 24.3243
3330 1 56.3489 34.0126299675 24.0824
659 1 55.5004 35.2808399567 28.3833
5633 1 62.2269 36.2746299675 28.7258
7535 1 49.142 33.4296299675 26.775
2500 1 59.0147 36.9836299675 27.1654
2199 1 63.3941 34.8416299675 24.4335
445 1 50.2585 34.4696299675 24.4295
1276 1 52.9745 34.5458399567 27.9801
7355 1 62.1014 34.3306299675 26.8054
2594 1 57.6243 33.7996299675 29.3514
744 1 49.5107 29.2018399567 28.9927
2363 1 61.8271353495 28.6248399567 27.2397
2029 1 59.8194 32.9678399567 25.9418
6099 1 54.0369 26.8488399567 29.9806
5476 1 58.1736 27.9496299675 25.9017
1874 1 60.1499 26.9088399567 28.7931
4888 1 56.6615 31.5228399567 28.0389
5983 1 58.5219 29.3858399567 28.157
4825 1 50.6077 28.1848399567 31.2485
5217 1 52.8417 32.5676299675 26.1243
1036 1 51.5552 33.7748399567 30.2193
7239 1 63.7568453495 30.2998399567 30.2338
4953 1 63.5722 32.0376299675 28.0758
5142 1 60.8232 31.2308399567 27.9767
5188 1 55.3375 29.4728399567 24.0917
4321 1 62.4278 32.4528399567 31.977
363 1 64.5613 30.5716299675 25.7388
7690 1 62.9022653495 35.1506299675 31.3488
6529 1 53.0477 28.4498399567 27.6931
6552 1 54.4984 27.3666299675 25.4917
3984 1 48.9824 27.2216299675 26.9971
4879 1 57.7861 26.2348399567 30.2243
6174 1 60.67 27.1418399567 25.0069
7150 1 51.6163 25.5478399567 30.7646
2403 1 54.4544 30.3928399567 29.4956
6635 1 51.1003 30.5546299675 27.0848
6979 1 53.5759 32.3898399567 31.3847
6843 1 62.2493 29.6046299675 24.5304
514 1 65.1436 32.7336299675 24.269
6656 1 49.6979 32.0788399567 29.2279
1627 1 51.4869 32.2686299675 23.6328
1649 1 49.5914 30.4386299675 24.6404
175 1 59.8072 30.8226299675 24.1479
3114 1 64.021 26.1518399567 30.717
3492 1 55.9967 33.5168399567 31.726
1892 1 61.432 27.0418399567 31.2671
6139 1 59.9639 32.4408399567 30.5114
1644 1 56.916 28.9758399567 30.5421
2250 1 55.4993 31.8496299675 25.6
1042 1 64.041 27.8488399567 28.6481
944 1 59.4985 36.0596299675 29.6942
5801 1 61.5489 29.7588399567 32.019
1197 1 51.5723 36.7406299675 27.1748
1452 1 60.0754353495 35.0106299675 32.1125
4943 1 52.8844 29.7058399567 32.0316
2300 1 58.6079 37.7756299675 24.5032
403 1 65.1207773495 26.1796299675 26.3261
5222 1 51.6571 25.8708399567 27.2447
4410 1 55.1255 28.0158399567 32.4351
6117 1 50.8643 36.2568399567 31.082
7755 1 53.9339 26.0298399567 33.9365
1938 1 62.0071 34.7238399567 35.8745
3163 1 55.6629 23.9768399567 38.9472
55 1 57.2 25.1640499459 36.8014
4145 1 50.0725 25.8568399567 33.1432
5293 1 50.0348 25.6798399567 37.0977
2317 1 59.4185 24.5900499459 39.4126
3740 1 53.5972 24.6700499459 37.3645
5346 1 58.7278 26.9910499459 40.9636
2099 1 63.0339 26.8108399567 39.7507
1289 1 61.6653953495 25.3218399567 37.6973
809 1 51.885 25.7980499459 39.2973
3711 1 63.8887 23.8390499459 37.1167
3013 1 55.0518 26.9830499459 36.5518
3684 1 50.5901 23.7510499459 40.8601
6513 1 49.9571 33.2128399567 34.1492
575 1 50.6017 29.5948399567 35.1011
2534 1 64.6865953495 33.6228399567 35.2395
6594 1 62.4989 31.4950499459 40.7804
4876 1 64.5703853495 27.0668399567 33.1815
3959 1 51.2906 35.3828399567 33.6089
6621 1 56.3584 32.6840499459 40.1495
145 1 50.7959 32.5318399567 38.5232
193 1 63.6468 24.6470499459 41.1413
7060 1 52.5647 31.0530499459 36.9399
2519 1 58.2979 33.2988399567 36.2396
6359 1 57.91 30.5548399567 36.8273
4485 1 63.951 29.7138399567 33.7191
4294 1 55.3415 31.3180499459 37.7387
6136 1 60.3572353495 30.0920499459 39.8415
2377 1 58.8027 28.7058399567 34.5358
4638 1 61.1397 30.3310499459 34.9067
3133 1 55.8324 29.2268399567 34.8826
2356 1 63.3604 29.1828399567 36.4903
5817 1 63.5066 31.7380499459 38.0428
2016 1 57.6961 29.2780499459 39.5271
5948 1 52.3492 31.7848399567 34.1056
2277 1 52.3756 28.2700499459 37.7985
5895 1 57.5625 32.3678399567 33.6786
7145 1 60.3675 26.2278399567 33.767
850 1 50.2966 28.1740499459 39.8419
4907 1 55.083 31.8658399567 34.9697
5728 1 53.8027 34.4788399567 34.3123
3846 1 60.5993 33.0308399567 34.1846
7281 1 64.4545853495 24.3748399567 34.3781
1896 1 60.5558 31.6540499459 37.4314
6170 1 54.9947 28.7738399567 38.9678
426 1 57.4796 26.3978399567 33.016
7340 1 51.8523 31.9540499459 41.0898
5962 1 61.2454 28.1538399567 38.1171
5471 1 58.665 27.4928399567 37.3349
1384 1 51.6405 26.9918399567 35.2135
722 1 62.6317 26.5128399567 35.2832
3891 1 59.7973 24.2630499459 35.824
3586 1 65.1931 32.1608399567 32.7921
1665 1 58.7335 34.1590499459 40.4841
6444 1 60.3844 34.3190499459 38.3268
2496 1 55.8565 34.2288399567 37.8396
2570 1 62.9003 34.2030499459 39.5264
4597 1 56.0973 24.3668399567 34.3596
7505 1 48.9453 33.4528399567 36.6016
7326 1 48.981 29.5258399567 32.8469
3954 1 54.7972 30.8930499459 43.6468
5913 1 61.7244 31.1760499459 45.5466
4848 1 50.0038 30.9492599351 44.0723
6370 1 59.5467 30.7810499459 43.7572
7206 1 57.2609 30.4560499459 41.9618
6439 1 59.8077 22.6672599351 44.4713
2206 1 52.5618 30.2710499459 45.1199
6164 1 55.4831 27.6040499459 44.8267
5232 1 51.2353 29.4950499459 41.9674
1178 1 64.2014153495 32.2190499459 44.4685
2024 1 54.7703 21.6222599351 48.6815
633 1 58.3225 32.2420499459 45.8011
7298 1 48.9427 25.3862599351 47.2332
2479 1 61.6657 21.6492599351 48.3905
3767 1 52.317 31.5680499459 47.7182
7712 1 60.4976 32.9760499459 42.2122
118 1 54.8636 32.0300499459 48.6422
6295 1 64.8563973495 32.0012599351 49.2585
4317 1 60.6753 28.6700499459 42.2612
438 1 54.4681 22.6782599351 45.9867
3517 1 64.6315 30.5940499459 42.1191
2572 1 64.2492 28.9340499459 46.5505
1704 1 64.962 27.3680499459 44.3906
4155 1 50.7813 23.7632599351 45.4396
237 1 56.3653 29.7092599351 48.699
1436 1 51.1318 24.7542599351 48.9089
6016 1 52.192 28.7962599351 48.2644
6367 1 56.5591 30.0990499459 45.8695
839 1 62.8889253495 25.5080499459 43.6364
4799 1 59.0789 25.1912599351 48.2634
4121 1 54.1579 32.8740499459 41.7818
1915 1 60.2944853495 26.5560499459 44.0009
694 1 60.8988453495 29.6752599351 49.5482
5352 1 52.8633 27.4700499459 45.8494
5955 1 62.601 25.7932599351 49.2005
2549 1 51.7886 22.0562599351 49.0646
1746 1 58.9556 28.5750499459 45.3916
5000 1 49.5054 27.8962599351 47.8629
1974 1 53.133 26.1420499459 41.7766
662 1 58.3162 24.9410499459 42.8374
2980 1 49.7984 33.7930499459 41.6359
5137 1 56.4424 27.8400499459 42.3507
3081 1 57.7295 22.5102599351 47.8047
6293 1 55.0861 23.1870499459 43.2501
2299 1 64.3339 22.3502599351 48.9809
6906 1 52.9656 24.7602599351 46.8019
70 1 64.1627 23.3140499459 44.8157
5920 1 61.3089 26.1302599351 46.6771
4743 1 52.3608 23.7940499459 43.063
577 1 55.2753 25.7670499459 48.2343
3939 1 61.741 23.4310499459 46.2334
1768 1 53.9607 28.9850499459 41.5645
5911 1 57.1816 23.5452599351 45.2083
1131 1 58.6301 27.9730499459 48.3032
1946 1 57.3218 26.1282599351 46.1643
997 1 54.4074 27.9192599351 49.7926
1543 1 61.4111 28.9200499459 46.9564
3666 1 63.299 28.2450499459 42.1971
3187 1 51.2754 27.1210499459 43.6008
6482 1 55.9121 23.9432599351 50.04
23 1 55.7926 25.1030499459 41.4438
3886 1 65.2172 25.0162599351 48.6029
2258 1 60.8041 23.7272599351 50.0743
1918 1 59.6925 22.8380499459 41.6002
7783 1 49.3469 21.2752599351 50.2485
5456 1 58.2151 30.9250499459 50.4095
7345 1 56.0399 22.1714699243 57.8522
4615 1 49.5418 19.5614699243 58.2968
4236 1 64.5846343495 30.2842599351 54.963
1236 1 60.0941 21.5244699243 57.8071
7516 1 52.731 20.3224699243 54.4742
1847 1 52.8282 25.9412599351 50.9451
1464 1 50.5707 22.6172599351 56.3166
1034 1 53.299 21.9544699243 56.9907
7759 1 49.3553 25.3292599351 51.0999
2232 1 58.2777 25.1272599351 51.1239
375 1 53.3538 21.5164699243 51.3904
7467 1 62.4023 21.9724699243 54.1584
5640 1 60.8617 23.5132599351 55.9788
3110 1 58.7275 20.3404699243 55.6127
170 1 56.206 20.6942599351 51.1137
2874 1 51.2826 29.5022599351 50.8261
665 1 53.4282 30.3562599351 52.3436
5905 1 51.5782 28.9964699243 56.3407
7037 1 55.8121 27.3664699243 56.691
197 1 63.2911 26.0702599351 52.9377
2968 1 49.2535 29.9062599351 54.8857
6831 1 51.9442 26.7362599351 54.7626
4112 1 56.6766 24.8004699243 57.2702
6575 1 60.6719 31.2112599351 51.985
1111 1 64.7445153495 29.5202599351 50.7007
7292 1 49.404 29.4394699243 58.3786
1682 1 53.4969 30.0614699243 58.4714
920 1 56.0353 23.1804699243 54.7795
2700 1 62.549 27.8462599351 50.9419
1836 1 50.0178 25.2524699243 56.0715
3658 1 55.476 20.5764699243 53.7738
7512 1 51.9858 22.8294699243 53.6377
774 1 50.2507 26.6804699243 58.6435
5132 1 64.2814453495 23.3564699243 58.7129
5455 1 58.7775 22.8174699243 54.1764
1199 1 62.69 23.6032599351 51.9726
1438 1 53.47 24.4942599351 55.5904
7667 1 52.9437 25.7274699243 58.2225
1401 1 53.4801 19.4594699243 58.0572
7136 1 57.615 25.3632599351 53.737
5667 1 59.4416 25.4452599351 57.4091
1011 1 57.8736 29.2082599351 56.6287
992 1 58.1913 28.0042599351 51.204
5168 1 54.8962 26.5932599351 54.2062
4886 1 59.187 27.1552599351 55.2624
4242 1 60.6303 28.4082599351 52.8765
2132 1 49.4392 22.9542599351 52.4634
5177 1 56.4223 30.4642599351 54.4147
7173 1 58.6649 22.1772599351 51.3921
2398 1 62.7647 29.3272599351 56.8748
3204 1 63.0534 25.0474699243 56.6577
6644 1 55.6489 28.5302599351 52.3424
1500 1 54.3405 24.2412599351 52.458
4 1 61.988 27.2002599351 55.2092
1225 1 50.8598 27.2832599351 52.3806
4661 1 60.5717 20.3462599351 52.4181
3822 1 65.1054483495 22.4072599351 51.7076
1455 1 59.3719 30.5532599351 54.4341
723 1 50.2532 22.1124699243 59.134
6932 1 61.6277 19.1664699243 57.6082
7500 1 56.4856 19.4564699243 57.1322
3841 1 63.5009553495 31.2802599351 52.4938
5910 1 63.0721353495 26.1714699243 59.1806
6617 1 53.635 22.8436799134 66.7991
7622 1 61.9390053495 22.1821228555 59.5900691582
878 1 58.677 21.6857428446 64.0744091582
5749 1 61.3533 21.7106799134 65.7847
6879 1 60.3719 26.8264699243 59.6163
3294 1 54.7804 17.8791428446 65.9347291582
2846 1 63.7571053495 18.8956799134 64.3692
638 1 58.1802 25.6189428446 66.1397291582
5122 1 51.8801 19.3944699243 63.9131
784 1 56.5286 23.4126799134 63.2462
6793 1 49.1663 19.2676799134 64.3176
7980 1 61.2100553495 18.9324699243 61.8786
5934 1 58.0227 25.8564428446 63.3448791582
3531 1 50.8392 20.7289928555 61.5872091582
4789 1 55.5557 22.6485428446 60.5983691582
4685 1 62.5072553495 21.3096799134 63.2142
4354 1 58.724 20.1904699243 61.6292
156 1 64.3301753495 24.7506799134 65.8996
5160 1 51.9773 24.3406128555 63.2392291582
7936 1 61.3877 18.9496799134 66.0258
2514 1 50.1805 19.7636799134 67.0126
2652 1 56.8995 20.0224699243 65.5556
6456 1 54.9518 19.7904699243 60.5358
3933 1 54.6896 18.8247428446 63.1689691582
3630 1 60.2053 24.0872428446 64.7113491582
2604 1 54.6756 21.5436799134 64.3674
2898 1 57.4731 18.0706799134 63.4453
4041 1 63.0718453495 19.7734699243 60.0136
936 1 51.3999 24.1976799134 65.9862
6412 1 56.991 22.1556799134 67.6487
1771 1 51.7834 26.6626428446 67.6270091582
6445 1 64.4267 23.2096799134 63.7127
2751 1 63.3636853495 25.0826799134 61.856
1135 1 54.1057 28.4504699243 63.9436
2852 1 58.5733 18.2325428446 67.1367091582
7558 1 54.4656 25.5036799134 63.6483
5468 1 53.0555 22.2494428446 62.1777791582
6805 1 58.0245 28.0738428446 67.4791991582
7465 1 54.2223 26.8926799134 66.4027
2906 1 55.7555 24.3556799134 66.1179
408 1 63.6967653495 22.3379428446 67.2626191582
1833 1 52.9077 20.0568428446 66.5162391582
7028 1 61.1201 23.5496428446 62.0591391582
1752 1 58.9725 24.9391028555 60.9330691582
1007 1 61.9026 27.1477428446 67.9863791582
3226 1 49.2942 22.4366799134 66.409
6064 1 61.9195 26.2306799134 65.3766
3887 1 56.0024 27.3628428446 62.0127491582
2938 1 50.1705 27.7736799134 65.4144
693 1 61.6512153495 28.4859128555 61.5564691582
316 1 60.0066 27.7786428446 63.8628691582
3298 1 63.6186653495 27.5256799134 63.3539
910 1 52.3618 18.6384699243 60.386
3433 1 50.7417 25.9034699243 61.3138
6297 1 57.3347 18.6426799134 59.626
5700 1 52.6228 27.9932599351 61.4645
5094 1 56.3388 25.3162628555 60.0018691582
7799 1 52.849 23.3614699243 59.5017
6542 1 58.4367 22.3104699243 59.877
3489 1 62.9481753495 17.8276799134 68.0777
6372 1 54.5218453495 27.5214699243 59.4411
4230 1 59.7297353495 22.4444699243 67.827
3497 1 63.6458053495 28.9462599351 59.4946
6661 1 58.6785 28.9744699243 59.3261
7704 1 63.8519653495 52.1010370688 -1.2692691582
719 1 58.5877 42.8526099892 4.35128
5424 1 51.0937 54.3898270796 -2.2172691582
2631 1 54.0378 50.3361 3.72997
5607 1 54.9845 54.1758 -1.24853
1069 1 52.3298 53.0397099892 5.32917
2561 1 58.3095 45.8790370688 -0.1828691582
1884 1 54.8506 43.5311 -1.12226
6712 1 59.5713 48.2974 -1.03442
6771 1 60.8928 52.0627 -2.18807
4947 1 50.7961 46.7856 3.44668
420 1 55.9875 53.5181 2.17657
6119 1 65.0989 44.4834 -0.39447
5332 1 64.299 46.8950370688 -1.7719691582
3199 1 59.8457 51.2828 4.56324
3996 1 56.9887 47.1553 2.13122
3287 1 56.557 46.7800370688 -2.0546691582
7446 1 64.0852 51.6312 2.67486
4265 1 49.1566 43.5518 1.68138
4519 1 57.9785753495 47.4007099892 4.6907
1448 1 51.8136 47.5867099892 -1.54363
1143 1 54.5831 48.4425900108 -1.2116
5234 1 63.1289 49.2642 -0.673068
2023 1 51.5346 44.5390370688 -1.7787691582
5907 1 58.9728 53.2017 -0.541674
3670 1 62.2185 49.6651 1.96494
4863 1 62.6776 53.3930370688 0.9661308418
6788 1 51.8625 43.5481 2.16087
6196 1 52.0609 52.0278099892 2.77882
7274 1 56.4754 51.0338099892 1.01333
5112 1 51.9998 51.952 -1.39456
2909 1 52.1971 47.7073 1.2337
2941 1 60.2205 48.4165099892 3.6153
981 1 50.3115 49.9334 1.83059
4143 1 60.9882 43.3749099892 2.86223
4411 1 60.2823 51.8408 1.76464
952 1 55.2209 52.6391099892 4.71396
2074 1 54.8448 48.8906 1.55192
2349 1 53.4714 53.0947 0.785284
5461 1 58.7333 49.4829 1.33305
3928 1 49.6245 51.5505 -0.272747
2908 1 63.6398453495 47.2498 2.9105
476 1 56.5927 51.7020370688 -1.5757691582
3398 1 61.9216 46.5610370688 -0.4157691582
1756 1 64.4730253495 50.2324 4.99729
6521 1 54.057 45.9793099892 5.30555
2464 1 60.2017 44.9692 -2.14571
6060 1 53.1774 45.1719 0.46869
7273 1 61.4526953495 49.3510370688 -2.9304691582
7534 1 55.0034 45.3420370688 2.7560308418
4449 1 62.9425053495 44.9122 1.58102
826 1 60.2743 46.0106 1.96433
7012 1 51.7255 44.5436099892 4.80925
6752 1 49.0562 46.9500370688 -1.1784691582
3538 1 64.9452 43.427 3.1435
6947 1 64.1248453495 47.5341099892 5.65944
7416 1 56.5193 43.0304099892 2.65076
1666 1 57.3182 43.2186 0.0941159
7948 1 54.2192 50.7948 -2.70579
2263 1 50.8993 49.8771 -3.14533
4002 1 50.6594 49.6574099892 10.0885
2473 1 51.9573 43.7034199784 13.2805
2832 1 55.8296 47.5274199784 14.1758
4568 1 62.1496 51.3369099892 6.35531
3169 1 61.3767 49.4036099892 8.06579
2682 1 62.9557 51.6174199784 11.4843
2562 1 55.7815 51.3514199784 9.82934
4110 1 52.5938 41.1004199784 14.3468
4835 1 64.7728533495 51.8142099892 7.29652
3428 1 50.718 50.8499099892 6.13912
1321 1 52.9177 50.1295099892 8.04993
1796 1 49.8704 44.0838099892 10.2288
3569 1 63.9365653495 49.8182099892 9.33255
454 1 56.5283 48.9226099892 6.24254
2072 1 53.2723 50.2294199784 11.0056
4270 1 59.2009 50.4047099892 9.5134
853 1 51.4425 46.4094199784 12.8841
6031 1 57.7619 52.6313099892 8.19513
2976 1 60.4462 46.5974199784 13.9931
1266 1 50.1356 46.8863099892 10.5387
1434 1 63.1287853495 46.2564199784 12.9745
1845 1 61.2038 45.1581099892 6.8996
4920 1 49.5133 50.8154199784 12.5033
1299 1 61.0207 50.5544199784 13.279
6470 1 62.2544 45.2064199784 10.5546
1910 1 54.1858 49.9074199784 13.9526
1284 1 60.6382 46.8099099892 9.19649
2797 1 63.8053053495 43.4816099892 6.91811
1976 1 52.5101 43.0657099892 10.4939
5543 1 59.4698 42.5747099892 12.1204
437 1 57.2776 44.5781099892 11.6829
2414 1 63.9085653495 43.6774199784 13.4771
26 1 50.874 44.0846099892 7.51566
6091 1 49.7957 40.8164199784 14.3686
1020 1 54.4967 44.9619099892 10.76
1446 1 50.9483 48.0641099892 5.76651
5364 1 57.1399 44.7640099892 7.97142
6283 1 54.8374 43.4854199784 13.0968
1623 1 53.2428 42.5819099892 7.80012
5721 1 64.5431 42.1724199784 11.0691
3313 1 49.2326 42.9044099892 12.6717
6966 1 58.7138 49.5904099892 12.1123
2873 1 57.9055 46.6054099892 9.77453
1687 1 60.6383 42.5978099892 7.99552
7913 1 56.8339 48.9494199784 8.93691
4840 1 54.3701 47.7312099892 9.36114
167 1 57.8778 42.1646099892 8.28073
6538 1 56.6594 51.1181099892 13.3433
3763 1 51.852 46.6790099892 8.13058
1460 1 58.1522 47.0229099892 12.66
2269 1 54.3791 45.1401099892 7.86902
754 1 65.0709 50.2414199784 12.9003
7089 1 53.8147 47.4630099892 12.2491
4569 1 54.2806 52.6446099892 7.66099
3165 1 61.683 42.5485099892 10.4808
5088 1 64.4729553495 45.1902099892 9.0436
1426 1 59.9761 43.8684199784 14.3746
5325 1 58.7748 45.1242099892 5.86505
174 1 55.5152 40.8624199784 12.4743
3010 1 53.7755 48.6881099892 5.79563
351 1 57.6345 41.0832099892 10.7929
5411 1 61.3457 47.7223099892 5.9034
955 1 51.37 50.1164199784 14.532
2624 1 57.4999 51.3894099892 5.84421
2282 1 53.773 47.5194199784 17.79
5021 1 58.0588 46.0906299675 20.1079
6983 1 64.1995453495 46.7094199784 17.048
391 1 61.2088 48.2814199784 19.105
1237 1 54.1558 44.7356299675 21.0423
4089 1 61.9608 49.6254199784 15.6349
7003 1 63.6435453495 44.5146299675 22.6957
7737 1 52.5397 42.5754199784 17.6658
2262 1 62.2445 43.0944199784 15.5134
3089 1 61.8378 45.1414199784 17.3228
7000 1 58.4035 38.8436299675 21.9703
7324 1 53.1195 48.5964199784 20.0961
7707 1 60.3907 47.4734199784 16.5527
3364 1 63.2088 45.1234199784 19.8963
6172 1 60.8301 46.3794199784 20.9886
6127 1 57.5212 47.8444199784 16.4724
5519 1 62.036 40.3264199784 15.5162
4629 1 55.6806 48.3776299675 23.2303
4419 1 56.7478 44.6586299675 22.1814
5696 1 51.5478 44.3356299675 19.5285
1037 1 57.7806 43.6224199784 15.9813
1819 1 59.5848 44.1614199784 22.6082
4030 1 54.2453 50.0204199784 16.8815
4951 1 59.2451 44.2264199784 18.282
7658 1 64.1329 47.2124199784 22.9999
2353 1 55.9869 46.0724199784 18.016
6844 1 49.766 49.6426299675 22.1742
2553 1 63.8359 49.0214199784 18.7805
1060 1 50.1944 41.2186299675 17.1137
4297 1 50.2326 40.0466299675 23.1074
2085 1 52.8221 44.6224099892 15.8526
6459 1 55.0768 43.5594199784 18.8495
7185 1 51.287 46.3554199784 17.3837
6919 1 52.7182 39.8874199784 20.604
7392 1 57.8032 48.4644199784 21.6548
4764 1 53.3565 47.0296299675 22.4667
6013 1 55.7173 49.8474199784 20.0163
5512 1 56.8415 41.0634199784 16.3196
6369 1 57.0829 50.1774199784 17.6082
6497 1 49.0828 49.8996299675 18.1144
1527 1 50.5305 48.0964199784 19.4815
6852 1 50.1828 47.5794199784 14.9797
6340 1 53.3632 42.8336299675 22.8853
7346 1 55.5408 38.4746299675 22.6598
4246 1 52.6832 39.0526299675 23.1881
7103 1 61.4804 48.1104199784 23.212
3628 1 61.3144 40.5194199784 18.141
4970 1 54.2188 40.7084199784 16.4442
4822 1 50.9322 42.2236299675 21.3669
2013 1 61.9567 42.7824199784 21.2146
1798 1 59.5846053495 41.9724199784 19.7347
224 1 63.7345853495 41.1804199784 19.5003
4498 1 64.1623253495 40.1814199784 21.9932
5268 1 59.3307 41.3524199784 22.3911
7898 1 56.8905 41.6314199784 19.1009
1323 1 55.2429 41.0806299675 21.4268
1754 1 49.206 44.0936299675 22.5349
1710 1 65.1152 47.0164199784 20.4048
5881 1 49.0274 45.8736299675 20.3695
3513 1 55.5256 45.0744199784 15.3147
563 1 64.2328853495 48.2833099892 14.7869
2105 1 61.8611653495 40.8806299675 23.3813
1539 1 65.2704 43.5814199784 18.8974
6874 1 64.584 40.2064199784 14.8164
6608 1 55.9676 45.8986299675 24.6492
74 1 54.6281 45.9396299675 29.0421
6774 1 58.3124 46.4186299675 26.1086
6928 1 51.2376 46.8068399567 31.6558
353 1 63.998 46.6296299675 28.809
7695 1 61.179 46.3796299675 28.7131
6194 1 57.9569 46.6796299675 30.6778
6206 1 61.9205 47.0614199784 25.8733
1564 1 60.2349 44.6984199784 25.228
6836 1 49.6132 44.4166299675 28.6821
1706 1 49.1533 40.8438399567 29.6115
2697 1 64.7608 37.8566299675 28.9453
6784 1 50.2234 45.3496299675 24.9799
823 1 51.2198 40.5958399567 31.4989
5317 1 51.2135 46.6556299675 28.8478
5252 1 53.3576 47.0166299675 26.8151
3196 1 57.2282 45.0026299675 28.3607
7253 1 50.5479 42.9356299675 26.4625
5047 1 49.8255 38.3006299675 25.3535
3278 1 53.2646 45.0406299675 24.7761
4529 1 57.4298 41.2846299675 27.3134
3490 1 53.6991 43.3576299675 29.4104
3026 1 62.2777 39.2118399567 31.73
3655 1 53.3154 40.5316299675 29.5002
5769 1 62.5099 41.8666299675 25.8587
5930 1 56.4476 42.6026299675 29.5305
4224 1 63.1929 44.5716299675 25.4185
675 1 60.6433 46.8466299675 31.5261
1596 1 50.158 43.2548399567 31.1468
3590 1 56.1889 43.5046299675 26.0717
6938 1 57.3228 38.6948399567 28.5821
7393 1 58.8317 48.0966299675 28.4882
6666 1 64.325 38.6316299675 26.3091
7256 1 56.5609 39.5726299675 25.1075
286 1 53.5103 42.9326299675 26.6818
5521 1 58.1677 43.3288399567 31.6332
5715 1 61.5552 38.4566299675 26.8299
5220 1 64.1007 44.4136299675 30.5424
6486 1 52.7911 44.4018399567 31.7727
5606 1 55.4216453495 37.1878399567 30.379
3487 1 59.8315 44.0316299675 29.2178
5516 1 55.8053 40.1406299675 30.8413
212 1 64.1150453495 40.5516299675 30.0503
304 1 58.9746 48.4884199784 24.3661
6133 1 61.5427953495 40.7068399567 28.3952
50 1 52.8436 39.2996299675 27.1161
2710 1 61.1984 38.2946299675 24.0886
4641 1 53.9744 40.7186299675 24.9899
1745 1 50.2257 40.3086299675 27.1328
5567 1 58.5619 40.4878399567 31.9202
3480 1 62.0660353495 42.5368399567 30.7355
3731 1 52.8728 38.1428399567 31.214
651 1 55.2024 37.8296299675 26.913
7941 1 59.9068 42.5954199784 26.887
2294 1 59.8423 38.9688399567 30.0628
2315 1 64.2772 48.4726299675 26.7195
5823 1 50.8907 47.6336299675 23.7852
1142 1 56.9277 42.0646299675 23.6292
6859 1 65.2727 41.1106299675 25.9442
4289 1 49.0373 43.5848399567 37.2
4434 1 57.7266 36.0818399567 36.683
6714 1 61.9314 37.6878399567 39.942
3737 1 49.4136 36.2948399567 36.8591
1265 1 55.4732 36.1740499459 40.0694
126 1 63.3422 36.5038399567 37.8553
3264 1 55.7657 37.9798399567 36.1478
3466 1 59.5268 37.0878399567 38.385
5439 1 61.0878 36.7698399567 34.2533
5760 1 51.9342 37.4188399567 35.5869
4295 1 63.5406 44.2938399567 35.6964
159 1 63.5294 37.2488399567 33.0253
4011 1 61.0827 41.4448399567 33.2331
5140 1 54.1612 37.9850499459 38.6927
1212 1 57.7538 39.2048399567 34.2713
3270 1 63.9077 39.9108399567 36.5126
5892 1 55.3245 43.6218399567 36.4989
6368 1 64.4223 42.7888399567 40.9161
7189 1 63.4353 41.8048399567 34.5131
4256 1 64.3511 39.1208399567 40.4909
4843 1 49.3094 38.3410499459 39.0429
298 1 53.9525 38.1808399567 33.774
7974 1 61.7773453495 43.3818399567 37.751
6926 1 61.5606 38.3228399567 36.538
1269 1 53.7329 35.7618399567 36.8319
7350 1 58.1754 36.5068399567 33.8939
380 1 64.4708153495 45.1518399567 33.2252
1352 1 58.1326 36.9700499459 40.8888
4786 1 60.655 44.3088399567 32.7632
4771 1 52.8285 43.9658399567 35.4871
5002 1 49.2292 38.2388399567 34.7541
2322 1 57.1065 45.4768399567 33.3122
5658 1 50.6311 40.7398399567 34.2791
3881 1 60.9555 40.4090499459 40.1381
3599 1 52.7307 41.9900499459 40.0749
7817 1 54.9453 40.7268399567 36.3013
289 1 51.6116 42.8270499459 37.6726
6898 1 51.8549 39.3988399567 39.0845
2669 1 59.1359 42.9758399567 36.8421
3991 1 53.0256 42.0548399567 33.2923
270 1 56.2798 46.1238399567 37.4407
123 1 59.8904 42.7890499459 41.0208
5494 1 59.8489 40.4318399567 35.7249
5852 1 54.5521 46.2588399567 32.7129
1505 1 58.7312 39.7818399567 38.5011
2312 1 63.1836 41.1548399567 38.8019
473 1 59.839 45.3098399567 35.4867
2675 1 57.2849 42.7718399567 34.6148
2796 1 52.2603 40.2698399567 36.4651
7609 1 55.4104 40.8118399567 33.5871
500 1 56.0038 40.1678399567 39.0258
1226 1 55.2101 42.8858399567 39.3119
2491 1 57.9569 43.6490499459 39.3245
1369 1 51.4588 35.2438399567 38.3906
223 1 50.4386 43.4740499459 41.1822
6980 1 51.4524 46.2018399567 34.576
7414 1 51.5198 35.8868399567 40.9689
2412 1 51.9707 45.6020499459 38.5766
1022 1 62.0944 45.4640499459 39.3324
281 1 49.1549 44.7248399567 33.4032
652 1 55.5376 36.0138399567 32.8766
6838 1 49.9038 46.3848399567 36.8592
7763 1 63.2031453495 47.4146299675 32.5316
4933 1 56.8018 43.3890499459 43.5256
5477 1 50.022 33.9180499459 44.3983
6483 1 54.5367 33.8230499459 44.4804
3673 1 59.8803 37.3490499459 42.9211
1412 1 56.8562 34.7530499459 45.7386
6816 1 50.6554 32.8262599351 49.5499
6410 1 52.0933 37.7190499459 45.9032
4455 1 64.6968 38.4810499459 48.2284
2625 1 59.4026 42.8630499459 49.0547
7415 1 54.1217 35.7530499459 49.2152
7279 1 60.3828 35.3980499459 49.4123
1124 1 58.5838 41.3180499459 43.0092
4767 1 64.0873 39.0980499459 44.8325
471 1 51.4415 40.2860499459 46.6695
4804 1 61.248 33.4770499459 47.2055
946 1 53.3584 43.2842599351 49.8931
7885 1 55.5704 41.5040499459 47.2475
1290 1 63.791 34.3310499459 48.1482
4807 1 57.7541 39.9200499459 46.8895
1003 1 59.2217 40.0562599351 49.4006
666 1 55.0592 44.2800499459 41.6217
2756 1 52.2881 33.7070499459 46.0255
2329 1 62.6174 43.7560499459 45.5416
6106 1 49.4641 35.4460499459 49.1415
4800 1 64.2954753495 37.1050499459 42.7121
6600 1 53.1003 43.9150499459 46.4752
5129 1 53.9274 35.7848399567 42.3336
427 1 54.6076 39.8650499459 43.1605
2569 1 49.5041 39.0420499459 48.1533
6502 1 54.9217 38.3060499459 48.4301
1202 1 50.1767 36.8160499459 44.3236
5616 1 59.153 36.6620499459 45.4731
6418 1 60.9884 37.5740499459 47.4026
893 1 61.6739 39.7300499459 45.7651
6870 1 54.384 37.4780499459 44.3663
2786 1 56.3639 37.6480499459 46.1981
1643 1 53.186 40.6930499459 48.6755
4026 1 63.4149 36.6950499459 46.4721
3696 1 63.0349 34.8120499459 44.3023
1926 1 60.2311 34.2450499459 44.7553
6251 1 51.726 35.6590499459 47.7303
3919 1 56.3843 34.3160499459 48.3919
7786 1 49.8422 37.9820499459 41.7796
4693 1 62.9178 41.6480499459 47.4058
556 1 57.0913 38.4842599351 50.1089
6882 1 59.5773 41.5330499459 45.7761
7218 1 61.8745 35.5700499459 41.8776
2142 1 52.0852 39.8610499459 41.8502
5756 1 61.5796 44.6690499459 42.0457
300 1 51.062 41.2090499459 44.0356
1986 1 54.6232 42.2800499459 44.7175
4119 1 62.7735 42.2510499459 43.2128
4051 1 52.8182 43.1800499459 42.8011
3580 1 62.1412453495 42.8980499459 49.8819
3811 1 63.9202 40.6662599351 49.9591
7074 1 61.0293 40.0050499459 42.8314
1786 1 50.6757 42.9340499459 47.6107
6229 1 61.5757 38.8732599351 49.886
2757 1 58.8703 32.8742599351 48.5102
3435 1 63.2179253495 36.4122599351 50.0109
2285 1 60.1293 44.2330499459 46.683
1190 1 56.9792 39.4710499459 41.5572
2235 1 57.7958 35.8050499459 50.2285
2868 1 56.7901 43.6280499459 48.5613
5259 1 65.2096 40.7240499459 42.7078
6161 1 60.8435953495 31.1942599351 56.7691
4691 1 49.4938 36.6892599351 58.6855
7546 1 54.7479 31.6352599351 56.3789
1816 1 49.8816 38.8030499459 50.8449
3964 1 58.449 33.3692599351 54.4168
3804 1 51.8819 34.3342599351 55.1213
1018 1 51.786 33.9272599351 52.157
6523 1 60.7277 33.7342599351 55.9003
5154 1 50.0507 32.0900499459 53.4096
3813 1 57.1498 31.8292599351 57.8517
3469 1 57.0759 34.2592599351 56.6717
7849 1 63.1664153495 33.3662599351 54.6964
5485 1 64.3381 39.8789328555 56.5377691582
4703 1 49.7548 34.6862599351 56.5331
2483 1 50.7016 42.6830499459 50.5106
7996 1 54.1564 34.3102599351 56.7683
7348 1 60.2916 35.4772599351 57.9424
4215 1 61.0658 41.3422599351 55.7172
5574 1 56.767 32.3022599351 52.2258
2564 1 65.0345 32.5182599351 56.5386
6908 1 49.528 40.8842599351 54.2184
2041 1 61.7376 38.7862599351 57.0497
560 1 62.3549053495 37.4952599351 54.5125
6022 1 49.9905 36.1152599351 51.9724
1067 1 53.2758 41.4242599351 53.8111
1270 1 62.9943853495 36.2152599351 57.9946
541 1 52.1463 40.3752599351 51.2268
1229 1 61.6435 39.5122599351 52.6366
6572 1 59.4958 39.5702599351 54.3912
1079 1 64.4314 40.1032599351 52.7553
558 1 64.3536953495 35.5672599351 53.3643
4579 1 56.4093 38.9522599351 52.6824
3752 1 52.0444 39.9072599351 58.1419
2695 1 59.0171 37.7262599351 56.7941
7735 1 63.8777553495 33.7582599351 59.1375
7499 1 58.5666 40.9800499459 51.9878
5928 1 60.4387 35.5302599351 53.8009
2439 1 52.9499 36.8060499459 53.9731
7319 1 54.2357 32.6462599351 51.1965
7114 1 50.4085 38.2552599351 53.9705
885 1 49.3729 39.9872599351 57.0114
5537 1 53.9617 38.4002599351 51.5893
4540 1 63.9752 33.8102599351 51.1665
2001 1 56.8518 35.0822599351 52.7384
6004 1 56.8906 38.1444699243 58.7582
6735 1 52.753 39.2492599351 55.4785
3097 1 61.189 42.2732599351 52.4121
441 1 54.2259 35.4080499459 51.858
5394 1 61.2641 34.0162599351 51.7123
7033 1 63.6509 42.0382599351 54.8753
664 1 55.5438 36.4482599351 55.2607
385 1 55.9795 41.7470499459 53.2938
6884 1 58.061 37.1792599351 54.0989
552 1 57.4909 40.9602599351 55.7067
3635 1 55.5057 38.9792599351 56.5519
742 1 48.9711 33.0052599351 58.8558
914 1 54.5492 41.3362599351 57.9424
3675 1 52.4226 31.3082599351 54.7694
3956 1 64.8476763495 36.9422599351 55.9734
458 1 64.9748273495 40.7244699243 59.1487
979 1 57.2339 41.6332599351 58.4398
478 1 57.5469 35.4842599351 59.1738
109 1 65.2771 31.2022599351 59.0199
4047 1 54.3037 36.9785428446 66.7427191582
1450 1 58.2751 33.4274699243 61.2263
4124 1 52.2656 34.3978228555 64.2375791582
250 1 58.1802 32.5538428446 67.7402091582
1635 1 59.3139053495 36.2234699243 61.3684
2280 1 49.9806 35.4544699243 65.8526
1577 1 51.9053 37.6952599351 59.7276
2241 1 55.1707 36.9992599351 62.8424
1853 1 64.2335 40.1594699243 61.7642
7677 1 62.0061 35.7292599351 62.2303
1982 1 58.8761 31.3869428446 63.0830291582
5390 1 54.8927 31.2024699243 62.8781
1193 1 63.3255 34.3786799134 66.277
3369 1 54.6217 37.5114699243 60.227
5800 1 55.3519 29.0154699243 67.8113
2033 1 55.4164 31.5274699243 59.9805
2528 1 51.9558 29.7234699243 64.9262
2613 1 52.9551 30.3576428446 67.4544791582
19 1 50.1414 37.1344699243 63.5697
2793 1 55.5213 34.0502599351 60.6923
7250 1 63.0385 38.6916799134 65.4725
6346 1 53.2268 33.0946799134 66.6435
7192 1 63.2274953495 29.8126799134 64.7435
2408 1 60.6870853495 31.0524699243 67.054
5159 1 58.01 33.8684699243 64.1369
7142 1 63.2697253495 29.7536799134 67.3325
3119 1 52.8676 37.1884699243 64.414
2825 1 60.5668 34.4085928555 65.7156291582
3051 1 61.4447 31.3006528555 61.6067391582
364 1 56.0233 32.8144699243 65.9083
613 1 50.0574 34.4204699243 62.4274
989 1 61.3786853495 32.0386428446 64.2845691582
7010 1 63.5137 33.9114699243 63.4731
7902 1 59.9486 38.8854699243 61.219
1261 1 49.2499 37.9064699243 67.1546
6509 1 61.3378 33.8714699243 60.1902
1084 1 57.9447 36.8402599351 63.6792
4692 1 58.7119 29.5991428446 65.3207391582
4656 1 52.166 31.7154699243 62.8838
6301 1 57.0242 37.1864699243 66.2866
6218 1 55.1355 34.1764699243 63.4276
6902 1 60.8641 37.0004699243 64.5863
2538 1 64.3741 32.0254699243 61.6403
2332 1 51.4654 33.1352599351 60.2652
7166 1 60.672 38.2928428446 67.2150991582
7636 1 64.0454 36.8087428446 67.2799391582
2445 1 58.1364 39.4756799134 67.5384
3900 1 58.5615 35.3864699243 67.75
7454 1 54.6546 40.3752599351 60.561
2255 1 52.6469 39.8105628555 65.3691291582
1855 1 49.7949 39.6634699243 65.0493
626 1 56.7572 39.3924699243 63.3413
2644 1 63.6571 37.4102599351 60.5481
3890 1 61.0373 39.6540328555 63.5838391582
6687 1 51.2863 39.1772599351 61.946
2213 1 57.6244 40.1654699243 60.7458
6795 1 55.9976353495 30.0974978555 65.3439991582
4146 1 51.369 30.2814699243 60.2377
2087 1 62.1187 39.6374699243 59.6476
315 1 49.3837 31.7124699243 63.8237
6049 1 53.6562 39.5334699243 67.869
5819 1 49.0449 29.6246799134 61.8991
3462 1 57.1005 29.7944699243 61.5225
6888 1 59.6343 31.6382599351 59.3268
2812 1 65.2349203495 38.2413828555 63.6409991582
617 1 53.2711 35.1122599351 59.2541
