# LAMMPS data file written by OVITO Basic 3.7.6
8000 atoms
1 atom types
4.1413016404 60.8586983596 xlo xhi
4.1413016404 60.8586983596 ylo yhi
4.1413016404 60.8586983596 zlo zhi

Masses

1 18.0153

Atoms  # atomic

2250 1 14.3212 10.5025 15.5004
3749 1 14.3541 13.1379 16.7864
1032 1 4.9136 16.4925 12.7693
3727 1 7.91714 7.49991 14.9496
7826 1 4.8587 14.0415 5.90284
5413 1 18.0859 8.93109 11.4676
4561 1 12.8568 15.2184 15.3789
3656 1 11.8132 7.74267 15.5211
1749 1 16.754 7.6287 14.3198
2812 1 15.5762 10.0403 11.7298
7765 1 5.77535 13.3857 16.5105
2738 1 12.7984 13.0457 10.4026
1170 1 17.8028 14.553 8.03102
2450 1 10.8864 4.90781 6.87724
6822 1 6.30449 16.511 7.49112
1102 1 4.85421 5.43068 10.0303
4365 1 13.9437 12.0415 12.9082
7858 1 16.0346 13.1829 14.3457
1739 1 7.81311 6.13966 8.3569
7660 1 13.6982 16.8984 9.86674
6959 1 13.1511 6.59942 8.06991
2080 1 16.0926 17.754 11.4713
3620 1 7.57113 17.0077 15.2754
5902 1 16.4327 9.24651 8.32736
125 1 9.06627 12.6432 15.865
506 1 7.31806 14.3209 14.3054
6599 1 5.37986 13.7762 12.3439
219 1 17.437 12.3682 5.94645
7004 1 5.55027 4.34234 16.4615
5372 1 8.08382 11.4049 13.5124
3405 1 6.18904 14.8707 9.85504
901 1 9.79357 5.64962 15.8754
837 1 9.59569 14.8944 12.7895
2712 1 13.0346 5.37541 14.5785
5439 1 15.207 17.5029 14.1547
716 1 10.2076 12.1407 11.776
3076 1 15.7114 5.15328 15.4126
2256 1 10.3545 7.60766 7.57796
4297 1 17.0703 6.1787 11.7995
489 1 12.5833 9.25623 6.87811
6661 1 16.4293 9.09822 5.43797
5189 1 14.2151 15.0257 13.1126
4551 1 7.46589 5.19945 11.098
7331 1 6.5734 11.4682 11.1934
4638 1 7.34524 5.39904 5.58056
3423 1 8.81231 7.94105 5.04706
3872 1 8.38546 11.7346 4.54709
7525 1 10.5611 8.48067 10.1619
3119 1 7.92237 16.3771 18.0145
4172 1 8.20952 9.74873 9.59276
1098 1 14.7662 11.0507 6.61631
6911 1 13.8115 8.54514 17.562
2023 1 5.02236 11.1283 6.34255
899 1 14.1984 6.01203 11.984
6131 1 14.8873 16.5999 16.722
2985 1 9.08099 10.2925 6.91219
1179 1 9.96641 9.29996 13.9559
1570 1 11.5245 10.7577 15.9157
1815 1 12.6647 10.2129 9.42361
456 1 17.8135 16.4682 14.5992
7978 1 15.1578 14.5255 9.05854
2271 1 12.2009 5.04898 4.39444
6825 1 16.4974 15.1528 5.45969
2260 1 11.6441 5.89036 10.4658
7119 1 10.8831 12.1103 8.3028
1990 1 6.10357 7.11755 17.1986
109 1 16.195 7.1884 17.347
4526 1 4.34545 6.44204 12.6957
3821 1 16.9567 10.479 14.3101
2693 1 6.05076 9.84308 14.8341
7442 1 14.3362 13.8118 6.5614
5201 1 10.4274 16.7906 15.0081
6013 1 16.6516 14.8403 11.3835
5897 1 13.0183 16.3017 7.11463
1663 1 17.2626 6.32405 5.85238
4401 1 11.8089 12.8536 5.50336
1955 1 10.4307 5.55313 13.0636
5858 1 15.2045 11.6775 9.41386
1044 1 7.50609 17.2435 12.3735
3457 1 13.9777 8.21769 4.67297
12 1 14.5878 5.72524 5.90931
6199 1 10.9264 17.7576 10.382
5314 1 10.2137 7.48908 18.1484
6933 1 8.89037 15.5719 10.195
316 1 6.04134 8.75627 12.2161
6203 1 14.0197 8.35586 13.7363
5525 1 4.6802 16.598 15.504
4752 1 5.99524 8.00288 9.28651
1178 1 10.466 14.8763 17.1263
6044 1 16.8568 14.6483 16.8254
719 1 8.64947 15.3231 6.51598
7345 1 7.33461 12.8417 6.85663
3346 1 6.5003 8.82761 6.61534
6406 1 6.33488 9.81629 17.6845
4358 1 11.5483 12.9916 14.262
6884 1 8.57284 12.7139 9.4702
5140 1 8.6126 7.42947 12.1261
1958 1 4.81996 6.76372 5.89174
6059 1 15.0983 4.33852 8.57917
1373 1 10.9802 10.2433 4.76629
529 1 10.8537 15.056 8.03486
1619 1 9.86031 17.4356 5.24194
7507 1 6.64415 5.17349 13.9723
7920 1 14.5502 8.06411 9.98679
662 1 14.3297 17.1234 4.61019
7725 1 11.997 9.92766 12.3063
1725 1 12.0923 15.5175 11.5626
7699 1 16.7617 18.0371 5.88266
5447 1 17.8865 12.3837 10.1259
195 1 17.0366 6.48229 8.91089
4344 1 9.00097 9.63475 16.7539
4467 1 16.4231 11.2794 17.5894
45 1 8.38038 4.2259 17.9237
657 1 16.2758 17.0812 8.38263
327 1 5.81627 16.6607 4.68776
4911 1 5.14416 12.3834 8.86286
6713 1 4.21956 10.0903 10.2666
436 1 4.28533 12.0538 14.3636
6585 1 5.32346 15.5842 18.2337
4498 1 11.9447 12.5658 18.2913
1775 1 18.2958 4.23067 15.0039
7473 1 8.16272 18.0726 9.00556
5662 1 14.6235 4.14654 17.8475
3652 1 10.7307 18.2814 24.3896
5620 1 18.0743 10.8774 20.8088
5142 1 5.58627 13.1566 27.3831
767 1 8.52571 16.672 25.1184
7083 1 16.4629 7.35311 28.1919
476 1 4.4949 17.6052 24.2805
3056 1 12.4454 11.7282 27.0735
7079 1 4.88791 13.7617 31.9886
1051 1 15.4817 12.9072 25.045
3706 1 13.4626 10.5843 30.921
800 1 17.5692 13.295 19.4263
6873 1 10.9473 5.04181 26.1401
303 1 5.85724 10.8446 21.281
7240 1 15.7652 5.21943 29.734
6556 1 14.0256 10.8456 19.433
2922 1 10.0849 14.2597 24.5509
2358 1 11.8554 8.80221 19.9027
3003 1 15.5723 7.84823 21.9074
1261 1 10.477 12.3995 28.9859
5753 1 7.63781 10.1298 25.2902
5515 1 17.1308 11.8161 31.2938
4433 1 16.0062 9.75544 29.7584
2841 1 6.13419 7.92166 26.066
2843 1 17.0449 5.19961 19.1999
817 1 5.13321 4.6479 28.5628
691 1 12.7916 6.95279 22.0627
7263 1 6.84016 12.7397 30.0426
1609 1 16.6426 9.0274 24.2387
6190 1 8.60115 18.1303 31.4884
325 1 12.3597 6.25858 28.5246
2214 1 13.0677 17.7695 21.2597
5481 1 8.83029 5.98384 24.4011
5466 1 12.6919 9.09443 28.5702
319 1 5.36044 16.6015 26.8696
1104 1 13.3897 6.21806 19.3919
4418 1 10.0436 8.49366 22.2401
546 1 9.96379 5.88377 30.3187
5077 1 13.5006 9.9085 22.2165
7598 1 5.79998 10.3695 31.2898
4301 1 15.3825 11.5697 27.5425
4816 1 7.39938 10.6725 28.166
2270 1 8.50318 13.5006 22.3761
6973 1 6.75172 15.4216 29.1906
171 1 6.67154 14.6579 25.0907
1321 1 14.286 15.1132 19.1209
5319 1 12.7302 12.6839 22.4229
2951 1 17.195 6.68123 25.4981
6689 1 4.42953 9.39334 23.2757
2474 1 5.75045 13.4454 20.1185
291 1 7.15047 8.09906 23.2115
976 1 6.20089 18.2254 29.8842
2054 1 10.0303 10.8821 19.3402
5425 1 9.38586 5.75485 21.6055
3705 1 17.1313 17.32 23.375
2293 1 12.9497 15.6459 30.048
5532 1 4.36182 16.9016 20.5897
6812 1 16.0227 17.5672 29.1598
7945 1 16.3263 8.96228 19.4357
1131 1 15.0754 5.10467 21.3608
418 1 6.51125 12.11 23.621
7118 1 6.04095 5.40377 23.5825
6494 1 10.1284 11.3478 22.2394
3793 1 12.5734 17.1411 26.3503
4381 1 18.253 6.77271 21.2874
4072 1 8.63532 12.9489 26.834
3315 1 8.69707 16.8569 20.9416
6162 1 9.09267 15.5699 27.829
7080 1 10.1776 11.4551 25.0302
4658 1 14.7781 12.9546 32.2713
6802 1 17.1005 4.85576 23.3734
6690 1 10.8475 4.92543 19.2822
3970 1 9.08874 14.4236 19.6871
527 1 5.52796 6.07979 32.4382
2088 1 7.77171 6.54628 19.4054
880 1 17.7649 11.1739 25.8462
3596 1 5.58242 8.65801 28.882
33 1 11.6997 14.3263 20.4765
3154 1 15.9413 14.7467 22.8704
5010 1 7.85377 9.23663 20.3507
7617 1 9.87771 9.72824 28.9804
643 1 13.5232 16.1169 23.7197
240 1 10.0283 8.48738 25.1578
1118 1 11.8594 16.7102 18.8973
4513 1 11.8592 14.596 27.6368
2618 1 16.7657 15.4227 25.6149
7980 1 7.30159 15.5883 32.2005
3030 1 15.4913 7.44455 31.5287
6234 1 5.79572 4.40628 19.4135
5060 1 5.45569 6.78965 21.0544
6184 1 7.39368 5.64772 27.1017
7947 1 9.70423 7.24893 27.7235
4496 1 10.2598 16.2602 30.2984
2344 1 17.958 16.1476 19.1049
5392 1 7.02883 17.9373 22.982
2721 1 8.3239 8.96293 31.2307
7492 1 12.3837 7.12088 24.7381
2568 1 15.5894 15.3922 31.1118
4349 1 16.4015 13.6366 29.0445
345 1 15.9659 11.2247 22.8647
7647 1 15.0974 13.0898 20.7415
1944 1 15.7036 16.8653 20.8517
972 1 12.2462 13.0907 31.1396
4151 1 12.55 9.91191 24.9605
235 1 11.0945 9.33594 31.6793
3009 1 12.5163 6.88413 31.4444
7937 1 12.8188 13.7374 24.9463
3923 1 14.6918 9.03255 26.4989
2211 1 14.7197 15.5651 27.6288
4468 1 7.19113 6.46734 30.0452
5882 1 9.21238 13.5678 31.1457
4655 1 14.4695 6.04091 26.2784
7262 1 6.35126 15.3773 22.126
451 1 14.3372 4.37921 24.0609
6836 1 10.9767 16.0261 22.6033
5087 1 7.62414 12.304 18.3777
2245 1 4.27764 9.12125 19.6492
5311 1 7.46943 18.2497 27.2414
724 1 11.8056 4.34063 22.5721
4316 1 13.302 4.2307 32.0246
5567 1 17.9589 14.2253 32.4704
4086 1 14.5807 12.1277 37.8123
6194 1 4.68105 16.9263 43.8143
6878 1 10.7697 11.9213 37.3604
4298 1 12.4763 16.8891 36.9604
30 1 5.25648 9.35351 33.9788
5079 1 14.4386 7.85668 44.5658
1860 1 4.36884 5.98637 41.886
893 1 17.1176 10.0406 33.488
4745 1 17.3684 13.1817 34.9815
3519 1 9.94371 14.5594 35.9941
2615 1 12.8032 16.6085 32.9249
2477 1 6.21622 18.029 45.9427
6394 1 7.86118 12.5472 46.2964
2912 1 4.3004 14.3254 34.9644
5076 1 16.0126 9.57981 46.1957
2357 1 14.9744 9.67545 42.5016
6367 1 5.55347 5.78415 44.4942
1868 1 8.60847 13.6732 43.6916
2492 1 15.9024 16.6239 45.5799
7465 1 9.35713 17.9782 34.2364
2335 1 12.2035 6.49015 43.1313
1299 1 5.08002 11.6865 35.8943
2349 1 16.7399 9.75242 36.2573
5992 1 17.9482 12.033 43.608
3496 1 7.98794 12.2317 36.2508
6982 1 14.0269 9.30916 37.2986
3521 1 5.40283 9.45573 40.5192
5031 1 6.92258 7.4615 39.025
5344 1 17.5491 15.7069 36.4036
6295 1 5.94538 14.41 43.2785
2606 1 9.46736 14.112 38.7956
6652 1 12.2605 8.95549 39.6389
4627 1 10.055 16.7195 39.6318
7802 1 15.013 11.6912 35.0285
5382 1 14.3692 13.8274 42.965
358 1 16.551 6.11456 43.6562
5613 1 9.40437 5.43728 44.0462
3381 1 8.65574 9.70743 35.3276
7864 1 12.4802 11.2714 44.3448
5728 1 18.2136 5.93267 40.3152
6471 1 14.5253 4.42114 46.0614
2062 1 11.1733 6.35587 40.4846
862 1 15.3163 6.1462 41.0234
5249 1 10.0391 8.26876 44.2745
5953 1 6.70515 14.266 37.8074
2158 1 16.9652 15.2091 42.4501
4379 1 13.3697 6.83614 34.2662
6746 1 9.24149 11.3434 32.8075
6025 1 6.76083 15.5243 40.6606
6191 1 12.6251 14.0211 36.8786
5761 1 12.2753 11.7866 39.5975
1271 1 7.40885 8.74718 45.318
6071 1 11.9701 7.06577 36.7133
1556 1 17.7895 9.32517 42.6862
5847 1 16.399 14.1476 38.4917
3138 1 10.0804 6.12118 33.1032
5412 1 12.1046 9.30473 42.4341
2241 1 10.133 15.4832 33.232
5655 1 10.2892 11.403 41.6013
626 1 9.54023 6.48015 38.0448
502 1 8.98073 16.1647 42.2274
4779 1 6.53055 11.0581 42.4579
346 1 8.88895 10.8994 44.0648
5806 1 7.09502 14.7601 34.9824
3979 1 13.7903 14.8053 45.5828
7601 1 8.87436 7.25813 41.889
1009 1 11.8316 16.4311 42.7034
5162 1 7.12056 11.0138 38.7867
3137 1 7.97618 12.9216 40.8601
5156 1 10.8524 8.41262 34.3531
4771 1 18.0981 11.9682 37.5586
5125 1 17.1089 17.6284 38.5266
4420 1 8.8731 9.38979 40.2073
4900 1 7.55983 7.67573 33.5785
3471 1 10.1392 9.29436 37.7495
4915 1 15.0489 8.63358 39.995
2297 1 9.64338 17.2238 36.8893
5000 1 6.29284 9.02175 36.7882
7361 1 11.4031 12.9508 33.833
6431 1 5.273 12.0038 44.8235
6880 1 14.0396 15.5623 39.164
1314 1 15.0416 16.5097 35.7643
1862 1 17.6846 10.2131 39.8407
5212 1 11.8497 16.896 45.5127
2180 1 7.40955 6.44418 36.0361
4322 1 17.27 7.68487 38.1841
5867 1 13.4503 5.59391 38.8803
5767 1 9.11906 16.0225 45.0735
85 1 11.4841 13.5722 43.2454
7116 1 13.8835 14.3723 34.5079
4838 1 6.66647 12.1869 33.5179
4601 1 12.3716 10.5838 35.203
5472 1 6.99946 17.1092 37.8806
6397 1 10.5265 11.258 46.42
2136 1 7.04548 5.27751 40.9919
2599 1 6.44734 15.0531 46.2569
2002 1 14.9497 6.63264 36.8013
548 1 16.232 6.24307 34.032
4244 1 4.88021 5.24385 36.9558
5693 1 7.67159 6.04646 46.2585
3673 1 11.8392 14.5324 40.4904
4394 1 17.5571 12.763 40.8821
2801 1 14.8868 11.9558 40.7925
2895 1 12.3674 9.15607 46.1013
5629 1 14.295 9.34733 33.3554
2593 1 6.65523 17.6831 35.0704
5005 1 15.3778 11.6762 44.4406
3829 1 4.57092 12.4856 38.6795
7800 1 15.5293 17.3856 33.1415
4288 1 10.9866 14.1106 46.2597
4716 1 6.24719 8.09271 42.8385
410 1 11.5743 5.3668 45.8035
2894 1 14.5234 16.4921 41.9299
5191 1 4.56464 9.23066 44.9271
4078 1 17.6772 7.2051 45.9258
3218 1 6.14785 18.1764 41.6778
258 1 17.8476 14.6296 45.298
1622 1 4.31665 16.0779 37.4329
6088 1 4.36835 12.8502 41.4153
2319 1 11.8529 4.37532 34.4678
5051 1 11.3855 4.31134 37.1821
1228 1 14.1859 4.24843 43.1063
732 1 18.2432 16.7147 33.89
7719 1 18.2579 18.1751 41.0915
5467 1 16.3953 4.20705 37.0627
2720 1 5.27229 17.6749 32.5529
3184 1 15.8333 13.0788 46.6291
7540 1 13.1349 18.0383 47.8477
6078 1 10.3427 15.7569 48.7733
3127 1 18.254 4.26362 47.9877
605 1 13.8565 6.92863 51.4292
6048 1 15.3038 10.7722 57.5873
7436 1 5.13133 13.2616 52.8569
1322 1 6.66187 9.38499 56.6362
4182 1 13.209 13.275 47.9149
3817 1 17.5624 12.7995 53.5125
3369 1 11.265 7.25623 52.3625
2041 1 11.4494 7.6751 60.1937
6387 1 9.33481 9.82174 48.6978
4905 1 14.982 4.56199 50.4469
2275 1 6.72998 5.87817 59.3728
6627 1 5.44887 10.5338 52.135
3072 1 6.28225 16.7955 52.5423
7504 1 17.7921 10.9653 51.3171
2311 1 8.54099 13.5529 48.8365
1563 1 17.524 14.7357 49.4091
3637 1 9.63011 10.1169 56.0857
3179 1 18.0374 13.0865 56.2698
47 1 17.3525 10.0491 48.7314
6732 1 7.43883 14.2707 51.5074
5475 1 9.66164 13.48 58.0153
6192 1 14.7758 17.8085 52.6032
7732 1 7.63969 11.3095 50.4152
5181 1 4.63389 16.9112 57.5218
2489 1 13.828 11.389 51.6644
6608 1 10.3446 4.5688 51.8939
3638 1 12.5167 7.8565 57.4117
2354 1 13.114 15.7796 49.4625
7755 1 5.78886 14.5899 48.9997
310 1 10.0844 7.53433 47.2842
4080 1 16.5723 15.2 52.8989
7186 1 9.19903 12.0816 52.6071
1277 1 11.2959 10.1262 52.6543
2630 1 9.07569 15.5855 54.4866
7023 1 16.0498 5.882 48.0207
1561 1 15.1847 13.5864 56.9344
3972 1 11.9625 13.3547 54.4854
2645 1 6.36355 12.3452 55.3439
3526 1 13.5533 5.41609 58.4986
5932 1 4.32004 6.28164 57.5038
7099 1 11.1083 5.55344 54.6518
713 1 7.76575 10.0038 53.8489
6081 1 16.5091 7.251 56.1851
1525 1 11.9923 17.3096 51.6291
48 1 9.47825 5.36426 60.279
4168 1 13.2855 13.7882 59.8724
5378 1 13.8711 10.4584 48.0369
490 1 6.41653 6.84494 55.6804
545 1 6.92396 17.2292 49.8392
1351 1 9.78156 7.31572 56.8168
5778 1 7.42338 5.43925 52.2819
5435 1 17.9437 13.4015 59.2166
4262 1 8.43896 18.2905 53.6017
5248 1 15.3721 9.47185 55.0689
521 1 9.30436 12.9077 55.2304
261 1 11.5661 16.7757 54.3943
4988 1 18.3005 9.05297 59.9064
4392 1 12.4345 13.4113 57.2024
179 1 6.26617 15.15 54.7772
7432 1 9.6933 10.7947 58.945
4383 1 13.5319 6.94098 47.2312
4975 1 4.8186 4.66024 53.2478
4328 1 8.59111 17.5822 47.5154
7816 1 8.90088 16.0334 57.2613
3978 1 12.0163 9.6637 49.9373
802 1 17.8661 5.33411 53.3282
27 1 9.06522 6.19607 49.7056
7751 1 4.68127 5.70853 48.7611
5568 1 11.7467 16.1408 60.126
1679 1 15.1451 8.06829 58.5226
380 1 9.90658 15.6423 51.5569
4595 1 6.99386 17.8041 55.9294
911 1 8.90658 8.64141 51.4131
6338 1 5.01312 11.7765 49.5616
525 1 15.6991 12.4585 49.5191
1494 1 15.5914 9.20809 52.2095
7145 1 6.27809 14.5471 57.4594
1342 1 12.5207 10.5109 58.2003
2688 1 16.4083 11.3386 60.1815
2937 1 11.942 16.2581 57.2825
5058 1 12.4205 10.5084 55.2394
2325 1 17.8408 4.49411 50.7627
7462 1 17.3301 15.9708 55.4462
7794 1 14.8757 12.3528 54.2373
1588 1 14.3879 14.2973 51.3639
933 1 13.6798 4.67305 55.6545
3085 1 16.3465 18.0096 58.4304
3921 1 15.5629 15.302 59.4331
4509 1 4.35633 10.0933 58.3868
6811 1 13.9571 15.3329 54.1422
6326 1 6.08193 7.82412 51.4642
2534 1 17.0405 6.47699 59.8984
4073 1 10.8301 4.68406 57.9598
3325 1 4.37212 10.1409 54.8056
2461 1 11.5394 13.4866 51.635
5283 1 7.94236 4.93378 57.1101
5704 1 8.68974 7.19137 54.0338
1469 1 15.6084 16.61 48.5098
7425 1 6.76086 10.2089 47.7266
4944 1 13.035 7.86354 54.6963
6438 1 15.1964 8.30618 49.3388
514 1 10.877 12.252 49.1624
3973 1 16.3002 4.54459 56.6904
554 1 8.26622 16.5687 59.9241
3778 1 14.6871 16.4075 56.6916
4048 1 11.8301 6.85615 49.4436
1583 1 15.26 6.26331 53.673
172 1 6.81593 7.40115 48.6828
1577 1 18.0952 10.0998 54.5948
4521 1 7.02873 11.7406 58.1316
5736 1 4.64693 7.52889 53.7108
1233 1 8.17648 8.28093 58.9019
1432 1 4.59321 7.76681 59.9934
665 1 18.2916 8.19813 52.3513
7374 1 4.37467 12.2013 60.4206
2190 1 6.6895 13.9619 60.2909
4602 1 18.0004 7.25622 49.8228
7737 1 13.7292 11.0176 60.7019
706 1 6.3721 9.89204 60.5655
1722 1 18.1146 10.3708 57.417
1424 1 9.66034 14.1753 60.7402
5654 1 9.42576 4.19773 47.6023
6297 1 7.68223 24.4954 14.2278
5057 1 7.39995 24.8842 17.7974
4432 1 11.3579 24.5617 10.0182
7458 1 17.1947 20.8019 7.76606
1090 1 16.4561 29.2213 4.56177
2980 1 10.02 18.5371 12.904
7090 1 4.88707 19.1316 7.16005
6676 1 6.80522 28.0974 9.68784
2744 1 12.4594 31.3847 17.9865
5116 1 16.1295 23.1007 16.4317
768 1 13.7527 19.4575 11.5613
1808 1 9.15532 27.9025 11.4569
7355 1 7.94989 31.6717 10.1236
4495 1 14.2165 26.9422 16.4229
571 1 12.827 18.5537 16.8701
298 1 18.0506 19.6489 11.8406
1249 1 6.81135 28.1546 13.3363
4973 1 6.02615 22.4997 6.13643
6584 1 14.5056 29.2928 17.7471
6962 1 7.96965 22.2329 12.5332
6374 1 12.2225 27.434 12.8535
1931 1 18.2371 23.5478 11.0649
5407 1 14.5692 31.5515 7.88536
3205 1 12.6818 21.5097 8.89999
5243 1 8.9687 29.325 4.58417
2703 1 12.914 21.4781 15.0601
5263 1 16.659 29.4321 15.8714
6778 1 14.705 28.3916 14.0675
1869 1 5.44322 23.0231 15.0061
812 1 15.267 28.8134 8.36406
4317 1 9.54956 23.1535 15.7167
63 1 13.8542 27.8506 10.6597
2939 1 12.4978 28.6498 7.22888
4250 1 16.5637 26.4316 5.18455
6401 1 6.73385 19.6502 15.7444
3897 1 5.61065 19.4307 4.36491
116 1 16.3694 28.6081 11.8603
5690 1 14.7777 31.8345 15.9999
4075 1 4.17374 19.1639 16.7345
7634 1 7.45272 20.4881 7.51529
1068 1 15.5664 25.6494 13.4506
2469 1 11.8262 28.7427 16.5417
6901 1 10.7926 30.8372 6.47229
1993 1 11.2533 20.5814 11.1556
2497 1 6.51067 25.5326 11.9855
3232 1 13.5066 30.544 11.4074
4031 1 5.00587 29.1966 4.98008
1238 1 9.99181 27.5016 14.8745
4609 1 16.1605 21.5946 10.3808
7366 1 17.4867 29.9906 7.12835
3249 1 9.53527 22.4553 10.0831
1539 1 10.9636 27.5461 5.25459
1275 1 4.72528 28.3637 7.66127
3007 1 12.0327 31.7408 9.18629
3935 1 15.8489 24.6804 8.11826
7012 1 12.0551 21.5649 5.28092
1726 1 9.33 24.0504 6.96755
2921 1 4.671 26.9842 16.1129
1895 1 10.851 24.0298 4.58009
3610 1 5.97762 31.2732 8.06656
2203 1 9.99766 18.9267 16.8047
1035 1 12.7768 30.4451 14.3927
687 1 14.2864 22.7863 6.74845
1167 1 17.0563 26.5765 15.9438
7701 1 9.17122 20.5098 14.6454
2352 1 10.9236 25.4047 16.3828
7413 1 12.895 24.7523 13.3905
4882 1 6.65276 22.012 9.78314
6804 1 9.97128 30.0224 9.66549
1797 1 14.7501 19.5309 8.74375
445 1 12.4534 32.4146 4.39322
2251 1 10.8611 22.5067 13.3214
501 1 15.0294 21.4646 13.0862
2395 1 16.6937 31.0861 13.4514
3769 1 13.1478 19.0165 6.45355
1654 1 17.3167 22.4414 4.39771
103 1 8.41879 22.6459 4.62944
7018 1 8.79084 30.138 14.2534
4748 1 12.1366 24.5833 7.20107
1483 1 10.0602 25.3393 12.7669
6455 1 10.7952 30.086 12.333
7073 1 6.74356 26.6953 6.50223
3214 1 4.69379 24.9926 5.34733
5326 1 8.14164 29.4722 7.35612
7108 1 9.40097 26.8341 7.4731
7521 1 14.5648 20.8471 17.2435
1798 1 13.6633 23.1037 10.9968
1117 1 16.2002 31.0569 10.4398
1755 1 9.84792 30.8726 16.8362
117 1 5.48008 20.5127 13.312
5039 1 4.61147 29.3902 14.6275
6307 1 4.65801 23.2309 12.316
5320 1 17.0761 23.4185 13.6831
2811 1 10.1246 21.4464 7.6014
6768 1 6.05694 30.2588 11.6129
676 1 14.0045 30.233 5.45362
3839 1 8.25418 19.7179 4.8932
7002 1 7.32589 22.1301 17.125
7762 1 15.4615 20.5232 5.60124
7224 1 16.4352 18.8515 17.1748
5017 1 14.1791 26.4888 6.61451
6108 1 17.8087 26.3823 10.662
3374 1 8.62127 25.4308 9.99428
2159 1 15.1243 25.4383 10.7627
7017 1 7.75504 32.4917 12.8788
3081 1 16.9965 19.8309 14.4782
4005 1 17.4216 27.0991 7.92881
6740 1 11.311 27.513 9.56211
7440 1 7.4897 26.8161 15.8114
7506 1 6.04008 30.6002 16.7661
903 1 18.1338 26.8695 13.2968
7404 1 11.176 21.5813 17.3582
2476 1 8.13255 28.871 17.8395
5695 1 6.74381 24.4196 8.15061
5554 1 4.56136 24.5303 17.4546
2308 1 7.10503 31.2683 5.41719
7555 1 13.5329 24.2365 16.0505
484 1 6.54645 19.4696 10.8747
4588 1 12.5712 18.6373 14.0532
787 1 10.6835 18.7866 7.68631
981 1 4.40981 26.434 9.9096
1963 1 4.23798 31.7852 13.166
2210 1 4.20959 25.7648 13.6461
2690 1 15.0658 24.0365 4.18275
3397 1 11.0325 26.5239 28.4314
7748 1 15.915 31.3119 19.3434
4848 1 12.8849 19.4631 28.1397
4805 1 6.37378 23.3799 23.6497
5796 1 9.86506 24.5007 19.1279
3211 1 12.7772 23.6645 27.0128
1250 1 13.6155 23.2581 22.5406
5155 1 6.18496 31.615 19.5829
7296 1 18.0378 30.3407 31.8305
2192 1 17.9917 29.6071 18.4585
513 1 5.47093 28.201 18.6076
7730 1 16.7808 27.6286 19.874
5211 1 16.295 24.8516 27.0038
2487 1 11.3745 23.3806 24.2968
6298 1 5.36232 27.5004 29.5821
3113 1 10.5096 27.1786 18.477
5713 1 15.4117 22.6263 19.2907
5452 1 5.78922 27.8999 25.3458
2261 1 14.2483 21.9842 30.3549
2231 1 4.42633 23.4459 28.2983
4793 1 4.8915 19.4723 19.4495
2964 1 9.98741 20.0361 22.3147
2117 1 10.1827 18.8959 19.6769
2237 1 17.9163 25.9989 24.6246
7903 1 6.40685 31.7003 26.1929
2542 1 11.7966 26.31 24.5115
3271 1 16.2249 26.0266 32.0404
5794 1 9.95655 20.4045 26.0955
1858 1 10.0347 24.8189 26.3482
2871 1 15.8529 25.3642 18.3918
3827 1 12.4575 32.4272 31.1287
2083 1 6.81021 20.2046 32.1835
7353 1 16.2758 27.3785 29.5878
5772 1 16.0092 30.2276 29.6485
2594 1 7.63435 26.4811 27.0
910 1 15.3275 22.244 27.6945
7566 1 5.87237 22.2936 30.3923
1148 1 9.60878 24.1414 22.1087
6072 1 16.7166 23.615 30.6192
2872 1 5.60437 29.6 27.72
3611 1 9.16344 22.5763 27.7839
5363 1 6.39878 25.8769 20.1993
7398 1 11.4971 29.4009 20.0429
4046 1 15.6544 24.5978 21.2434
5324 1 11.6716 21.9455 29.0062
7544 1 13.5746 28.5748 29.7161
517 1 16.9305 27.6913 26.8437
3865 1 10.4482 28.2404 26.2373
892 1 13.9674 27.4735 26.1641
6783 1 7.10686 23.0635 21.0242
371 1 14.0827 30.4281 31.862
4286 1 11.1634 30.6786 25.0183
6826 1 12.7937 20.0549 19.4442
5610 1 5.37188 30.1203 23.2675
5783 1 9.29059 24.6738 29.8648
7644 1 17.63 31.1343 27.5467
2165 1 17.349 27.915 22.661
3476 1 9.18888 21.6729 19.4235
2328 1 15.1618 22.2317 24.9061
3977 1 13.9668 25.9546 28.6286
3507 1 18.0125 21.7373 28.5704
2338 1 15.502 19.416 27.2781
2946 1 8.16746 25.5145 24.1979
2917 1 11.5176 22.1704 21.0
2764 1 7.77746 28.5185 30.5143
3488 1 8.40399 29.1498 27.8075
4982 1 8.44581 28.3107 24.0504
4320 1 5.16596 22.2309 19.2054
135 1 12.9089 19.8239 23.1894
6535 1 6.77329 23.8007 26.4302
825 1 5.60251 31.8479 29.5737
2691 1 10.3643 30.872 22.4107
1686 1 12.723 21.0143 25.6702
2278 1 14.1888 28.8463 20.4648
4472 1 13.8253 24.7044 31.1536
3291 1 18.3045 25.3694 29.1039
5364 1 14.6237 30.9696 22.5256
7014 1 10.83 27.9862 22.4335
2745 1 14.7939 26.8557 22.6777
7811 1 10.5518 29.0185 29.9158
2397 1 6.93586 28.6221 21.3654
5465 1 17.7333 19.6984 30.6927
7629 1 7.3244 20.7119 28.6994
2228 1 9.94326 20.1895 30.188
3846 1 5.65867 26.1873 23.1029
7995 1 9.0451 26.6637 20.9937
1777 1 5.43303 21.225 26.7552
3244 1 12.7178 23.6598 18.889
3380 1 16.5181 19.3991 19.8704
1066 1 13.0984 29.0232 23.8795
559 1 14.8851 19.3482 31.1814
7256 1 9.04389 26.5172 32.158
5376 1 14.7442 20.8793 21.4702
4978 1 12.3256 25.682 21.7399
5755 1 5.08394 20.9342 22.9759
7946 1 11.3445 23.3754 31.5216
1416 1 13.151 26.4689 19.1286
4525 1 6.65968 24.9464 29.3173
6352 1 12.7887 29.8609 27.2512
3998 1 8.52319 22.4396 31.5096
2367 1 11.2233 31.6861 28.7224
4014 1 7.92737 31.2718 23.6507
718 1 7.21675 20.0767 21.1229
1063 1 4.49656 25.6911 26.4216
6445 1 17.7737 23.1015 25.1361
2709 1 8.8935 21.8937 23.8387
7639 1 14.4485 25.0432 24.8633
7006 1 16.5355 20.1936 23.4953
4539 1 7.14075 19.9984 24.9299
3347 1 17.2979 30.7415 21.9742
1774 1 6.38531 25.4952 31.9978
318 1 8.74553 30.389 20.1372
5657 1 9.13606 31.6665 26.8477
1007 1 15.7407 29.4272 24.7784
735 1 14.9696 31.6519 26.5386
7211 1 8.12074 31.4957 31.1179
4966 1 18.0796 21.6291 19.1191
7958 1 11.8703 26.8187 31.3456
1681 1 18.0063 20.1956 25.9197
338 1 18.0657 31.0194 24.6399
3067 1 11.6122 20.553 32.4857
6379 1 10.5308 30.5498 32.3182
4519 1 18.2081 24.1469 22.2601
984 1 14.7729 18.3584 24.7761
2142 1 12.3198 18.456 30.8383
7466 1 10.2348 18.3248 27.9873
5200 1 7.48509 19.1468 18.4012
1594 1 6.41293 29.5768 41.3347
2482 1 4.17383 28.8766 34.5839
1344 1 16.1763 21.9834 39.1762
4593 1 8.73302 25.9831 35.9435
1380 1 17.6139 30.8611 41.9489
1003 1 7.31697 20.1775 36.061
1578 1 11.8328 18.6744 40.8666
1980 1 10.1936 25.6457 42.9717
6395 1 6.7948 29.0344 45.1489
6502 1 17.1033 26.9526 40.0477
3025 1 15.5197 18.6325 43.6401
7388 1 17.2444 26.5405 36.0263
4107 1 12.9286 32.4375 34.789
87 1 10.2072 19.446 45.7386
3037 1 15.9524 25.7403 43.3712
4547 1 4.95166 31.1367 39.5776
5275 1 8.46569 28.6849 36.7233
5369 1 8.64262 22.8721 37.7356
4114 1 16.6015 23.7193 41.3833
1838 1 14.6025 27.3533 41.4807
5430 1 7.54973 31.0599 43.5066
1645 1 5.83325 27.1738 39.8241
2008 1 17.0238 24.296 34.3175
6635 1 8.82777 30.0942 39.8956
927 1 5.94326 26.7565 43.6474
7315 1 14.0293 31.6804 37.311
4384 1 15.6908 24.9159 46.1065
1081 1 8.29002 18.987 39.7654
6002 1 13.2863 22.2539 39.1532
5282 1 14.0716 27.7072 32.9947
3279 1 12.54 19.2173 43.7448
994 1 7.43161 21.7961 42.3704
969 1 8.18179 24.2087 33.7177
7481 1 14.5726 21.9805 44.1556
2969 1 7.65283 25.4347 38.4934
4967 1 14.0326 29.065 46.1015
4537 1 16.7988 28.4172 33.6862
3874 1 8.25192 18.47 43.7477
7652 1 6.58483 22.9277 35.6546
7600 1 12.5334 27.0946 43.332
5218 1 11.0281 27.1441 34.1683
363 1 13.9839 28.1013 38.6598
5879 1 17.6913 31.7108 44.7349
3659 1 9.85257 32.2173 44.6685
4457 1 15.2289 19.2076 36.9507
7362 1 12.3796 29.7361 34.2087
5529 1 12.0757 18.6517 34.5774
6404 1 17.2703 21.8249 43.4239
1293 1 5.32675 23.6825 38.9328
2620 1 8.57028 28.8167 33.7906
4134 1 17.5409 29.3587 36.5626
6389 1 9.36331 27.6225 44.8377
1316 1 17.8292 26.9537 46.4962
6461 1 11.816 30.512 39.5332
5524 1 9.7872 20.0451 37.7939
3677 1 10.4873 22.0386 39.8764
335 1 4.81696 20.7369 41.5115
6254 1 9.87327 29.2794 42.402
6173 1 16.0622 20.2263 41.3544
4672 1 11.9197 27.1633 37.0429
7081 1 14.6503 29.3602 36.2387
557 1 16.2835 19.6492 34.4523
4952 1 6.16847 31.0464 35.2846
1486 1 9.61046 20.1272 41.8755
4477 1 5.36841 25.3432 36.7593
4162 1 14.8488 29.8975 42.6902
4326 1 15.4788 25.6443 38.0099
958 1 14.1734 26.5079 35.4853
2396 1 16.9913 32.0447 37.5746
696 1 5.74832 24.7439 41.4914
5698 1 10.8246 21.7729 43.9043
3033 1 13.3426 20.945 35.8408
6220 1 12.2676 29.9543 43.986
6281 1 6.84873 21.4479 39.4769
6552 1 9.06257 20.719 33.8936
5819 1 6.53912 20.5948 44.6343
3885 1 14.0409 24.1551 33.8556
1352 1 13.5653 24.6046 44.3481
3715 1 8.41311 21.5135 46.459
3509 1 12.031 23.5428 42.0514
551 1 11.7521 27.9264 40.6562
1246 1 5.66599 28.3065 37.1466
6618 1 14.2047 21.4358 33.1445
4535 1 10.9286 24.4913 37.0719
3330 1 7.14548 30.7239 37.8545
1487 1 11.0217 29.8547 36.8485
4863 1 12.5313 19.6307 38.226
4469 1 8.58568 24.1225 40.9888
351 1 6.72269 24.04 44.0452
6558 1 6.46486 26.9178 34.618
5178 1 11.1959 25.1483 39.8501
2644 1 9.39627 23.9165 45.0938
3398 1 15.6737 31.2211 34.1843
5777 1 4.41953 22.625 45.0101
4979 1 17.9342 20.3243 37.5606
3518 1 16.4184 28.3618 44.4826
4676 1 5.10574 20.9 34.3198
2673 1 17.62 22.9691 45.9709
4894 1 15.9567 22.0461 36.1308
3193 1 13.6692 23.7544 36.7688
1962 1 11.1429 31.9059 42.0575
1678 1 11.9233 27.3246 46.2333
229 1 10.6964 21.87 35.7615
6817 1 13.3064 21.0165 41.7712
5075 1 8.08241 27.0632 41.6563
2808 1 14.5997 30.555 39.9047
7662 1 9.42547 27.4538 39.0747
3092 1 10.4179 29.8968 46.1552
5875 1 14.0485 24.7929 40.3799
6716 1 8.98063 31.4814 34.5949
2944 1 17.2994 29.7337 39.465
2622 1 14.0248 32.2183 44.0747
3268 1 14.1928 19.8988 45.9831
1004 1 11.2035 24.2024 34.0664
4582 1 7.40424 25.9099 46.1606
683 1 5.33492 19.4472 38.0874
1030 1 17.8675 24.312 38.84
5096 1 4.64082 23.2455 32.8414
1382 1 4.17595 21.9072 37.0283
3646 1 17.3182 21.6852 32.6994
684 1 17.9986 19.4512 44.5166
2470 1 6.26792 29.9286 32.6266
2967 1 7.28097 32.3402 46.1967
189 1 14.6678 18.4042 39.7538
5230 1 11.7543 24.5509 46.5501
2992 1 12.0199 21.632 46.5668
5637 1 17.1701 28.865 49.4594
328 1 8.535 21.2202 55.5006
7173 1 14.808 32.3852 46.9961
3415 1 15.0346 29.3847 57.047
3902 1 8.75562 24.8867 51.4295
6718 1 16.3177 31.2768 59.4819
3740 1 13.4786 31.4802 58.633
5590 1 10.0679 21.8075 48.6461
819 1 16.3661 24.3403 53.6646
1305 1 10.9841 23.1833 58.6477
5915 1 10.7228 27.7354 58.3116
167 1 9.3491 25.9401 60.095
1922 1 12.5048 26.031 52.7105
1042 1 8.54701 24.2335 57.7464
6926 1 6.2524 23.8884 56.2935
5049 1 13.0902 22.8154 54.098
993 1 4.33565 32.0206 47.172
983 1 14.6559 19.9787 49.5139
5406 1 14.678 19.2752 56.2778
3252 1 5.62825 26.7701 56.2698
5347 1 17.5412 27.051 53.5647
6749 1 12.1996 18.9503 57.7523
7736 1 8.34814 26.8831 57.0041
1272 1 7.47194 29.4477 54.1757
4058 1 11.7421 21.5251 56.4307
7933 1 13.5079 28.4887 53.6025
6842 1 12.5792 30.9764 47.8068
3438 1 16.8417 20.8119 58.8112
6107 1 6.76219 18.8006 58.6174
7772 1 17.61 32.2065 51.8621
5262 1 6.59747 23.3328 50.5851
133 1 14.5809 21.9747 57.1671
1169 1 6.7638 24.6287 59.9633
2962 1 12.4631 25.4285 58.0654
6944 1 17.8411 26.8215 57.0042
6441 1 6.93312 27.0194 50.7449
2736 1 6.62597 19.8832 48.0841
602 1 4.55594 23.8632 47.6496
7790 1 15.3778 27.28 55.3966
280 1 14.2658 31.1869 52.6329
1875 1 11.4366 31.46 56.6635
645 1 12.2596 29.3935 60.1401
145 1 7.23145 23.7276 47.907
992 1 16.6913 21.1655 55.2734
2516 1 4.43449 27.2027 58.8383
3575 1 11.7516 25.9595 55.3491
2911 1 16.9802 25.3882 49.4002
2360 1 9.83861 23.6796 55.4141
6859 1 15.9349 31.5856 55.6777
3512 1 10.348 29.9889 54.5061
7456 1 6.31852 19.8219 52.3875
3724 1 13.2718 25.5259 48.9871
7130 1 6.13658 31.6167 59.4936
2109 1 11.6347 29.9942 51.8285
7020 1 7.79494 29.9683 47.6628
3835 1 9.3178 18.9983 57.2746
430 1 5.13616 22.1541 59.9793
7691 1 4.90768 26.7698 47.0601
6691 1 15.4729 31.0917 50.171
6706 1 8.42996 31.282 56.3139
6844 1 15.268 27.2242 47.9835
6729 1 15.562 25.448 58.3078
1567 1 4.5934 18.8355 50.1098
3052 1 11.1758 27.3345 49.0848
2510 1 14.8185 22.6686 50.2521
7657 1 7.69096 25.0353 54.088
7150 1 10.7302 19.5542 54.6381
3541 1 5.74884 30.4997 50.9384
1481 1 7.46443 22.3382 53.1525
7358 1 14.3233 19.6728 59.9344
7982 1 10.3095 30.0251 49.2493
182 1 6.86596 27.4626 60.3868
386 1 4.95629 22.5826 54.0553
2269 1 9.65917 20.9392 59.4109
1189 1 8.44918 27.2424 48.3819
6156 1 5.63591 32.1939 56.7757
3728 1 10.3351 27.3936 51.7524
4104 1 9.90873 21.1514 52.3417
5792 1 18.1829 25.7703 59.6664
1705 1 13.5964 28.8967 49.6972
6590 1 13.4674 22.2634 59.6913
7649 1 11.9706 23.0118 50.2317
449 1 8.22966 29.3954 51.435
3830 1 13.3826 20.0028 53.5938
3655 1 17.2221 23.3557 57.2
7866 1 17.6297 22.6589 49.5615
3828 1 14.9 25.3335 51.3705
1124 1 15.3285 21.767 52.753
6751 1 9.39891 27.2681 54.5222
588 1 15.61 27.9075 51.6451
7178 1 10.8703 23.7182 52.7867
3918 1 17.8474 29.4946 57.7815
4133 1 12.385 28.7451 56.1789
6840 1 10.7993 19.1259 48.838
4303 1 5.19933 29.6372 55.9346
6347 1 6.01248 26.9971 53.4437
7372 1 11.6369 19.1857 60.5275
3266 1 14.7426 27.9997 59.4129
3321 1 14.3487 24.6589 55.8438
4652 1 7.25506 29.3342 58.1324
4088 1 9.84266 30.4598 58.883
220 1 16.7684 29.8806 53.292
1110 1 5.59012 20.4413 55.7643
1607 1 5.04581 29.3797 48.2812
964 1 12.2979 20.1062 51.0128
752 1 17.3722 18.4078 47.1698
374 1 7.31137 21.5683 57.9978
2888 1 16.3635 21.1087 47.5272
6362 1 14.1392 23.1931 47.5701
5128 1 9.77998 24.6552 48.8222
1082 1 4.45189 21.6661 51.2537
5388 1 7.96262 20.815 50.2094
1340 1 6.68615 32.0284 53.2961
3852 1 9.3806 31.8845 52.4286
101 1 17.8516 20.7506 51.7251
3878 1 9.24958 18.4006 51.0692
1964 1 4.25273 24.3472 58.2664
5731 1 16.8139 18.6291 54.3939
2898 1 16.6278 30.2106 46.7868
482 1 6.89485 32.4285 49.0733
1984 1 4.25553 27.1357 49.8002
5173 1 16.596 18.4086 50.511
1709 1 12.65 32.4577 50.399
2454 1 12.981 26.0193 60.8165
6697 1 10.3883 42.5248 17.1079
46 1 6.73605 41.6883 5.54615
1470 1 16.9066 33.6997 10.5207
4564 1 13.6393 34.0565 17.7905
21 1 9.82797 33.5374 6.75519
3090 1 7.07295 34.598 4.19966
98 1 10.6867 32.8358 12.3168
5455 1 10.0051 41.6454 11.3174
818 1 7.62124 39.228 8.28039
6010 1 8.91693 35.0612 13.1081
2351 1 7.8681 44.5845 7.23831
6995 1 11.2146 39.2348 12.2301
7693 1 7.47029 40.3775 11.7216
2456 1 16.6267 32.5747 6.21521
5754 1 5.05251 40.3158 7.60527
813 1 5.84512 45.3483 5.31464
7005 1 11.5361 38.2291 4.68525
3331 1 14.5217 42.1713 12.8759
7695 1 6.07279 36.9648 12.1626
4567 1 16.4426 38.5175 14.9814
4281 1 7.85543 37.3475 17.2544
1664 1 5.08948 42.7639 13.4185
2006 1 12.3697 37.2258 16.655
6040 1 11.5752 44.4325 15.3204
6993 1 14.7942 37.243 9.77728
1493 1 14.055 39.3117 12.6256
7577 1 12.7723 33.7062 6.81991
4688 1 16.8005 40.1476 12.743
601 1 14.2058 32.7872 13.3745
1006 1 16.0316 44.5136 10.4571
1054 1 12.2249 42.3941 6.09471
4103 1 13.1035 33.9392 11.0361
3547 1 7.75669 32.535 15.7413
7659 1 14.3326 41.5066 8.03664
1957 1 8.09851 35.6882 10.4742
1161 1 15.8367 43.9252 7.65575
118 1 6.86992 36.0209 14.8633
7813 1 13.4684 43.1696 10.2899
7181 1 17.0382 35.3287 7.27222
2696 1 13.7441 40.2288 4.65215
1341 1 6.15666 45.2377 12.7271
6339 1 16.1457 41.6019 10.2692
6300 1 7.71458 36.4556 7.85818
6432 1 8.62046 43.966 11.9368
5682 1 10.5969 39.1327 8.16036
3790 1 17.654 37.3062 12.6328
3658 1 13.4173 45.4499 8.38278
5555 1 9.40821 45.9311 14.0145
4024 1 5.19101 33.6055 15.2318
1471 1 16.1007 34.8436 12.8778
4955 1 5.61851 36.8443 5.81472
5703 1 5.45318 34.2019 12.3296
2431 1 17.8305 37.1741 18.1716
2836 1 11.2617 41.8908 8.86089
7500 1 7.96046 42.1051 14.0585
6805 1 15.8155 35.8396 15.5465
4785 1 7.72203 38.5161 13.8821
1480 1 12.6383 45.2604 5.63662
196 1 10.0582 44.1275 5.50673
6195 1 5.94794 45.7524 15.4773
1544 1 5.41294 39.0344 10.1681
4325 1 17.0797 43.0286 13.9166
6451 1 11.3174 44.7872 11.2623
5160 1 9.94355 37.6618 15.3375
5809 1 4.16543 34.407 6.71045
5811 1 10.3698 40.6094 14.7615
4746 1 12.7319 36.3001 8.07355
5591 1 11.7782 42.6582 13.3019
3389 1 10.1796 40.548 5.70535
590 1 14.4927 44.5732 15.7021
6333 1 11.4104 36.5068 13.2765
5300 1 10.6483 44.6691 8.35198
136 1 6.87485 42.7803 10.0534
1204 1 5.41143 44.6832 8.77548
6022 1 15.5655 37.621 6.21199
284 1 16.5788 45.5167 5.3834
6794 1 14.7911 34.4702 8.84238
2589 1 17.6024 39.3025 5.27874
7437 1 11.1683 32.8512 15.073
2839 1 10.3054 36.5263 6.72192
6915 1 16.4442 33.5558 17.5297
801 1 14.7786 36.6464 18.2426
2771 1 17.8083 33.1784 14.8063
7271 1 17.5956 41.8581 16.3869
1363 1 6.19696 40.2329 15.451
2577 1 12.9701 39.4832 9.89676
2468 1 13.1979 38.8913 7.06349
7977 1 5.87364 33.7304 9.63711
7675 1 4.48722 43.067 6.61738
6242 1 4.26612 42.1504 16.0755
1259 1 9.31653 34.9944 16.203
6019 1 16.1333 41.7682 5.7644
620 1 4.27916 37.2639 14.3286
2915 1 8.32872 44.2039 15.9405
4968 1 14.1005 36.5526 12.2712
6849 1 4.35355 41.6261 10.8801
5928 1 17.3584 45.2699 15.8744
3798 1 4.90322 36.5089 8.75057
17 1 8.34656 41.8567 7.83144
1707 1 14.6093 41.7388 15.9333
3314 1 12.9836 39.6575 15.1928
3224 1 13.0353 34.8724 15.0354
7867 1 17.6413 36.3614 9.90624
2131 1 13.3836 35.96 5.15462
5457 1 9.03667 38.3139 10.5684
5839 1 9.95889 33.6238 9.61425
4787 1 11.0795 36.2048 10.2865
833 1 14.93 45.1285 13.0075
5185 1 16.3649 39.3617 8.47933
5645 1 7.72455 38.9701 5.38534
954 1 9.62594 39.761 17.4683
3678 1 7.05304 33.8184 6.9811
7690 1 14.7556 43.8299 4.14387
5068 1 6.07572 43.5868 17.5602
4212 1 5.05289 38.0729 17.0558
6613 1 14.9906 39.3946 17.2825
305 1 7.23502 40.8267 18.1308
7968 1 13.0727 42.2945 18.3002
7844 1 12.3299 46.4946 13.3895
3029 1 9.1533 45.8041 18.1374
4930 1 11.8772 45.0218 18.2014
5929 1 18.0861 44.067 18.2366
4719 1 14.4201 45.9587 18.2831
3304 1 9.20062 36.6396 4.15217
3383 1 16.9222 35.1971 24.5624
6523 1 6.59628 34.0985 27.8175
6292 1 10.1609 46.1416 22.5768
1693 1 17.5169 44.1793 24.4098
7267 1 9.29973 38.4533 26.3385
1584 1 14.2561 43.3135 22.1243
1764 1 16.9836 33.5872 22.1428
7856 1 14.6249 32.8298 29.3525
440 1 8.60471 43.1326 19.3355
1885 1 9.1452 33.6087 24.7802
3929 1 10.3599 41.8281 23.5432
2850 1 4.26067 36.1109 24.2133
4403 1 13.7376 32.7111 20.3997
5751 1 16.6588 34.6342 28.2839
4222 1 16.0985 36.3965 30.4324
4186 1 15.4516 44.0228 30.5729
6468 1 4.82983 39.5948 22.5865
857 1 14.8245 33.2302 24.1627
2813 1 15.4839 41.0102 27.8921
7113 1 10.2515 42.9311 29.6261
5496 1 10.1948 32.6042 19.1618
4265 1 9.83834 37.3187 28.9615
587 1 15.0147 38.1722 25.9652
3814 1 9.10994 45.2922 28.5421
1816 1 4.22758 33.6912 19.0462
5791 1 8.73589 35.9981 23.078
6271 1 5.33108 45.5355 30.5213
1445 1 10.583 38.0424 22.7668
4694 1 14.0383 41.2437 25.4665
7135 1 10.6123 42.1333 20.8398
60 1 7.65293 43.6903 30.5919
6485 1 12.7317 36.5185 28.064
4951 1 16.5961 44.9094 26.8742
3800 1 4.23098 42.6359 19.607
868 1 13.1824 40.889 20.8847
6957 1 7.92541 35.9753 25.9004
7731 1 5.93836 42.5271 28.6028
5888 1 13.9121 38.2476 20.457
4018 1 10.1666 39.2786 20.3253
3528 1 17.6466 46.1503 30.1265
7586 1 15.3018 43.5885 19.3379
2833 1 8.62803 34.1696 20.9461
6139 1 8.40995 43.9988 23.3416
1649 1 5.0283 39.7254 19.5734
7039 1 6.70702 41.5531 24.064
4375 1 10.3384 35.1132 27.1064
5025 1 6.37425 45.9841 24.2558
3078 1 17.832 38.1037 29.0435
2230 1 9.39703 40.1801 28.5368
6219 1 8.47124 38.3074 31.3958
2471 1 9.01912 33.5629 29.2769
603 1 14.7676 38.5603 23.1793
7907 1 13.7855 44.0024 26.8265
4773 1 5.97122 35.9228 18.8178
4789 1 17.4847 37.3074 23.0438
6588 1 5.66609 45.1269 27.6424
1184 1 17.7016 39.3747 26.478
2044 1 16.8182 41.3502 24.6408
6565 1 6.56439 37.7615 24.0427
3139 1 8.69885 39.6483 23.8235
7519 1 6.42284 39.2506 26.5144
679 1 11.8549 36.0985 20.9848
6098 1 12.0913 38.4582 25.9628
3065 1 6.59014 42.8083 21.4359
2749 1 13.8826 35.8495 23.0927
2806 1 11.3861 36.0943 24.5028
317 1 6.31184 41.4527 31.9079
11 1 10.5717 35.3594 31.0475
7971 1 6.82338 36.9017 28.4498
106 1 4.47222 44.5418 22.6648
2110 1 10.2966 40.4018 31.2003
3650 1 17.1874 43.7355 21.692
3942 1 12.0805 40.9504 27.4317
1262 1 7.54482 40.1535 21.1504
6983 1 16.612 32.7936 31.6615
2685 1 4.55047 37.6637 29.8444
3960 1 11.3858 33.4345 21.8073
777 1 12.2875 38.9974 29.5658
7474 1 14.5238 40.4853 30.6691
769 1 7.81486 45.4552 20.8787
6262 1 6.64623 39.7988 29.5261
5312 1 12.8118 33.5701 27.3038
7581 1 15.1142 35.2676 20.684
2442 1 16.9282 38.4706 20.4586
4351 1 12.4196 39.9097 23.602
1446 1 18.2999 36.5296 26.5884
6029 1 7.75448 41.8656 26.6326
6456 1 13.3495 42.6769 29.3384
7464 1 15.9051 40.9007 22.0479
1642 1 12.5567 43.4086 24.3874
2990 1 8.1868 44.6316 26.038
496 1 12.3779 45.572 29.7912
3223 1 13.3482 35.2443 30.6251
6449 1 16.9374 41.7026 31.2681
661 1 14.9166 38.2503 28.8149
7490 1 12.0204 33.2104 24.6071
4360 1 10.4433 42.9366 26.2755
845 1 5.19305 45.4328 19.7001
1934 1 6.83651 37.1727 21.1114
268 1 17.9742 35.4041 32.3622
4272 1 11.9544 44.627 20.9828
3362 1 4.64943 35.4098 31.652
4374 1 14.7529 35.3636 26.3652
7276 1 9.27257 36.7795 19.631
2893 1 15.0422 46.5234 29.0616
6453 1 11.5465 45.661 27.1786
1758 1 6.2122 34.1335 24.794
4934 1 17.4496 42.8074 28.5305
2063 1 17.753 34.7614 19.6406
2584 1 4.38317 39.2986 32.346
6634 1 6.18921 33.1786 22.0051
5408 1 15.0857 45.6245 23.6533
5147 1 5.12774 32.7251 32.3442
356 1 7.58164 35.6263 30.9039
6134 1 16.6724 40.9163 18.9999
5416 1 4.48848 35.5205 21.4381
7758 1 11.0862 44.1347 32.1658
2783 1 13.0625 37.6664 32.0947
7184 1 12.2472 39.5378 18.5374
61 1 12.3581 46.3179 24.4219
778 1 18.1965 46.1095 20.2814
5578 1 15.7702 38.6403 32.4546
7999 1 11.1384 35.1596 18.3534
4246 1 7.59261 33.7662 18.3737
6885 1 10.3984 37.1973 33.0133
2151 1 13.7135 36.3407 34.4698
1281 1 16.4128 42.1424 41.1395
6571 1 15.4849 46.3159 45.6402
1737 1 9.53931 46.5304 35.335
4931 1 7.73163 33.6487 33.1238
2415 1 7.89504 39.7419 33.9218
1999 1 16.0445 39.4001 41.4831
7249 1 5.55239 41.3224 44.9183
4428 1 8.15535 44.1649 36.127
2660 1 8.28822 38.412 42.1756
6459 1 10.51 32.6322 36.5709
5803 1 9.47293 36.8192 44.5019
3875 1 16.5468 36.6801 34.4968
4363 1 7.95335 41.9481 43.4577
6815 1 5.21579 44.8533 36.3249
7066 1 6.1797 33.6436 39.9323
6916 1 15.4526 32.7954 41.5842
3544 1 6.07831 41.6318 41.427
591 1 13.6063 34.5504 36.7343
194 1 16.8213 39.2652 36.0226
5 1 8.02972 33.2733 37.6653
6917 1 12.9543 33.974 41.3278
2988 1 9.65666 40.8124 41.3531
4195 1 18.1496 39.9736 45.3586
2309 1 16.4608 46.4969 35.933
6668 1 10.0181 46.3976 38.9481
2239 1 7.56483 35.968 41.0251
5497 1 6.40232 37.4434 33.1307
2740 1 6.15199 44.0465 44.0985
2095 1 4.55027 36.8312 35.4198
1437 1 11.8371 42.3372 40.0821
3368 1 17.9548 35.7694 36.7588
2040 1 16.2953 36.7805 42.4029
5718 1 8.22675 34.478 43.4437
1734 1 14.2025 39.2098 39.265
4445 1 5.35071 42.5351 38.0807
4307 1 11.5761 39.9336 38.3532
7342 1 9.40307 43.7546 41.455
3228 1 13.9651 36.6624 40.6187
7610 1 10.8736 46.2452 41.7931
7068 1 7.17049 46.2564 37.9614
4372 1 12.0595 44.264 37.7533
3889 1 11.3112 40.5041 43.5686
6550 1 11.7467 44.7594 34.9323
1013 1 5.09458 36.6372 42.1548
4825 1 6.90947 41.5174 35.9364
1530 1 8.89481 39.6484 44.8051
4888 1 11.0414 35.3026 35.4512
348 1 8.39605 35.0593 46.4546
7637 1 13.4081 40.3976 41.7749
333 1 15.5094 40.3237 44.1241
5733 1 5.04614 35.1892 37.7064
431 1 5.98409 35.7861 44.7648
38 1 11.9641 34.2978 44.5225
6429 1 16.6713 36.7543 46.4477
846 1 10.7584 35.5764 42.3689
2496 1 14.1573 43.6313 45.8505
8 1 8.70614 45.3558 43.6254
1653 1 8.99917 42.3617 32.7981
5939 1 14.7284 37.6577 44.5643
2579 1 10.3448 42.2163 35.4107
6539 1 10.9646 39.7964 34.1512
4449 1 8.26816 35.9828 34.6639
537 1 15.4935 36.0509 38.2169
5631 1 15.5049 42.1874 33.7363
5752 1 11.5604 43.3367 43.45
741 1 11.3606 38.0644 36.3516
3797 1 17.4483 44.1935 32.8783
764 1 9.07592 40.7992 37.6365
4586 1 7.30015 44.5381 33.4263
851 1 5.00611 42.8919 34.1664
6251 1 9.73236 34.47 39.9074
4813 1 12.0671 33.2319 38.8321
438 1 14.4529 34.161 32.9882
3372 1 13.0591 41.7306 36.4976
6277 1 8.4355 38.3466 36.3835
5706 1 6.97519 44.024 39.8934
3292 1 17.9924 34.2076 46.1886
6744 1 6.9306 37.2552 38.5612
7919 1 14.1422 38.0892 36.7079
6125 1 14.5848 42.1423 38.9629
4233 1 13.9475 44.5349 32.9033
1260 1 14.3542 35.0502 45.9419
383 1 6.3247 33.8036 35.5035
3734 1 12.3446 37.9081 42.7513
3962 1 9.12005 35.8477 37.4732
2406 1 14.3225 42.9124 43.0928
6888 1 14.9886 45.0934 38.8662
7087 1 16.9536 42.6445 45.2485
6614 1 11.9203 36.1424 38.6001
1329 1 4.60746 40.2454 39.4541
6472 1 16.8214 38.4858 38.8817
1668 1 6.59527 46.0006 41.8677
3071 1 7.45042 39.7982 39.7803
1908 1 5.68176 39.2376 42.9896
1820 1 9.52833 43.1766 45.4348
337 1 12.1358 36.9184 45.4733
388 1 14.5243 44.3807 35.846
1786 1 13.1553 44.6456 41.114
4275 1 5.52526 39.1358 36.8604
4488 1 13.9139 39.9159 34.5107
1427 1 13.1169 40.8387 45.7531
2814 1 17.135 44.9693 40.6695
1171 1 10.529 37.9499 40.4138
4393 1 9.33289 43.3943 38.4562
5323 1 16.1877 34.273 43.8199
4473 1 16.7734 34.0072 39.6542
894 1 10.6961 33.4621 33.1862
6607 1 11.7161 45.1751 45.6365
120 1 5.58931 33.1185 43.9417
1697 1 16.1063 41.9915 36.6063
4926 1 16.4395 44.8132 43.512
3772 1 6.39567 38.4526 45.6116
1037 1 16.1013 33.8905 35.4081
2899 1 8.40706 32.5199 41.2835
1256 1 17.9959 44.0631 35.6889
6820 1 17.7818 41.2592 38.7527
1723 1 17.8738 40.4406 33.6881
3848 1 18.2929 36.4606 40.385
7146 1 4.20812 46.6597 38.3142
5652 1 4.15701 44.308 39.9504
6272 1 9.35681 46.4422 32.5035
5562 1 12.6995 41.7661 32.565
4687 1 8.01413 33.3984 58.3754
3832 1 18.2655 37.4339 48.7051
2877 1 16.3207 45.7634 57.7634
6682 1 10.3337 40.3132 58.8286
5240 1 9.74658 32.7721 49.6679
7188 1 11.7201 42.846 47.3992
2304 1 5.40086 39.6899 60.4414
4093 1 11.0541 42.4052 55.9437
3312 1 9.13536 41.0897 47.3329
6313 1 4.22329 42.1762 59.1442
790 1 16.8694 44.3567 55.1345
4405 1 7.85481 42.7206 49.3089
5725 1 16.4552 36.4154 57.3427
6654 1 10.9203 33.4218 47.1076
915 1 10.2888 35.3308 50.7782
1635 1 8.7308 44.8842 47.6993
7769 1 5.17542 45.8265 49.2353
1703 1 11.5041 44.2907 53.6985
4505 1 10.2742 43.6361 58.3164
5925 1 10.507 34.0979 57.4189
7206 1 6.26419 46.1145 55.4291
614 1 12.1385 36.4319 56.5704
2207 1 4.75032 38.9256 51.7483
5086 1 7.06127 35.7928 57.2561
309 1 11.2981 45.3033 49.0549
7795 1 5.07071 46.3844 52.1057
7959 1 13.5697 41.706 54.7266
593 1 5.74545 36.1995 49.8778
803 1 13.9389 45.8587 51.3297
730 1 11.6081 35.9035 48.2336
6377 1 9.61759 36.6669 58.0398
4146 1 12.1126 38.2034 58.7621
4616 1 16.4138 39.8061 56.3893
5904 1 12.0198 37.3118 51.8027
6620 1 8.42227 37.7835 55.6759
4087 1 14.477 36.9394 59.4673
7475 1 10.0751 39.594 51.6372
4757 1 5.68798 36.7082 59.6849
6702 1 5.72633 41.806 47.6245
3653 1 10.1728 43.1136 50.659
2952 1 15.8975 45.3591 48.4598
3269 1 11.275 34.8787 60.2544
184 1 11.1691 40.6424 49.2609
6680 1 16.7915 40.3365 50.8645
1600 1 4.81148 36.4017 54.2015
2138 1 7.13211 40.7683 53.9039
7015 1 5.38007 43.081 53.969
1641 1 6.97248 37.9303 53.315
6782 1 13.9493 35.7697 52.9273
5380 1 8.61416 45.1049 51.7556
2139 1 8.97075 42.2582 60.5104
6407 1 9.40692 32.6282 60.8293
5170 1 14.9339 39.0432 47.3111
3702 1 5.785 34.6749 47.5432
1621 1 4.78912 43.8859 56.6388
4754 1 14.1068 40.7391 49.6425
7199 1 13.7599 39.4527 52.4993
7401 1 7.66403 43.1803 57.2811
5835 1 6.61096 34.3777 54.9618
29 1 13.3471 34.433 58.4174
5732 1 7.1171 39.2627 48.1769
3843 1 8.74623 40.6223 56.2694
3255 1 18.0264 43.5806 49.24
378 1 16.8963 45.8688 51.2959
5546 1 4.55073 40.5134 55.3429
1078 1 6.08069 43.9504 51.1978
1640 1 15.4091 36.774 49.2043
3034 1 7.36789 40.3074 50.8943
5984 1 6.14458 40.6966 57.699
2185 1 13.9443 34.4894 48.7792
6936 1 13.8404 44.3143 58.2085
2343 1 12.9103 38.1401 49.2056
807 1 17.9189 38.2649 59.3064
5906 1 8.26041 37.592 50.6762
7609 1 13.7452 43.5862 49.5154
2248 1 4.47115 34.5739 58.0692
2330 1 6.47965 43.5555 60.0089
5916 1 9.13641 37.3918 47.9886
6912 1 16.1306 40.9495 53.6328
4682 1 16.1691 33.6021 57.7749
1177 1 7.88025 38.8567 59.1552
4636 1 15.1367 33.7637 51.3259
4461 1 15.3696 42.4254 56.7867
5229 1 17.8895 35.9869 52.7813
4987 1 13.0897 38.8755 55.2646
3063 1 4.6044 38.5259 48.8361
1716 1 13.0428 40.6929 57.4507
7949 1 10.5544 39.341 54.3488
5286 1 15.7529 42.469 47.7805
6958 1 11.6717 33.8233 52.7997
4545 1 12.6536 42.1697 51.8539
7753 1 11.0562 39.1119 46.9675
2637 1 15.2829 39.7555 59.0207
3296 1 14.3553 46.1941 55.647
3722 1 11.1483 46.3556 51.7131
4101 1 6.13184 34.0243 51.205
5931 1 17.4432 40.0975 48.1314
4180 1 9.37662 45.8724 59.856
6141 1 15.4457 37.5912 54.8792
4800 1 15.9827 43.015 51.4244
2900 1 6.83096 45.8314 58.3625
3940 1 9.64219 41.9601 53.2854
1545 1 16.4866 33.9408 53.975
4887 1 5.43363 38.112 56.5107
5817 1 14.4815 44.2103 53.5326
7923 1 8.07401 44.109 54.4964
908 1 17.4289 35.0847 50.0846
2853 1 14.5337 34.9701 55.8067
2102 1 8.16522 35.4006 52.7498
2829 1 12.3834 42.2961 59.8641
4066 1 16.6828 42.1712 59.5093
3264 1 9.4011 33.6088 54.7815
6050 1 11.8063 45.1881 56.5359
3299 1 15.8373 37.7615 51.7596
7515 1 10.5645 36.3435 54.2554
6448 1 18.0783 38.7663 53.7302
4164 1 17.3548 32.5428 48.426
1354 1 5.9158 44.6589 46.8867
1107 1 9.93168 46.4834 54.5787
1997 1 12.979 46.5924 59.7851
4640 1 4.32107 33.2722 60.7727
3456 1 13.2455 32.5503 54.8606
7385 1 13.3313 46.5736 47.5934
5016 1 16.8654 35.9529 60.8514
738 1 15.169 33.6304 60.8363
5824 1 18.149 46.1874 46.8797
6568 1 7.63141 53.2446 10.0556
3806 1 6.40413 55.5276 15.558
7298 1 11.6618 54.1616 10.0932
6867 1 6.55427 47.7575 11.8559
5254 1 15.5443 58.4413 16.7742
3459 1 13.8086 51.3337 6.83131
1812 1 9.20785 46.8125 11.3713
4812 1 16.559 52.2717 4.74958
4273 1 14.8458 50.1152 9.19507
4597 1 13.0194 50.7768 11.3866
3259 1 10.8306 51.4339 18.1837
5551 1 14.4271 51.2334 14.802
4158 1 6.93851 51.7221 15.2161
7477 1 4.28601 56.5479 17.1464
5136 1 8.81986 49.7056 6.03557
50 1 12.1479 49.4861 8.21099
795 1 14.2036 50.7069 17.5509
3246 1 4.61484 53.3645 14.6797
5833 1 7.59468 58.5855 8.92839
2169 1 16.0822 56.3633 13.7578
5744 1 8.60313 50.4377 13.2047
1769 1 4.72239 50.7699 5.80134
6871 1 13.5801 54.1967 12.1834
3816 1 6.11836 54.003 12.268
7197 1 4.71952 48.4376 15.231
7097 1 4.30508 60.2712 13.1158
7159 1 17.0634 54.5808 11.6396
4724 1 4.77414 54.7426 4.22069
7048 1 10.5031 50.6287 10.0629
4228 1 8.9639 60.1029 14.2874
4566 1 9.75242 52.7073 11.8116
6017 1 15.4007 47.28 9.90371
153 1 17.3291 50.8671 7.92946
361 1 10.1052 47.4059 8.62006
3142 1 16.5673 58.559 7.69912
5701 1 17.3127 57.9209 4.21945
2155 1 4.47152 56.3136 9.83614
6210 1 5.21386 50.3548 17.1006
1047 1 6.70318 50.6468 11.1918
2342 1 8.05825 49.7986 17.0779
2687 1 7.16551 55.9224 9.30283
3206 1 7.19724 51.2059 4.27766
2229 1 7.68845 56.2505 12.1721
6280 1 11.9269 60.6452 16.7835
7970 1 4.87578 50.6401 13.4773
6437 1 5.08339 59.0765 10.4342
1856 1 12.9646 59.5859 7.33143
1156 1 14.7913 56.4873 8.4534
2591 1 8.27021 56.1361 5.72026
519 1 13.2941 60.2633 10.7121
4831 1 5.79296 48.3905 7.15266
990 1 15.2522 59.6571 5.34735
4503 1 15.8445 49.6665 5.57635
2183 1 7.50103 48.1419 14.5044
6291 1 14.0042 47.7478 6.69807
6168 1 13.596 47.2234 15.8736
1216 1 8.42732 53.9192 13.9709
6519 1 16.4808 53.5659 7.36296
1369 1 6.61426 58.469 6.02522
909 1 13.1291 59.5028 13.4603
7063 1 10.2703 56.5472 11.0227
3530 1 10.8961 48.9872 12.3424
7654 1 11.1057 51.1599 5.95256
20 1 10.9219 58.4325 18.1171
6 1 15.7913 48.7939 16.007
2611 1 7.25 58.835 16.19
5917 1 16.799 51.6857 18.1115
4790 1 15.603 54.1688 17.5713
2840 1 9.79113 53.8971 16.7455
6252 1 9.98896 47.6699 16.3241
4709 1 12.0702 52.176 13.6485
4772 1 8.15671 49.6467 8.85195
7351 1 7.86108 53.2258 6.14525
2997 1 16.0122 55.6088 5.28743
4913 1 9.07834 56.6939 16.4955
198 1 9.76746 52.6644 8.30825
7365 1 16.7157 47.3647 7.38198
2034 1 12.9733 53.2267 17.8597
4382 1 7.01933 53.6118 17.4919
5595 1 10.7733 57.3602 5.25736
300 1 5.82904 55.0164 6.76814
262 1 13.5865 57.0591 15.1957
1502 1 14.5139 48.5232 12.5025
334 1 10.3172 55.912 13.777
4542 1 15.0046 53.8159 14.7192
221 1 16.0449 59.3676 13.9473
646 1 16.637 47.1694 13.9056
3680 1 10.4021 53.4993 4.52135
2729 1 15.6087 57.2055 11.1553
3689 1 6.33139 51.8143 7.97773
2420 1 17.7138 55.5461 8.95432
1608 1 12.4473 47.4135 10.3292
6900 1 12.889 56.8405 12.3059
2648 1 11.98 54.7514 6.43674
4904 1 16.0534 60.1174 11.2029
7594 1 16.2071 50.9742 12.5584
7613 1 7.40952 47.5279 4.66686
1273 1 12.1764 54.3925 15.3416
2778 1 9.9053 51.294 15.4691
227 1 10.2833 58.3491 7.9722
756 1 5.91637 57.9077 14.0312
4664 1 9.6613 55.61 8.16327
1562 1 7.67591 59.156 11.9363
4651 1 12.5849 57.7675 9.59278
3344 1 5.78561 60.689 7.71431
2300 1 15.0948 52.6452 10.4107
2393 1 13.8211 53.8556 8.24744
4210 1 12.4777 56.0712 17.7972
104 1 12.0535 49.4554 14.854
435 1 12.0773 48.9174 17.9131
5905 1 13.5889 57.1991 5.93567
6181 1 10.6086 59.405 11.9375
4105 1 4.66256 49.7709 9.44413
4974 1 11.0593 58.4202 15.2424
2614 1 9.14646 59.8133 5.72236
7310 1 4.32668 57.3187 7.22424
156 1 12.131 48.7698 4.83532
7300 1 17.7922 47.3347 11.4404
1948 1 18.2113 50.4987 15.7279
3393 1 13.8456 53.4449 4.75017
6237 1 17.6914 49.9328 10.4651
7069 1 18.0489 54.5606 16.3388
3150 1 10.0968 47.0239 5.80106
7359 1 17.6533 52.8601 14.1051
6701 1 6.73517 47.3181 17.9066
7121 1 7.17219 46.8089 9.11287
6105 1 18.1573 60.4106 5.72572
7885 1 4.23589 52.1612 11.1248
1782 1 18.215 58.2241 10.2268
1903 1 9.51878 60.7331 9.40765
7667 1 4.39405 53.659 8.77143
3409 1 15.1105 52.2325 30.1765
2363 1 9.73293 56.2534 24.8207
4666 1 7.58284 55.1685 21.6493
4406 1 11.8814 50.4929 32.4032
1670 1 13.0124 48.6407 22.9312
2677 1 6.95155 59.521 29.7397
7985 1 9.32417 60.5702 28.3977
5315 1 15.7999 58.424 29.2661
5887 1 6.06601 52.3311 24.2784
5959 1 6.87889 50.7484 29.3945
359 1 8.18504 51.6297 19.1308
3050 1 17.5128 55.6534 25.39
3257 1 15.5087 49.2121 24.2896
6150 1 17.1617 48.382 26.6002
2368 1 12.9391 59.821 26.3503
535 1 6.56569 58.3485 23.291
6418 1 9.38714 50.0471 30.8029
5762 1 5.41392 53.3779 21.6634
7829 1 8.43017 48.7753 19.7645
865 1 5.22917 56.8986 21.269
3417 1 7.4072 54.8383 24.4551
1554 1 15.4587 49.2567 29.8366
1942 1 5.74128 58.1731 27.3742
678 1 14.266 54.34 28.4474
6723 1 12.4624 48.3064 27.251
6609 1 10.2416 49.1193 22.1702
1883 1 7.3188 48.0801 22.3822
1606 1 12.2672 59.4215 20.4194
6863 1 16.9017 54.4736 29.3492
4366 1 14.8934 59.2516 20.241
2541 1 13.0054 53.7135 20.6565
6902 1 10.7221 55.7482 31.8929
4333 1 12.5299 58.1348 32.1279
2445 1 5.47083 48.3111 25.9426
7375 1 13.5111 50.5513 26.0594
3671 1 9.04284 57.6629 22.3929
3804 1 14.723 46.9251 26.0993
6655 1 10.4846 55.0146 19.5189
5903 1 16.5563 51.8788 23.7019
1966 1 7.27824 60.5182 21.6578
4131 1 17.4752 49.6572 31.9497
6605 1 7.80075 55.9334 19.0911
150 1 4.80186 51.612 31.1579
2500 1 9.076 57.6776 30.3899
1631 1 6.59406 53.9766 27.6264
5459 1 9.68288 46.8992 25.3874
1625 1 6.98214 60.0305 25.5558
1879 1 9.5813 48.8489 27.5268
3087 1 17.8372 56.8761 28.1143
1244 1 9.73495 51.4873 28.3082
6400 1 16.6456 47.6214 22.2675
6202 1 4.9724 49.1594 19.4662
1946 1 16.0719 60.6065 32.3857
5040 1 5.0351 49.7944 23.3529
6564 1 4.80119 58.4976 31.4963
7718 1 5.08929 54.8317 19.2791
7041 1 9.23295 58.2841 26.5868
7759 1 13.2618 47.1885 31.9637
208 1 12.6025 49.1093 29.865
2485 1 6.05408 48.2892 30.5155
228 1 7.08551 53.4428 30.3188
4448 1 4.45952 47.3606 21.6831
3569 1 13.9474 54.3048 24.0509
1708 1 6.5335 50.7265 21.173
4753 1 6.43731 56.2104 30.7557
526 1 17.613 56.5522 19.4929
3466 1 12.1921 55.5828 26.0563
433 1 15.8919 50.7845 27.5894
4689 1 15.8152 58.0246 25.3703
3305 1 5.99734 58.3462 18.7556
7754 1 8.04491 49.1631 24.9821
2307 1 8.46152 51.3786 23.1262
7384 1 17.8661 55.7637 31.5941
970 1 13.9671 57.1702 27.525
1313 1 16.7925 49.7834 20.3841
2752 1 10.8954 47.1638 19.8823
2793 1 11.5813 57.032 21.3413
1140 1 13.4003 51.6506 23.4927
1001 1 12.107 52.7191 27.0387
6428 1 12.015 57.9133 24.2374
290 1 16.4645 47.7911 18.4689
7513 1 14.3236 55.9398 21.7236
889 1 14.4491 58.5384 23.0203
3963 1 11.2238 54.5899 22.8649
7299 1 13.3857 60.4076 29.3123
528 1 13.8058 49.5337 20.1553
2266 1 13.1313 53.8369 31.8327
5023 1 10.2308 47.3985 30.0407
3729 1 9.29054 53.6769 26.3199
397 1 7.77859 56.3601 28.1648
4587 1 10.4623 55.4522 28.3391
6695 1 4.64076 50.7646 27.3653
6659 1 10.7937 52.2723 24.3938
3560 1 12.3328 51.869 29.8555
5996 1 8.69423 58.7905 19.8002
6725 1 12.9082 56.1431 30.0699
1136 1 15.1687 57.2537 31.8402
2508 1 10.7513 59.934 30.8632
956 1 9.50773 53.0987 21.1974
1792 1 5.29783 56.5433 25.1571
7653 1 16.6231 54.68 22.8053
165 1 11.4416 58.3346 28.4444
4015 1 7.18892 47.4616 27.9981
7671 1 9.7631 59.8419 24.2977
321 1 7.31413 51.3848 26.6144
6785 1 15.8273 60.2307 27.2451
6111 1 9.81083 53.5896 30.3903
3449 1 15.0717 51.9139 21.2542
779 1 15.7004 53.372 26.1967
7250 1 10.9705 49.5101 25.0207
6185 1 17.0373 53.7926 20.2271
5868 1 17.106 59.0618 22.0464
3859 1 11.6586 51.2332 21.0796
1803 1 18.265 59.2135 24.8922
1687 1 15.0169 56.6914 18.9762
3273 1 4.17187 60.171 26.0464
3887 1 18.0249 59.0454 31.0079
746 1 18.0028 51.6771 29.614
4441 1 14.0831 46.7194 21.0196
7861 1 18.2451 50.8415 25.7032
4187 1 8.16577 60.7178 38.7358
6763 1 5.61656 54.478 35.882
1874 1 7.38101 49.1759 37.9824
2317 1 8.70805 57.8229 36.3212
5244 1 14.4185 49.0577 44.7064
4332 1 5.9077 54.253 44.6874
1741 1 17.3042 60.6077 45.3212
425 1 6.96066 51.4661 36.103
960 1 15.913 46.7497 32.9567
6877 1 15.854 58.523 34.3321
7734 1 5.96964 59.7972 35.3182
442 1 11.6963 54.6015 38.9792
1257 1 7.02717 51.7174 44.8905
3782 1 7.42092 56.7835 44.2191
3015 1 5.01156 52.4745 37.9903
1326 1 10.7095 58.6215 44.996
7009 1 4.9015 50.2923 46.3955
7399 1 8.13524 47.91 40.3933
5857 1 12.6938 48.1344 40.8897
2883 1 16.2044 54.9669 45.9699
6869 1 13.4968 55.5896 40.887
5441 1 13.1709 58.4061 34.9336
6868 1 11.3647 53.9152 34.1431
2725 1 16.0714 57.6155 36.9888
1309 1 9.38831 47.003 45.936
4774 1 13.3618 52.8663 46.0818
2860 1 14.636 49.5142 32.7097
5411 1 5.86167 54.6058 41.1531
5569 1 8.68053 60.5798 36.0201
3958 1 13.6475 47.1041 35.6234
1892 1 7.17083 47.8028 35.4871
516 1 11.9356 54.3588 42.8659
5054 1 8.19489 54.3743 42.8062
5035 1 10.1179 56.6635 43.0711
4356 1 5.34175 58.0747 37.6402
5012 1 6.77904 60.2948 32.63
4876 1 8.33919 51.5422 42.3905
4671 1 9.16774 54.0716 40.0458
1676 1 9.42377 60.0925 33.3346
5399 1 17.034 57.8675 45.7328
1937 1 4.17099 52.3717 34.6731
3192 1 16.1954 51.0081 43.3643
2576 1 15.5333 54.2306 38.3575
3024 1 12.5453 51.6302 38.9104
3699 1 6.46723 51.836 40.3507
4996 1 4.52606 49.755 38.1965
264 1 4.8831 49.4899 35.3263
7153 1 12.8698 46.97 38.3476
1899 1 10.7422 55.7109 36.3291
7373 1 16.6396 51.5255 38.2156
5955 1 17.0337 54.0796 41.2252
890 1 12.5489 49.8062 35.8866
2581 1 12.4155 58.013 41.8033
4203 1 12.6585 50.3403 42.684
3905 1 10.1627 56.667 40.1657
7280 1 6.34316 57.4692 41.5279
540 1 8.84043 58.8283 41.7225
4227 1 11.4294 51.1825 45.1009
5168 1 15.5112 54.7601 33.0046
4830 1 6.22475 57.0059 35.1903
7669 1 14.932 50.0388 40.9169
2324 1 8.41904 54.0115 36.3318
7483 1 6.96486 55.0934 38.537
1368 1 14.3918 52.8859 40.5491
5438 1 10.5926 49.7043 39.8547
2897 1 9.34309 50.0695 34.9498
7918 1 17.7169 51.4207 40.9338
1360 1 6.62683 47.1608 46.0971
4128 1 6.76669 51.634 33.311
5121 1 9.80802 49.0439 42.5831
37 1 13.4511 55.6041 35.1538
5501 1 13.5233 52.0374 34.165
809 1 16.5721 47.8378 41.3905
5973 1 11.1251 60.3694 42.8002
111 1 4.27978 55.757 38.9181
2116 1 15.3947 55.2878 43.0341
3278 1 14.5185 49.4341 38.1515
2244 1 11.4273 48.1961 33.9262
7842 1 16.5766 60.2429 40.0702
1746 1 16.6153 47.6058 38.6039
1512 1 16.2572 58.0653 42.9119
2398 1 13.2755 55.637 45.0398
4130 1 5.64711 46.6856 33.3182
127 1 10.5232 57.6253 34.1919
2923 1 13.6136 56.5768 38.1401
7057 1 8.82431 51.6041 38.5602
343 1 17.7867 56.1022 39.0418
6554 1 10.9433 52.1679 41.3411
7049 1 8.01549 59.0313 45.6634
3355 1 9.99869 53.6086 45.0267
6656 1 13.3948 53.24 36.7143
6941 1 8.97657 49.8036 45.3856
1628 1 5.74953 54.2802 33.0037
3053 1 13.8985 59.4856 37.4455
1085 1 6.92906 48.4969 43.4662
7498 1 10.6664 52.101 36.427
6393 1 4.7702 59.7652 42.3842
419 1 5.51895 49.338 40.9564
1732 1 16.3681 55.051 35.7074
4858 1 14.0911 52.6905 43.308
6460 1 16.067 52.1178 35.4954
384 1 10.8287 60.2464 39.9749
5337 1 17.1311 48.5252 44.1205
582 1 13.72 58.4106 44.3294
7921 1 7.78748 57.7599 39.066
7773 1 11.7723 47.7152 44.2447
5460 1 11.2489 58.2174 37.9802
7697 1 15.5382 57.5675 40.2169
3064 1 4.81508 50.6624 43.4151
1981 1 4.7527 57.5307 44.725
3762 1 10.3887 48.5715 37.2666
2303 1 13.6647 59.8925 40.3012
1660 1 8.53258 54.728 33.5591
1807 1 16.2233 52.0817 32.6686
4194 1 15.5288 49.3716 35.3984
263 1 9.48611 52.0891 32.8902
2094 1 17.838 60.4809 42.5601
1115 1 7.85375 57.4487 32.92
2954 1 18.0956 60.5846 34.5586
4341 1 7.60549 48.9274 32.8298
6538 1 10.8238 56.1099 46.4607
74 1 5.30162 60.3464 39.328
7705 1 18.2641 49.2046 34.6439
5009 1 18.1217 56.7646 34.2425
2587 1 7.27064 60.4191 43.333
3089 1 14.1746 46.7032 42.8996
598 1 18.3005 54.8692 43.9774
7764 1 15.8039 47.6036 60.126
3432 1 6.73285 48.9706 48.1025
3095 1 15.0019 49.7734 47.4857
7449 1 15.4982 55.5408 50.3623
5354 1 11.484 48.7049 55.3927
7470 1 16.513 50.0731 54.7605
6641 1 17.2412 54.6462 59.7285
4541 1 7.82941 55.1028 52.5481
4415 1 17.3301 59.2716 53.9219
6642 1 10.2551 50.8376 53.804
4400 1 8.46544 47.7247 56.838
3399 1 14.1283 49.9028 59.8114
7317 1 9.35813 53.7761 49.5678
829 1 4.71888 51.8752 59.7798
1696 1 17.4663 55.3565 48.4886
7085 1 10.7503 49.7866 59.1971
6925 1 8.93164 54.5364 55.9341
6795 1 12.7729 59.1307 60.5754
2512 1 9.61918 48.8974 51.8774
6536 1 5.08356 56.7671 57.5565
1018 1 5.82817 58.3462 52.1638
4098 1 8.93783 58.0756 48.7778
4815 1 13.0561 50.6271 52.783
6662 1 13.6555 55.9495 60.1104
3781 1 5.02029 57.7253 47.6315
2111 1 9.86243 56.1378 50.7994
315 1 10.4349 56.5934 54.6032
7337 1 14.749 47.9252 49.6642
5510 1 14.3572 55.7082 53.9319
1636 1 10.9107 47.2589 58.0134
4731 1 10.7495 57.657 57.2432
323 1 11.8057 57.3779 48.9484
173 1 6.38322 53.4383 55.6816
2919 1 13.1827 47.7335 53.2938
5334 1 6.44965 48.8704 51.072
65 1 15.7044 49.8625 51.6866
3324 1 9.8622 59.8859 55.5926
5667 1 6.47581 56.9614 49.7429
77 1 12.3654 52.0903 59.5243
7264 1 13.6015 48.2821 57.4739
1453 1 12.1374 48.8367 50.53
4260 1 8.23006 51.1506 50.6784
998 1 16.4186 48.7079 57.3721
3031 1 13.7421 50.4708 55.6494
6287 1 11.8219 53.9113 48.1513
2164 1 10.8321 53.7907 57.669
7532 1 7.63452 52.2246 53.4819
3654 1 14.7237 60.2409 53.1013
4339 1 17.8091 58.1534 48.4227
3566 1 16.1648 47.5364 53.6899
6299 1 12.0752 59.6104 47.3618
6319 1 11.8699 51.0933 48.6421
416 1 9.23885 50.4437 48.0441
5308 1 5.27708 59.3808 56.4285
721 1 8.11034 53.09 47.0452
4750 1 12.7362 55.8067 56.2857
1507 1 12.0697 55.6635 52.3381
2669 1 7.49795 51.2032 57.1703
1887 1 9.94055 59.0974 59.6618
6435 1 16.3418 51.3631 58.7071
2963 1 10.418 51.1636 56.6987
1987 1 16.7063 55.8627 55.505
2127 1 4.83091 50.0861 57.557
1401 1 5.16145 52.1494 51.8416
2654 1 11.0211 52.0812 51.3118
2060 1 7.52779 47.3021 53.3118
6060 1 6.01206 60.4473 47.241
1430 1 16.8386 53.5553 51.8657
3039 1 13.5752 58.3852 55.0125
4592 1 15.1465 58.1323 58.9487
1198 1 18.0626 53.2305 57.4259
1913 1 8.03722 49.2252 59.2037
3783 1 8.82166 58.7129 51.7589
19 1 4.21426 48.0376 55.824
7089 1 6.60239 54.1363 50.1718
2506 1 14.0208 55.7958 47.9234
4578 1 14.4081 53.0486 53.0868
3487 1 5.99535 54.2192 58.4347
2437 1 10.9608 55.7766 59.5128
6897 1 4.61313 60.3171 50.4827
4744 1 5.70655 54.9206 47.5854
5328 1 7.96006 56.9985 57.0457
1701 1 5.14912 49.7933 53.8402
5647 1 16.9619 52.5443 49.3288
107 1 8.03597 55.839 59.633
5683 1 12.447 53.178 55.2724
2022 1 14.4417 51.4057 49.7469
1555 1 15.2238 55.3226 57.7028
6132 1 5.47078 55.48 54.1762
3862 1 5.51472 57.4599 60.2149
1810 1 10.2121 47.8997 48.5666
1536 1 14.5795 58.4135 46.9447
6974 1 7.68267 57.4757 54.2702
7007 1 4.4554 55.8307 51.4133
5351 1 16.2719 52.8847 55.2932
2257 1 10.2304 53.7476 53.5645
630 1 8.50492 52.8943 59.1928
942 1 15.3254 58.6877 49.5868
7524 1 14.2676 52.7517 57.5161
1168 1 7.73429 49.612 54.7969
7780 1 13.0022 58.2738 51.3704
131 1 12.8199 59.4858 57.6572
5550 1 11.3066 58.9174 53.3939
1201 1 17.5896 48.5386 49.9148
7775 1 15.699 57.5236 52.246
4161 1 16.1439 58.4529 56.3879
1478 1 7.32716 59.2884 58.565
187 1 5.50645 48.2259 59.4758
4560 1 17.5423 48.8901 47.0818
6517 1 5.97953 51.6747 48.6885
4455 1 13.2853 53.8203 50.5434
3447 1 7.20993 60.2772 54.7074
4846 1 12.2285 49.1043 46.7941
4570 1 16.1419 52.3042 46.7137
3608 1 18.1272 51.2364 52.5769
5961 1 8.14983 56.1463 46.7627
6714 1 12.1633 60.7733 49.8848
3106 1 18.0361 55.7665 52.998
6602 1 7.40571 60.465 49.7745
7021 1 15.9088 60.7042 59.4387
6239 1 17.9622 46.941 55.7756
5333 1 7.91762 46.746 49.6896
7913 1 5.97059 60.2957 60.7711
2405 1 29.1824 13.9824 18.2249
6056 1 29.7351 17.6086 12.0739
7213 1 21.6126 8.61184 16.6373
6383 1 26.2642 13.6295 5.41181
1223 1 25.4787 7.40254 11.7962
6330 1 26.3493 15.4594 10.5681
2014 1 26.8609 8.10357 8.55594
5765 1 24.5527 18.1989 9.56251
7768 1 28.0564 11.3682 9.88498
1285 1 22.0066 10.4321 8.74563
3860 1 18.6276 14.0516 13.3257
6514 1 29.4357 10.0241 15.3157
492 1 21.0116 10.3358 14.3301
2268 1 19.4356 13.626 16.1367
2166 1 19.5824 7.25289 9.56264
6180 1 28.0603 12.2493 12.6235
7812 1 24.6199 11.6043 8.56363
3197 1 29.0448 6.48574 12.4851
2119 1 31.0251 7.01316 10.2693
920 1 30.4836 9.95336 10.0323
6525 1 30.467 10.6901 18.0005
5727 1 26.0504 9.09861 17.8015
5043 1 30.2881 9.10007 12.8285
3208 1 30.9404 14.8974 12.1758
1633 1 31.4522 6.26509 6.03587
5564 1 30.8482 12.4211 15.6264
6657 1 30.7615 12.9796 9.87884
1730 1 25.0908 10.9623 4.98131
5137 1 31.0065 11.418 7.43783
1213 1 28.7358 6.63557 4.76771
2567 1 26.262 4.76808 10.9508
2575 1 23.019 12.3062 6.07493
2249 1 20.3468 5.23701 4.7545
4538 1 31.7011 7.96179 14.9835
3151 1 23.2158 12.3582 17.3332
7314 1 21.5198 8.05521 11.5657
2530 1 25.749 14.3307 8.09925
5063 1 21.6239 10.0103 4.65353
5396 1 19.659 17.4218 12.8547
4035 1 20.1835 14.2054 10.9089
6182 1 26.9938 9.85188 13.9265
6101 1 29.1551 14.7037 15.3877
3276 1 24.2568 12.9143 13.7806
1733 1 19.0965 9.78536 5.83281
7223 1 23.8624 16.2221 11.7495
4397 1 31.975 15.1007 14.912
6719 1 18.6936 16.6278 10.1127
1284 1 21.7323 10.8742 11.6321
3538 1 31.2601 14.0722 6.14125
7854 1 26.8655 10.6411 7.22198
5965 1 22.8485 13.4384 11.2906
2382 1 28.2232 7.7985 16.5991
6032 1 27.8418 8.73976 11.0929
6034 1 30.0101 5.71895 15.9264
5309 1 26.8264 16.4226 4.55276
3323 1 26.4092 14.6969 17.5887
71 1 25.1251 5.65703 8.55755
7677 1 24.3621 8.99022 9.67475
2586 1 30.8866 4.63655 13.4258
2960 1 27.7985 11.3759 17.25
5167 1 24.5461 6.1934 15.6006
2640 1 26.0146 4.35414 5.42964
5148 1 18.8434 10.8444 16.2536
1598 1 28.8988 16.4315 9.4515
6222 1 21.9594 5.99327 16.5132
218 1 20.3077 12.831 8.33378
7956 1 18.8163 7.91782 16.5444
242 1 26.8526 7.03704 14.198
3442 1 23.6242 5.63776 6.10444
7554 1 26.7287 13.0866 15.1537
5206 1 23.0828 16.557 15.2107
742 1 25.5528 15.4991 14.13
4668 1 26.633 17.1755 15.9096
7428 1 22.6335 6.76598 9.11357
1237 1 27.3321 4.38018 13.61
1402 1 29.4281 17.4635 16.0559
7810 1 25.6649 12.7212 11.1172
5199 1 27.8943 5.67949 7.43235
5646 1 24.5765 10.3267 12.3467
2290 1 28.0873 15.119 12.7319
1060 1 20.1898 15.5958 6.99707
1902 1 23.6593 15.1135 17.7469
3215 1 21.8662 12.9668 15.0209
2417 1 21.5092 15.2153 13.3596
412 1 18.9065 17.6324 16.9501
3333 1 31.5827 15.3331 8.56745
301 1 20.603 5.44551 14.0949
2830 1 22.3904 8.38907 6.77882
4613 1 24.9548 10.8287 15.8038
2862 1 28.8465 5.15737 9.97972
3559 1 23.0833 6.29184 13.0435
5855 1 31.9019 9.0337 6.20277
5900 1 32.2742 15.6134 17.633
4562 1 19.7512 7.2672 6.66422
867 1 31.9601 7.01456 17.7504
3739 1 20.8815 15.7124 17.1153
2934 1 22.9383 16.04 6.34358
7319 1 28.4311 13.8336 8.29367
339 1 32.1123 4.93259 8.48633
7562 1 22.9467 14.1294 8.46039
7452 1 29.6368 8.06154 7.85356
7008 1 30.8179 12.0288 12.6376
5593 1 23.54 8.78167 14.5754
3358 1 25.5763 16.8855 7.10769
2684 1 25.2376 8.31943 6.15677
2791 1 19.5597 7.88657 13.8177
6282 1 21.6272 16.4395 9.71906
5217 1 28.8266 12.2829 5.80098
1806 1 19.1298 10.0204 8.81646
7111 1 28.7639 9.33101 5.40946
2772 1 26.1063 6.29253 17.8151
2100 1 18.9269 11.4245 12.5799
6947 1 21.2362 4.82503 7.5093
4165 1 19.4391 5.34046 17.4568
7200 1 20.243 12.5091 5.43199
4175 1 19.4627 4.73979 11.301
5749 1 28.9288 15.7812 6.20002
5444 1 31.6416 17.8264 14.2738
2650 1 23.702 14.3186 4.16344
6940 1 32.1666 17.014 10.6726
2218 1 19.3118 15.0656 4.28966
5011 1 21.0223 10.861 18.289
4802 1 27.4082 4.22017 16.4687
3927 1 29.8879 18.1545 7.33169
1151 1 26.7247 18.3078 11.6101
5462 1 28.9065 16.5961 25.1008
4506 1 19.1361 13.7355 25.6542
570 1 28.6584 16.5657 22.1209
5771 1 25.1269 15.5583 21.6712
3175 1 26.925 10.1101 23.0356
3567 1 25.6125 16.7972 25.5978
4630 1 30.558 6.04807 24.2902
7424 1 32.1913 5.45822 26.5927
7064 1 18.5114 14.297 22.0277
3919 1 27.2482 11.5005 25.4965
1334 1 25.3413 7.05181 27.6449
324 1 29.9654 13.9256 25.3263
5482 1 26.8414 12.7488 19.7233
6839 1 19.3594 6.89821 28.3481
1093 1 29.2504 14.3086 28.1728
4083 1 26.9389 16.418 19.7195
3525 1 26.6776 11.7364 31.1178
3207 1 28.1401 5.13931 25.672
2370 1 23.6454 10.5902 28.1742
7898 1 22.8222 14.4395 20.3981
2356 1 21.4562 5.27332 29.7595
7685 1 24.879 16.1114 28.4876
282 1 25.1689 4.869 25.6922
4036 1 28.1842 6.32247 21.0325
952 1 31.8468 12.939 19.0198
1959 1 29.7201 8.04493 19.0886
7724 1 26.5214 14.5048 30.3457
2389 1 24.6529 6.37637 21.5967
2199 1 30.936 10.077 24.1652
1230 1 29.8159 11.3286 26.5826
675 1 19.1593 8.99941 22.8565
1176 1 19.763 7.62478 25.4268
4821 1 27.0007 12.498 28.3079
2961 1 26.2429 4.59824 20.0514
3748 1 29.9092 14.0149 20.9462
3609 1 30.1343 8.44011 29.0326
2817 1 21.9306 9.29169 22.3621
6537 1 20.6811 5.06237 25.2537
7902 1 29.2502 14.1496 31.0195
1677 1 19.2836 8.79205 19.1882
6310 1 27.4425 6.20929 30.6648
7172 1 22.8699 17.3264 24.6553
1834 1 20.3109 13.6226 19.0042
6700 1 31.29 16.4548 27.8018
4916 1 19.3532 11.881 23.3461
577 1 29.6501 16.7223 18.7382
2435 1 30.2394 4.76921 28.667
4305 1 31.8686 15.401 23.755
5246 1 20.7454 4.56551 19.8316
5072 1 21.2394 12.1274 27.9511
7528 1 27.6381 16.5827 27.6799
3672 1 28.1418 6.60889 28.0541
1389 1 29.4808 11.1187 29.3252
4976 1 30.9125 8.01953 26.3068
4954 1 21.1655 7.25687 20.5985
6255 1 18.3753 4.45785 26.9029
3584 1 31.4911 16.4241 21.034
5997 1 26.3027 9.77208 28.2986
7546 1 24.5527 9.49868 21.4437
7788 1 22.7949 5.743 27.0968
3579 1 26.9588 14.2766 25.0186
4160 1 31.9634 12.6623 22.6366
977 1 24.5133 11.1086 25.4747
4925 1 28.942 8.07194 23.3647
2796 1 20.6758 14.2472 32.0177
5353 1 21.1486 16.4102 26.9273
6569 1 18.322 16.6379 27.7602
2634 1 21.9734 13.8047 25.7849
2018 1 24.1783 14.7464 24.1387
1135 1 25.2435 4.82311 29.4948
5651 1 20.5422 15.5788 23.6583
7501 1 22.6181 8.17991 25.1678
7818 1 29.1829 12.0789 23.2448
5022 1 24.9183 9.42768 31.4645
6385 1 24.3302 11.9035 19.9374
1302 1 23.8125 11.8556 30.6911
6846 1 23.3972 6.61241 18.9165
709 1 21.7325 10.9241 32.3677
7201 1 30.1511 6.83512 31.7278
2452 1 24.6899 13.6425 26.7286
7022 1 27.2659 13.8553 22.2001
5135 1 19.9935 10.0087 26.8049
5272 1 31.4569 17.7592 25.1877
2596 1 29.0516 11.1825 20.4423
2768 1 28.0519 16.8383 30.4998
6998 1 22.1544 6.3593 23.1024
693 1 23.6758 7.29455 30.0245
6442 1 26.2075 17.7468 23.1027
3974 1 18.9007 9.67755 29.3334
5638 1 22.0309 13.1548 22.8355
4644 1 30.9168 5.45706 20.241
7679 1 20.9334 11.4599 20.8703
2498 1 24.8657 12.0865 22.75
3664 1 21.1915 8.62821 30.8873
6230 1 27.8295 9.14943 30.5357
2267 1 19.2866 17.8133 25.0251
2283 1 27.2045 8.92424 20.4058
7728 1 30.7757 9.27976 21.4701
6521 1 19.9606 11.9259 30.511
5264 1 19.1777 13.9747 28.4956
285 1 32.3531 7.01503 22.1157
6450 1 25.4436 8.45979 25.1353
5814 1 31.2022 11.3556 31.5726
791 1 19.8811 4.65243 22.6208
5995 1 23.0549 13.9623 29.2005
6516 1 21.8332 10.9894 24.7752
1740 1 23.4842 9.38624 18.848
1754 1 20.9873 15.9415 29.7722
2173 1 21.9844 8.37604 28.0455
552 1 26.6343 6.38316 23.6123
2098 1 20.351 16.0259 20.6779
7411 1 28.1599 8.86709 26.1229
5195 1 22.8717 17.2339 21.7769
122 1 30.7726 17.2614 31.7484
4327 1 23.4242 16.8649 30.7867
3135 1 31.5976 13.218 29.4903
5303 1 22.2152 17.5527 18.9333
6327 1 18.3795 16.7494 30.8742
4241 1 18.5417 5.20643 30.5368
2766 1 32.3056 5.43034 30.5198
7624 1 25.0028 17.9279 18.4328
210 1 32.4249 14.0132 26.8233
5182 1 18.468 8.08717 31.7505
4702 1 23.292 18.3062 27.5829
5418 1 20.5292 13.4221 40.9993
4060 1 22.294 14.936 39.0565
641 1 18.6864 5.79035 36.6482
2146 1 21.8526 6.42613 38.313
5760 1 26.0711 12.697 41.4966
6831 1 29.8705 9.33112 45.6115
3856 1 28.7931 9.00778 33.2083
3581 1 30.1532 14.8559 41.4561
2831 1 30.2746 16.2353 44.0041
3896 1 21.4558 5.75157 35.5795
7640 1 27.7201 5.97477 40.0468
5933 1 20.029 17.1475 37.0733
78 1 20.2482 10.5062 41.2943
2050 1 18.7888 9.92804 45.357
5143 1 28.6414 11.1678 43.7069
7530 1 30.0024 8.06722 37.8198
5277 1 22.7758 16.3702 36.5658
7335 1 22.4535 5.33729 44.9293
3600 1 27.4066 8.10816 45.4749
4907 1 21.3573 13.2052 35.5147
1459 1 30.1901 9.92314 35.6688
7084 1 28.3581 17.0784 38.7703
3703 1 27.1973 10.2577 35.361
2052 1 24.9805 15.2637 32.6126
5219 1 29.9225 9.07843 41.993
6592 1 28.9315 11.9428 32.8339
4835 1 29.0447 5.74128 46.2461
4064 1 23.1323 12.4388 42.1691
2559 1 28.9257 13.7451 44.6316
1408 1 31.8417 5.76534 37.485
1965 1 30.3951 12.2316 40.3253
2603 1 20.416 13.6672 44.0685
6263 1 18.4835 7.79801 34.7847
5653 1 24.3233 13.4662 44.7144
6596 1 26.7938 4.22097 36.9943
3375 1 18.4698 15.5192 40.0042
7370 1 19.835 14.2909 37.7048
3295 1 20.4438 4.52393 42.7939
2082 1 20.8307 17.429 39.9621
2807 1 19.613 5.77726 33.2006
4620 1 21.2166 12.2124 46.4882
3163 1 23.4642 12.4098 39.3096
4533 1 29.9366 15.2494 33.4773
4283 1 23.1272 13.4006 33.0555
3145 1 24.2753 4.55333 38.2919
5332 1 27.5741 16.9564 33.2942
6391 1 28.1993 17.5674 45.2708
2302 1 23.4037 6.30883 42.3298
7665 1 19.5944 11.4045 34.2408
881 1 26.7439 4.59447 34.0861
5470 1 24.579 7.19925 45.6999
3635 1 28.8452 10.6928 38.1817
7236 1 26.3895 15.2073 36.43
1075 1 27.5304 14.7432 42.4104
409 1 29.6629 4.57908 33.2389
7717 1 24.6976 16.2359 39.779
6245 1 23.1142 9.95953 40.8143
1995 1 21.0186 17.6283 45.5859
7050 1 26.284 7.44834 33.2225
3592 1 27.909 10.7875 40.8717
6498 1 27.3341 14.1402 33.9804
2979 1 22.7693 10.844 36.6052
6665 1 23.9156 11.3666 46.6137
3736 1 31.7684 10.0371 39.1393
574 1 25.2659 8.01703 35.8449
6372 1 23.6344 9.12532 43.6079
6208 1 19.89 4.3184 38.8636
7400 1 24.9131 17.2329 34.7867
5720 1 31.5511 7.35268 35.0902
4294 1 22.502 17.7055 33.2299
422 1 23.7592 9.7667 34.1556
3013 1 20.1063 5.79841 46.5302
3006 1 26.9831 17.2711 41.3116
3317 1 28.9206 14.362 38.7947
4039 1 29.4903 5.15861 43.5087
4063 1 25.0841 17.4191 43.6387
2381 1 21.3042 10.8039 43.9444
3572 1 23.9184 15.3003 42.4013
304 1 28.9128 16.8005 36.0144
2928 1 30.3026 6.96917 40.1991
7989 1 25.474 11.6451 37.3714
2875 1 20.585 9.38325 35.6419
885 1 28.6633 6.71918 34.7641
2665 1 25.8571 10.9582 43.8414
2784 1 22.3102 4.45795 40.5061
4249 1 32.0136 8.92141 32.8231
4984 1 26.0612 13.921 39.0869
7543 1 25.5312 12.0248 33.8558
6823 1 31.1674 12.6678 42.9818
2134 1 26.392 9.25284 38.8639
692 1 21.1 15.8709 42.3605
4827 1 24.3136 5.51249 35.4236
2350 1 24.1575 13.7006 35.8928
1464 1 21.2847 7.77253 40.9181
3745 1 24.9633 6.76171 40.0444
7123 1 26.4534 15.375 45.0419
2692 1 26.6892 10.6833 46.5665
3505 1 20.7704 15.7528 34.4565
6813 1 27.7113 7.24157 42.7595
3912 1 25.8834 5.44536 43.7594
6969 1 18.9099 16.955 43.7253
3027 1 19.9269 8.68432 38.4057
2607 1 31.7447 17.8453 37.7448
3916 1 23.5869 8.58375 38.1638
1643 1 21.0834 7.95992 44.75
6042 1 20.7451 11.6044 38.6146
5484 1 25.8205 9.00809 41.7086
5331 1 27.4326 7.00303 37.3051
3561 1 31.1851 7.38903 43.9345
4 1 21.7843 7.75204 33.5463
6796 1 19.158 7.00987 42.7079
369 1 32.4762 10.3227 41.9668
1914 1 28.1748 12.9495 36.5036
3097 1 30.7401 12.778 34.9982
5597 1 22.3162 15.128 45.9058
1522 1 30.7869 17.391 40.5019
6862 1 31.0687 15.1158 36.9793
4611 1 30.9042 4.52507 41.2531
1847 1 25.9217 17.7116 37.7092
7770 1 32.4654 4.61994 34.167
4027 1 32.1717 18.2298 44.89
5179 1 32.4632 10.7864 44.8834
138 1 23.767 6.06765 32.5742
3983 1 32.4888 17.9437 33.7927
4871 1 31.7087 6.30254 46.6403
6529 1 32.4849 11.2866 36.7004
3917 1 32.4714 13.4881 38.8526
6016 1 22.3898 18.2799 43.2733
2769 1 29.6364 4.38847 36.1819
4439 1 26.9458 11.5943 56.6198
7254 1 27.7054 7.3113 51.2554
1024 1 29.4096 16.5779 47.4795
5349 1 21.5039 11.7409 56.8735
6036 1 24.3578 16.8364 53.8618
4997 1 18.9575 4.44466 55.7352
7892 1 19.615 8.54554 47.8108
5047 1 23.0076 14.5392 50.4084
5476 1 26.9627 9.47845 59.7913
6415 1 28.5858 13.9385 55.8643
5650 1 18.5249 12.2414 47.0525
1553 1 23.8203 6.99634 57.3981
2770 1 24.7241 15.7789 47.2208
1489 1 19.1304 16.1033 47.3634
6479 1 18.504 15.9517 58.0727
3060 1 26.33 16.6382 56.1311
5394 1 21.2414 10.592 48.8038
5988 1 20.6133 13.7899 55.1827
7822 1 30.6741 16.0306 60.7544
3101 1 29.5002 9.4207 55.0526
775 1 23.664 11.0421 50.1297
7390 1 22.1217 7.73932 51.4863
6643 1 19.2577 5.93645 58.1741
6405 1 29.7176 11.5147 57.189
560 1 22.5459 8.96571 54.6682
1208 1 25.0844 14.002 56.4138
7976 1 28.0987 6.32344 53.9205
458 1 24.5969 12.0068 53.4309
2549 1 26.1271 8.37139 54.7126
4237 1 18.5256 16.4494 51.3663
4411 1 25.7537 5.7041 47.8325
5982 1 20.771 7.65919 59.8832
3316 1 30.6604 12.1453 54.5006
789 1 25.7001 9.04719 57.4276
733 1 27.2896 16.9035 53.3299
1863 1 25.9936 4.62459 55.2176
1602 1 30.3275 6.01832 55.636
6236 1 23.0459 4.51176 52.2682
987 1 22.4556 15.3243 56.9611
7583 1 28.6927 5.18276 49.8806
7157 1 26.0252 5.56238 57.9856
477 1 29.4196 9.20506 58.6067
1227 1 29.4048 11.5921 47.2687
5949 1 19.821 14.1405 52.2904
4113 1 20.0148 11.4736 59.2511
5536 1 32.1912 10.7628 47.8234
7277 1 27.2314 10.6879 53.8551
5709 1 28.437 13.2192 49.6583
1813 1 31.3149 6.53607 50.3029
5872 1 22.7112 8.82246 47.0589
4832 1 25.0347 6.62626 51.7927
7548 1 24.3596 9.35143 52.4431
3379 1 28.7025 12.7735 52.4911
1620 1 26.1466 6.6799 60.5583
1925 1 31.483 17.1316 49.431
6127 1 31.8802 15.1753 57.5566
7855 1 20.3282 5.1191 51.7539
119 1 30.1582 8.22786 52.5129
2182 1 21.3445 14.023 59.1656
3499 1 25.6735 9.19353 48.7217
1392 1 29.0199 17.5692 57.3267
1612 1 30.3391 6.47762 59.2296
3251 1 23.1156 14.4304 54.1124
1451 1 23.3856 7.08744 60.1883
6981 1 24.1397 11.0103 56.0248
5557 1 21.734 16.2796 52.3388
5516 1 27.3089 13.3881 47.1148
3017 1 26.0216 12.6445 51.0801
5233 1 28.1584 7.52568 56.706
5758 1 32.2761 5.22061 57.5705
7471 1 22.1076 12.4951 52.1483
5119 1 20.3325 7.07691 53.8685
5261 1 31.0078 10.8357 52.0314
5338 1 27.1294 15.78 49.0733
2386 1 31.1311 14.3318 49.654
4939 1 26.9133 9.90905 51.1595
4424 1 23.8614 17.1789 49.6051
148 1 29.6283 16.3929 54.7919
2965 1 32.4087 11.7842 57.9757
2144 1 26.4618 15.1872 58.7659
4661 1 23.847 12.551 58.5153
4654 1 29.2456 15.0422 58.4845
5366 1 21.6535 8.94474 57.4379
5342 1 20.7559 11.0053 54.1267
4936 1 28.9181 17.0739 50.9167
2822 1 30.3226 15.1208 52.2847
56 1 29.3413 10.4963 49.9688
1365 1 28.7821 4.64838 57.7677
2490 1 30.598 8.45243 48.2977
2104 1 26.6205 14.1046 53.9272
1073 1 25.5942 15.4208 51.5308
7369 1 29.4567 12.6889 59.8713
7273 1 20.8243 17.1791 49.5863
4650 1 19.1968 7.96294 56.1981
4657 1 21.9551 4.93617 57.7602
6427 1 23.6813 7.11316 49.1148
6563 1 23.8487 6.45774 54.4077
4398 1 20.5987 17.54 57.1123
1788 1 27.8251 7.50519 48.31
3763 1 21.0312 14.4851 48.3359
2436 1 32.0383 18.0664 56.7485
783 1 21.7006 4.62518 54.9556
2795 1 19.475 12.7855 49.8056
3105 1 30.7884 14.2156 46.703
3410 1 32.2483 13.6991 60.053
743 1 20.0631 16.4946 54.6409
651 1 20.8095 6.26622 49.2504
2636 1 20.5203 9.95725 51.5124
1434 1 31.181 10.2727 60.4317
6366 1 21.2248 16.9713 59.8622
2152 1 24.7832 13.2649 48.5321
6170 1 26.6357 12.4205 59.471
1880 1 24.0342 16.4044 58.9901
7077 1 31.8257 8.40547 56.7679
6800 1 23.5363 9.82858 59.4177
7338 1 18.4811 17.7992 60.5044
7313 1 31.9141 14.6137 54.7195
7497 1 32.4485 4.90735 52.567
7295 1 22.7171 4.1776 60.427
2953 1 32.4033 7.28055 54.0012
2713 1 28.7453 18.1651 60.3334
5909 1 23.7804 4.14401 49.433
7160 1 28.1721 20.658 5.33248
1569 1 30.0452 29.9901 9.50639
642 1 24.1432 29.9017 11.1611
874 1 31.3378 27.5832 8.67959
6465 1 32.4941 30.9493 7.04495
6100 1 26.9858 30.4409 13.3127
2258 1 23.8081 27.3205 17.5549
485 1 22.7516 29.859 4.9961
1644 1 21.3812 21.4303 17.3355
2878 1 27.0353 20.9172 10.5921
2945 1 29.727 20.3905 11.4623
2601 1 26.9535 30.5578 6.25721
3370 1 22.5236 18.5003 4.94631
511 1 28.7212 28.4679 14.71
5864 1 24.2708 21.0401 9.56577
2443 1 30.4159 20.3758 14.221
7974 1 28.8103 26.432 9.36338
66 1 26.7989 21.6005 14.3854
1736 1 20.811 25.5842 12.9541
5998 1 25.9305 25.3173 18.1931
7129 1 29.4543 28.0916 11.7986
1535 1 22.4742 29.0233 9.0467
4056 1 28.7271 23.3074 4.61301
6920 1 18.6555 21.5684 16.1591
7526 1 20.1278 21.5305 11.897
7763 1 28.1758 24.387 7.16295
4409 1 28.3479 21.793 16.7763
3352 1 30.2718 23.1298 13.9704
3245 1 19.4576 20.9382 5.69519
5967 1 27.4382 31.1408 8.90237
1108 1 29.1173 31.6112 4.91411
5360 1 20.8706 22.182 7.83007
132 1 19.3237 31.4433 12.0048
4148 1 29.1923 23.5336 9.7128
455 1 23.4674 25.3396 13.9317
1405 1 26.4303 22.0823 8.03411
4117 1 19.8531 23.197 14.2182
2070 1 25.7438 24.9726 8.54326
6948 1 31.4109 22.721 11.3916
3587 1 22.3794 19.0876 16.3006
5956 1 27.4272 28.3177 7.96942
5402 1 28.0428 25.9349 13.3469
6186 1 23.2546 20.9059 6.75624
2655 1 22.0705 24.6061 6.90827
7024 1 29.3927 31.0588 12.0312
5987 1 24.5226 23.4182 6.45857
4369 1 23.0982 26.3015 9.01336
2305 1 21.2688 28.3623 12.5794
4419 1 24.0893 21.4862 18.114
5840 1 26.627 28.261 4.47259
2289 1 20.0882 25.7591 8.74365
3944 1 30.2171 31.0892 14.7729
6551 1 22.0285 18.5366 11.8339
4674 1 22.1805 18.3983 7.81451
2856 1 28.5531 24.6436 15.8044
67 1 19.9497 28.2285 10.0899
7241 1 26.4857 26.213 11.1012
2657 1 19.0833 19.254 9.19575
7828 1 19.5344 27.703 17.0599
4692 1 24.7529 31.9244 9.12764
515 1 21.0711 24.0415 10.7738
6710 1 25.1389 19.6619 15.9982
2276 1 31.8894 22.0927 18.0019
4347 1 26.2389 28.4015 16.1582
4844 1 22.5524 27.0475 5.435
7463 1 23.4263 31.1208 15.054
7072 1 30.7037 25.619 12.2166
3957 1 27.3398 18.605 8.68391
64 1 27.9627 23.18 12.2889
3976 1 30.0287 32.1148 7.44049
6766 1 27.7622 27.504 18.2813
4607 1 25.0878 27.1434 7.00072
1929 1 20.6936 25.3742 15.9489
6953 1 23.8517 27.0876 11.721
5171 1 19.103 29.5692 14.127
2200 1 25.2022 23.9312 12.4061
3122 1 30.3185 19.9523 17.0753
2318 1 20.9126 29.9232 16.1209
5580 1 28.0392 19.0073 14.1303
4797 1 26.8223 28.9755 10.7569
89 1 30.8941 19.5473 4.94413
3260 1 31.5181 27.3105 14.5894
355 1 22.535 23.1868 15.4144
810 1 24.7022 28.8921 13.8419
7349 1 22.1964 20.6839 13.814
279 1 26.7267 32.375 15.1982
2782 1 22.1146 31.1071 12.3715
7895 1 22.4892 27.7334 15.1853
853 1 28.7937 31.2258 17.1333
2235 1 30.9182 25.2729 6.69183
698 1 30.163 28.5408 17.2642
7047 1 25.3302 31.0208 17.1618
3100 1 18.6917 30.5401 9.48586
6317 1 25.8474 25.816 15.2163
7744 1 31.981 24.9362 9.47101
143 1 24.3677 29.92 7.21853
1074 1 21.5459 20.4443 9.78917
7407 1 30.9312 25.7422 16.8552
2233 1 18.7428 24.724 5.67047
688 1 21.1174 24.0263 4.34419
6874 1 29.0497 21.0212 8.01997
3167 1 24.7827 21.2047 12.4429
4100 1 19.9322 19.3651 14.8669
4573 1 23.6339 23.6437 10.087
3413 1 31.3272 19.5183 9.4074
4963 1 29.6487 27.8856 6.25899
7386 1 19.7938 27.2073 6.32642
3741 1 20.0221 30.0962 6.01648
7043 1 25.2585 23.1871 16.0882
1910 1 25.7909 19.6895 6.46696
204 1 21.0841 31.2892 8.34822
4387 1 25.8996 25.4459 4.86722
4847 1 31.0723 22.4733 7.02013
5163 1 31.1567 29.6883 4.84661
5746 1 18.3547 23.4422 8.28272
5123 1 22.5433 24.7014 17.8686
3159 1 24.4653 18.4839 13.4098
2133 1 18.4593 24.3574 17.5966
3077 1 18.7879 31.8757 4.48077
5878 1 32.4951 23.5491 15.6644
638 1 18.7706 31.9962 17.2669
5002 1 28.5329 26.2697 4.14403
4841 1 32.2676 31.206 12.8099
3115 1 22.0318 21.2678 4.17972
6104 1 32.4287 28.2328 11.2432
5782 1 22.6834 32.4811 6.21155
6011 1 19.4755 18.3368 6.56477
1498 1 31.3846 22.2439 4.17139
6759 1 21.3333 31.2781 22.755
728 1 21.0578 19.097 23.0638
2978 1 27.8275 30.4849 30.4622
7149 1 25.2304 29.1972 30.6573
1125 1 26.5723 21.9209 24.7036
7329 1 21.3102 21.0522 21.0117
3110 1 31.4757 21.4963 23.5542
2315 1 19.4582 28.9138 27.2214
2658 1 25.7413 26.4562 29.7989
7446 1 21.3424 20.2006 26.4509
7619 1 32.0805 21.9901 26.4229
7301 1 19.4141 19.1758 28.2179
1106 1 23.9591 22.7759 26.0234
4232 1 25.7996 28.0488 26.6272
6286 1 29.3584 26.7423 26.4621
2555 1 23.2718 25.486 26.6712
230 1 31.0944 24.2944 31.3035
427 1 25.5427 19.655 26.3173
1457 1 22.8783 28.4065 32.1657
1423 1 27.9847 28.5507 21.5305
6070 1 23.398 20.3562 24.4721
5844 1 19.8542 19.4992 18.8519
5623 1 26.3594 30.6894 26.2754
6955 1 23.7195 19.6611 20.2609
1683 1 23.2935 26.1231 21.246
2558 1 28.186 23.7776 18.6729
3534 1 22.1323 22.4867 28.2681
522 1 25.7438 22.6693 28.3523
3437 1 23.0197 28.9399 22.1488
1232 1 20.3489 21.6899 30.439
944 1 32.3978 30.5894 25.0558
3019 1 29.7724 32.0984 24.5967
7419 1 30.6437 29.9457 30.6303
2553 1 28.7258 29.3825 25.1811
6420 1 24.3375 29.1855 19.5368
6329 1 25.2338 31.4112 21.1495
437 1 20.6178 26.33 24.545
296 1 27.8291 28.1673 28.5355
1770 1 26.7518 20.377 18.3731
3932 1 27.1215 23.8751 30.4105
7441 1 30.9612 20.0324 30.7458
572 1 31.8592 27.7011 29.4795
3181 1 22.7261 20.8428 32.0277
5321 1 20.3772 24.379 31.2251
5424 1 31.2777 31.0134 18.716
1781 1 25.0075 24.2471 23.9615
5330 1 26.6077 22.3264 20.4683
1067 1 19.035 28.0957 30.0724
7344 1 20.4338 29.2458 24.5697
2025 1 28.4898 32.3479 27.1444
4189 1 21.7338 26.6901 30.1329
6848 1 18.9864 25.7615 20.0261
4850 1 23.4469 26.6916 24.1297
6996 1 23.5153 24.5174 29.4154
3301 1 28.6149 21.2214 22.4064
6748 1 20.8867 30.245 30.6808
5453 1 29.444 26.5867 30.4497
6505 1 19.9063 21.3926 24.367
6247 1 19.6617 30.3363 20.4815
6546 1 32.4109 24.7129 19.2929
5831 1 31.652 28.1632 26.6513
3533 1 26.1304 25.2861 27.0688
5341 1 20.3003 27.8076 21.9906
4313 1 24.2766 23.7404 19.9206
7806 1 22.8791 31.9442 31.279
3688 1 30.1087 19.9353 26.5143
3306 1 20.5884 26.2918 27.5354
6106 1 28.4409 22.2418 26.9669
6968 1 21.859 30.0999 18.7151
4474 1 29.8145 30.0706 27.863
5666 1 27.6437 31.1241 23.0434
4902 1 26.2457 27.8163 23.8722
946 1 25.3662 20.4677 22.4121
7761 1 25.7619 18.5649 30.7882
7161 1 21.4401 27.1291 19.2255
6504 1 24.8515 30.3048 23.7646
3649 1 21.5403 23.6267 24.7273
5434 1 23.3089 22.6931 22.37
2994 1 26.9864 24.8244 21.8506
5297 1 25.8152 26.9398 20.4657
5626 1 28.2499 21.3889 30.9376
3946 1 28.8883 24.7383 28.3267
7312 1 27.5449 18.9846 20.702
1353 1 21.7181 30.2337 28.1548
424 1 23.0874 23.7108 32.0155
1016 1 29.2791 23.1479 24.4174
2282 1 31.1348 30.5239 22.3129
3334 1 19.7307 23.5517 27.1694
3934 1 21.0214 24.6341 22.0324
123 1 29.5475 18.616 28.7958
3982 1 29.0822 31.8629 20.6528
2483 1 27.5748 25.403 24.6758
6322 1 29.5733 27.1831 23.361
395 1 19.897 18.6807 32.3034
51 1 24.1694 20.5565 29.4582
7316 1 18.5368 21.427 21.942
2105 1 28.0489 19.3103 24.676
2574 1 30.107 22.4472 20.3258
5605 1 30.2909 19.4732 19.8277
2582 1 24.7554 30.9573 28.4497
7076 1 30.5314 22.3852 29.0666
5391 1 31.4274 24.7498 25.7105
4945 1 29.7539 25.8402 19.4114
2424 1 20.4508 23.301 19.5894
6894 1 25.5348 21.8871 31.8611
7911 1 27.1343 20.0107 28.6324
4860 1 32.2188 27.9353 23.6316
5129 1 27.2085 30.1611 19.2469
6342 1 30.5244 28.4709 20.2186
2361 1 23.6548 27.9897 28.3615
3281 1 23.0258 29.0784 25.6921
536 1 29.7732 24.7588 22.014
4583 1 22.5093 32.3791 20.358
2815 1 31.8596 24.998 28.5161
4743 1 21.7205 18.9249 29.9164
5612 1 30.4247 18.8204 22.6985
1455 1 27.1842 27.3497 32.2918
1387 1 18.7875 18.5041 21.287
4531 1 23.0543 32.4625 24.4604
1515 1 32.2786 31.6246 27.8462
1850 1 31.342 26.3305 41.1281
7207 1 19.8974 23.0911 42.7387
4814 1 26.8452 19.8604 43.7405
916 1 31.9747 22.2285 40.0365
3407 1 26.4768 26.5361 35.3095
7209 1 25.7817 26.6726 43.1253
6480 1 28.6439 27.5225 40.691
712 1 29.362 24.1875 45.0333
350 1 19.3455 24.9029 44.9846
5234 1 24.1212 22.0051 42.1357
4584 1 24.1111 32.1884 35.2331
2779 1 28.6473 26.2863 43.2317
7643 1 27.7975 21.95 45.6308
3294 1 27.9247 23.8615 36.7936
4425 1 27.1446 22.741 39.3505
4631 1 19.9541 24.1618 34.0409
7242 1 22.5568 31.6777 39.0606
5625 1 22.1149 21.0516 40.5896
7925 1 29.4374 19.6306 38.2324
6750 1 26.4863 29.0395 41.9801
2123 1 23.4819 29.2454 34.7514
5845 1 31.323 31.0206 34.2455
1404 1 20.2875 29.0954 33.2049
2885 1 18.731 22.9497 36.5012
1752 1 25.4123 28.229 45.4667
568 1 31.763 32.0481 41.952
7479 1 23.3755 19.0046 37.6206
7124 1 29.6763 24.283 39.9871
130 1 25.2673 31.2992 32.725
1173 1 26.0053 20.0056 40.9326
4866 1 26.3103 30.6017 44.3308
7797 1 19.2208 19.1679 35.1531
5576 1 21.3363 30.9553 35.2287
1973 1 30.0294 19.9831 44.842
4026 1 26.9313 25.2086 46.481
7661 1 31.2135 20.6363 42.2014
6814 1 23.4809 19.9373 34.7651
3238 1 22.6942 24.1965 43.1689
4436 1 20.7679 26.8903 34.9418
4040 1 22.3392 25.301 40.4963
7286 1 27.0732 28.5673 37.3341
6547 1 30.474 19.243 35.5405
1064 1 30.6995 27.4577 32.9241
2047 1 24.0757 31.4969 43.1099
2048 1 20.0754 30.4176 39.2213
5513 1 26.1111 24.0851 33.7
6937 1 28.66 20.7005 40.608
1845 1 30.6099 26.6411 46.3085
4220 1 21.2015 21.3425 44.777
5426 1 28.082 27.6791 45.6966
6266 1 21.8108 23.8202 46.104
1158 1 32.3257 21.3179 35.7727
6856 1 21.3258 24.0438 37.3269
4007 1 24.8761 22.344 35.7057
5373 1 32.2523 21.9172 44.5545
3823 1 22.9343 29.4383 44.6042
4680 1 29.4556 22.8746 42.449
203 1 21.3142 29.1926 41.351
7252 1 25.1051 24.729 37.1482
7727 1 25.0375 24.4666 44.5558
3975 1 20.0087 26.8734 40.1301
1461 1 31.9018 24.4668 43.2733
174 1 30.5318 30.0405 38.5352
1857 1 30.9997 27.8923 43.8578
1986 1 24.5898 23.7267 39.8131
4667 1 27.82 31.7165 35.5568
6268 1 20.8639 27.2092 44.7464
639 1 22.9279 26.4214 37.8967
7421 1 31.3709 27.2568 38.5001
3180 1 20.0206 21.3994 33.217
757 1 23.0394 27.1138 42.7663
5428 1 25.7594 20.6121 38.1622
2735 1 23.5542 26.5849 35.1696
3210 1 25.5537 27.004 39.176
811 1 31.6555 27.6249 35.6362
5716 1 27.5921 21.8664 34.6661
1033 1 28.8892 29.5467 33.0213
3811 1 25.0436 22.2316 46.2266
5478 1 22.6823 23.8652 34.7579
5255 1 27.4813 19.5735 36.1298
1337 1 26.7808 22.7214 42.9613
3416 1 18.8716 28.4819 43.0535
4145 1 20.5653 19.7864 38.2763
341 1 31.3475 24.0278 35.4353
3836 1 20.1974 20.0117 42.5379
3000 1 29.0612 30.0073 43.1035
823 1 25.6518 31.1428 37.412
3707 1 20.4114 28.9262 37.0228
7311 1 18.5642 25.7207 42.172
6178 1 23.9474 20.4716 44.4825
7975 1 29.3106 26.0894 35.1906
2700 1 21.228 21.4363 35.8597
6492 1 21.3429 31.7477 42.3453
6289 1 23.2422 29.3187 37.646
1694 1 24.0174 28.8404 40.5385
4981 1 18.6986 20.8857 40.2326
2535 1 26.3795 29.2904 34.5141
178 1 27.0331 25.0685 40.9813
6447 1 32.4427 24.5072 38.0709
4486 1 27.7047 30.1637 39.603
2940 1 29.5709 29.4762 35.9868
3880 1 20.4136 23.2894 39.9638
3670 1 25.1108 31.4061 40.4524
7027 1 30.3345 22.49 37.6518
3928 1 29.1836 18.5981 42.4719
4892 1 19.5317 26.2084 37.4745
4548 1 23.2215 21.9555 38.0765
935 1 30.1084 22.3678 33.3115
6619 1 30.5311 32.2881 44.6566
2781 1 28.6455 26.413 38.0713
1907 1 28.7411 30.4185 46.0863
4961 1 31.163 29.2343 41.0844
3527 1 26.1331 19.5874 33.4736
3764 1 20.1454 30.0851 44.9064
1049 1 23.4817 26.1179 46.233
1350 1 32.1624 30.0891 45.5722
4140 1 18.5419 31.1665 34.5192
1848 1 29.2032 19.3647 32.9859
5474 1 24.7596 18.4456 46.2889
1000 1 28.5503 24.8721 32.6956
3813 1 23.4339 18.6852 40.4657
3590 1 32.4206 20.6653 33.0296
7396 1 28.0902 32.3535 32.7807
1841 1 18.9973 26.5533 32.5351
4009 1 29.0134 32.1761 41.302
5216 1 24.9847 31.5051 46.6178
4868 1 28.7528 32.4896 38.2324
3114 1 24.4457 26.1601 32.5157
7137 1 27.1739 24.0368 58.1859
5203 1 29.2717 27.0305 55.2704
7045 1 21.417 30.0571 52.886
1776 1 27.9725 27.8932 48.5033
891 1 28.4748 26.5376 58.0465
6497 1 19.0769 19.3 49.3895
5883 1 26.6548 21.9555 51.7628
5986 1 31.7992 27.5417 53.6202
3833 1 24.8237 20.5798 48.4831
3118 1 25.5432 23.3511 53.9418
461 1 26.8721 24.4235 50.4997
3377 1 24.1408 20.8174 58.8791
2810 1 24.4216 29.0504 59.5701
3486 1 30.6593 19.069 54.3345
7220 1 22.2851 30.2728 50.2019
6398 1 21.5197 27.6271 47.6129
6909 1 27.0798 30.6355 48.54
2313 1 28.6116 31.984 57.6049
5132 1 30.4651 23.1605 51.7653
2759 1 30.5022 29.9603 53.5753
6426 1 20.0369 22.8801 51.184
6154 1 30.3172 30.0138 50.6963
5288 1 31.2114 21.4083 49.6007
991 1 30.6014 24.5311 55.0685
5861 1 30.6128 19.6655 58.5905
3128 1 28.3068 20.9351 49.6669
4138 1 23.9593 21.7739 50.8853
6623 1 19.7332 31.2979 49.3061
5545 1 23.3209 24.0347 56.6168
1711 1 32.333 30.8539 58.155
5429 1 25.0472 28.5304 48.3206
5535 1 24.075 32.2931 57.8515
3691 1 19.6475 27.9661 55.1777
5221 1 22.3612 32.1166 60.0779
2147 1 31.8909 27.4194 56.7095
7990 1 21.6941 20.1663 57.6372
2892 1 32.0163 23.9716 48.4588
7414 1 30.3923 22.1537 46.9093
1785 1 21.6965 19.1881 51.7463
962 1 21.0215 26.4872 59.6655
703 1 31.4499 26.1806 60.4787
4823 1 22.4261 24.562 53.9497
5702 1 27.4653 27.1331 51.1088
2340 1 24.551 18.9313 51.8606
5256 1 29.4199 22.3497 58.7687
3756 1 21.6684 29.8219 55.8183
4150 1 27.0822 20.4495 59.28
1717 1 26.7945 19.6184 53.7193
4610 1 32.4917 25.2713 50.9683
3989 1 21.7957 24.6247 49.8356
1100 1 21.6572 27.2822 53.3811
2521 1 29.7242 25.5782 48.7949
6515 1 24.5735 27.1917 51.0643
1393 1 26.3859 28.6443 57.576
3426 1 30.8353 24.7861 57.9482
7930 1 22.0076 21.9036 53.0273
1295 1 25.4572 22.1516 56.5924
671 1 25.2313 28.0819 53.5324
7709 1 19.3353 18.7496 53.0773
2904 1 27.6178 30.6763 51.5825
1120 1 24.3426 30.6776 53.584
3104 1 19.7308 25.5725 48.3658
2020 1 24.1633 24.5248 51.7423
2803 1 24.9411 30.1899 50.7909
7622 1 18.7287 30.7086 55.2245
921 1 31.792 22.1239 55.5913
5743 1 19.2955 29.3235 47.3292
3109 1 29.4146 20.9846 56.1137
2711 1 23.9202 26.2015 59.7833
4710 1 22.6996 30.1231 47.4528
2085 1 26.711 25.8743 54.7638
4032 1 25.796 31.5881 59.9263
1720 1 21.4484 21.0801 49.4465
6541 1 20.8065 22.7272 56.9401
4679 1 18.9546 26.8892 50.8362
4054 1 21.5066 26.2073 56.918
5990 1 24.5811 30.2207 56.262
6679 1 20.4759 20.6057 54.9761
3479 1 28.004 23.4386 55.5651
5268 1 27.9777 23.3278 48.2791
4563 1 27.4142 30.5232 55.6053
5106 1 19.643 20.2786 59.5751
7141 1 28.965 21.4706 53.3739
7281 1 30.1596 29.8353 56.3454
5641 1 30.9522 32.3972 52.2695
6309 1 28.7469 25.1498 52.6547
4574 1 30.1962 19.3529 47.7332
3452 1 24.1788 20.7102 54.3509
402 1 28.1436 29.959 59.6459
3364 1 18.9407 29.694 51.4754
7648 1 25.2477 26.136 57.2673
5681 1 22.441 18.4313 55.0594
7258 1 23.3858 23.387 59.4547
251 1 20.1219 30.8643 59.0659
2642 1 25.2043 18.5929 60.5732
5901 1 19.0944 28.4734 60.4499
3894 1 25.1001 25.5924 48.4979
5105 1 23.4408 23.2081 48.3759
4942 1 21.8432 27.4302 50.5134
2757 1 19.2474 23.0666 59.1706
1704 1 30.4284 27.1852 51.0774
1103 1 23.4588 27.6297 55.4751
4331 1 26.859 19.5671 56.5875
3767 1 27.9496 28.8212 53.4823
253 1 18.3954 19.2733 56.7646
4712 1 30.5941 29.0196 47.8665
2916 1 22.2869 18.9258 47.7263
6818 1 19.7662 22.7699 47.719
4701 1 21.9437 28.8061 58.4565
3933 1 29.4471 32.1538 49.1042
5377 1 19.7588 25.191 52.9628
97 1 30.6518 28.6104 59.117
7325 1 25.9235 22.8199 60.5904
3047 1 24.3057 18.5183 57.2502
4673 1 19.2867 24.6452 55.9694
1745 1 32.149 31.5829 48.101
2012 1 27.4215 19.6039 47.0681
5841 1 18.7171 22.6498 53.8807
1266 1 26.5785 18.5072 49.7511
1286 1 29.991 19.5552 51.6597
3412 1 26.722 32.368 53.474
1417 1 19.7042 20.1507 46.6819
4817 1 23.9158 44.5659 12.9336
509 1 19.9794 36.5701 13.723
7321 1 25.9932 41.1242 16.7821
4622 1 22.2213 35.7555 15.2726
3136 1 28.884 43.4945 14.9893
6087 1 29.1053 38.4715 10.8767
1235 1 25.5733 32.5114 11.7432
664 1 27.9093 34.0576 8.02324
2455 1 30.727 41.9283 10.5608
5822 1 19.2006 45.0206 4.66816
1397 1 27.3062 42.2661 7.62927
6527 1 26.6868 41.142 4.97448
2998 1 27.6055 39.4846 8.64007
375 1 22.2908 34.9566 7.70345
6923 1 23.7796 45.9981 10.5177
5085 1 18.8586 33.2664 8.18098
7189 1 21.5186 42.3096 9.78002
667 1 31.311 34.6863 17.3341
3311 1 23.4657 40.7507 11.2726
562 1 18.4822 44.4876 11.8258
6496 1 26.1499 44.8964 7.86383
3808 1 32.371 34.1084 12.3156
7308 1 31.0493 39.6647 12.4031
7638 1 24.4617 35.0998 10.5999
6038 1 29.5292 40.371 5.20388
6160 1 28.2899 37.8421 6.19263
3792 1 29.2421 45.9705 13.4207
4740 1 21.2887 43.36 12.6052
1690 1 24.0392 39.1461 16.5267
5958 1 30.6146 35.8958 10.9231
7579 1 30.1094 46.0629 7.8426
1699 1 18.636 35.6598 15.9238
3796 1 28.3585 33.9993 13.6092
4829 1 20.9803 45.3469 10.4483
7777 1 28.2306 34.3466 5.25003
4478 1 31.0756 38.5312 8.64611
5802 1 31.9268 42.1814 16.0906
3217 1 18.48 39.1091 10.5073
3991 1 20.6296 44.8751 17.1707
7843 1 31.2356 42.355 13.4141
3396 1 19.0851 40.4203 7.68188
1639 1 27.2223 44.9759 17.8889
2823 1 27.9031 43.8796 9.99319
3774 1 19.6507 37.5793 8.27452
7275 1 24.5425 42.6051 6.45422
2322 1 19.4072 41.3553 13.0624
3265 1 32.2886 44.036 5.62565
864 1 27.9829 41.1429 11.0477
93 1 27.5894 45.1755 5.43955
5573 1 23.8274 37.4794 13.4527
4217 1 22.7954 37.1049 5.92688
7859 1 31.0806 34.3779 5.95977
7502 1 20.7663 32.8692 15.2118
3073 1 30.9918 33.8159 14.7057
711 1 28.2243 33.2954 10.9514
4239 1 18.862 46.5858 8.90893
3892 1 22.3429 33.017 10.1238
5292 1 24.8986 40.7296 8.73759
2999 1 30.3794 44.7393 10.4635
797 1 30.9961 33.2837 9.84697
3195 1 25.1059 34.5289 7.92863
6589 1 19.1309 34.1554 12.3734
2585 1 22.7818 32.6477 17.3606
1884 1 19.8115 45.282 14.3327
5165 1 22.0045 41.1495 17.3318
214 1 20.7416 39.1912 5.47956
1357 1 20.1025 42.5794 15.5779
4938 1 27.811 36.0142 10.2435
7074 1 29.9217 41.0536 8.06543
396 1 21.2202 39.1174 11.1838
6328 1 21.8629 42.4313 5.89288
1889 1 30.0967 36.4278 13.6672
1510 1 22.1308 40.3103 7.68565
205 1 25.5576 37.0701 6.80812
2678 1 27.8611 39.1208 16.3471
3818 1 19.1238 36.6831 5.66652
1243 1 26.1759 44.1883 14.736
1364 1 23.2446 40.2555 14.1364
3955 1 28.5594 42.3889 17.5197
589 1 24.4393 39.6022 5.974
1647 1 29.6489 43.6053 6.5901
5150 1 28.6409 40.7808 13.8806
749 1 20.2138 35.1657 9.84824
4143 1 31.954 45.1481 12.8368
7036 1 22.9374 42.83 15.1034
211 1 31.3927 38.6681 15.0925
141 1 21.9953 33.8691 12.8304
7585 1 25.3212 37.7556 9.59932
6161 1 24.8261 43.4653 17.2587
4192 1 24.044 43.4692 9.18828
7849 1 25.8172 41.2923 13.9904
6436 1 23.6675 45.6327 6.3154
5829 1 21.5895 44.3988 7.88499
556 1 27.8952 38.0166 13.5704
7203 1 20.7717 39.2059 13.9743
5712 1 25.8646 39.2392 12.042
7605 1 26.1661 35.8046 12.8064
1579 1 21.9808 36.4601 11.5778
4494 1 31.0554 44.8489 16.2172
2056 1 26.6187 45.431 12.1052
6653 1 22.5301 37.7828 8.78392
2457 1 18.6509 43.8878 8.17323
7167 1 18.9978 42.5064 5.74702
4378 1 29.63 36.8898 16.4395
6336 1 29.9072 36.0745 7.98967
6301 1 23.1844 45.5665 16.1659
5692 1 25.5831 32.9948 5.55327
3840 1 20.2848 34.0369 5.86695
7535 1 24.638 34.8441 16.7179
6227 1 24.5323 33.5946 14.1443
7862 1 25.6605 42.7828 11.5092
6834 1 30.3964 40.1773 17.4366
3319 1 18.8466 41.9804 10.2672
2632 1 25.9116 37.153 15.4673
4999 1 31.7352 38.3222 5.92773
3455 1 27.6102 34.8915 16.2399
6365 1 21.529 38.2496 16.544
5488 1 20.8772 34.81 17.5938
7682 1 30.0664 36.5231 4.25433
5511 1 18.7472 39.2177 16.2959
3166 1 26.5014 36.5534 4.24163
278 1 24.0152 35.1897 4.24706
6593 1 28.7291 46.6468 16.0749
6296 1 31.7037 43.5472 31.8854
762 1 29.1906 40.0999 20.4432
6747 1 25.8072 33.297 18.9197
3809 1 31.9472 33.516 25.8005
5252 1 28.4454 35.0535 30.332
1667 1 28.8113 40.402 30.4372
4178 1 24.2035 38.4916 26.2794
7214 1 25.1882 42.7572 22.6854
4084 1 23.8321 36.9878 28.6125
6207 1 32.4062 35.8075 31.0148
7364 1 24.0025 35.8511 25.238
3717 1 19.7861 42.7695 22.0723
6484 1 21.9853 35.3988 27.2841
1558 1 21.7467 39.718 27.0088
1516 1 22.1061 46.0299 29.6516
467 1 24.0378 38.6568 19.3682
7711 1 28.9264 43.0752 20.3351
7934 1 19.7705 44.3246 29.4981
2399 1 26.5242 45.2475 21.9253
7704 1 28.1052 34.5589 25.1604
702 1 30.4886 36.0875 25.7821
2909 1 29.2908 37.1892 19.3771
5499 1 18.8428 40.2933 21.6897
257 1 31.9728 35.1975 28.1747
3868 1 26.1914 43.1704 19.9152
2832 1 25.4706 34.8353 27.6371
592 1 30.3213 33.2926 29.1974
5805 1 21.3057 43.4415 27.3924
6253 1 27.2177 44.5222 25.774
7658 1 20.2235 44.5755 32.3006
3780 1 28.5112 37.7893 31.7335
543 1 23.2594 41.5755 28.7556
3236 1 27.1644 41.3022 24.4846
4371 1 22.9742 45.8388 24.9662
6148 1 24.3533 37.4909 22.012
7291 1 19.5165 36.1689 21.4237
4935 1 31.5233 38.8489 21.6123
6136 1 21.3656 38.3616 29.3701
1888 1 20.43 45.5814 22.182
365 1 23.405 39.4588 23.7577
1175 1 25.0064 37.6346 31.9391
7403 1 31.8783 34.3237 22.9777
707 1 19.9031 33.0009 19.6243
6639 1 28.6692 46.0885 20.1122
2947 1 28.0059 37.8366 21.9594
1906 1 23.2424 33.3078 28.8261
2156 1 28.9422 42.2965 26.4891
7851 1 23.0633 44.1943 31.9144
1994 1 20.3909 42.8894 19.3797
3842 1 19.4937 41.2423 27.4991
36 1 21.6447 39.536 20.7695
1744 1 23.8905 34.712 20.929
4780 1 22.5595 41.9285 25.3035
6784 1 24.9373 46.2028 19.3864
4017 1 32.0017 38.2105 18.7931
4329 1 25.5311 44.5743 30.6132
4635 1 24.7173 43.65 25.3904
3850 1 26.5672 37.8099 29.378
2035 1 21.0538 46.5845 19.4332
6475 1 30.2134 37.1748 29.4093
5004 1 25.3415 41.1018 26.8008
6883 1 22.443 41.9579 22.3278
4485 1 31.5698 41.1098 25.6713
1801 1 23.9897 44.4378 28.0916
7397 1 19.0769 33.4744 25.3077
1409 1 25.5402 33.3041 25.2421
5572 1 26.3299 36.3618 23.7063
5747 1 23.4539 39.6506 30.9349
7683 1 32.2223 45.1113 21.7545
3463 1 29.0291 43.0235 31.3328
7243 1 21.5687 37.5267 23.0023
669 1 26.0399 34.0908 31.655
5265 1 30.9393 41.2713 28.6341
4617 1 29.5215 44.0849 28.755
1825 1 18.5729 38.2033 31.8071
5926 1 27.2614 35.3918 20.4266
2384 1 30.4252 36.7736 23.1829
3824 1 20.5785 37.3883 19.0749
6211 1 19.6693 41.8024 24.739
898 1 28.6502 43.5693 23.2053
7578 1 30.6961 46.2701 32.0107
2051 1 27.7866 39.9472 27.6933
3969 1 21.4371 38.0812 32.2925
5748 1 19.9097 36.1168 28.9788
7071 1 22.3831 34.7271 23.1568
2092 1 30.3612 41.201 23.0233
360 1 26.5933 40.2628 19.4357
7439 1 23.5544 35.4362 30.9228
5710 1 20.3136 44.698 25.2163
4629 1 26.0929 33.742 22.4775
6351 1 19.4222 40.3886 30.1378
613 1 30.8852 43.9995 25.3002
6440 1 29.0388 39.0739 24.4256
206 1 28.2668 45.6253 30.7984
3117 1 28.0983 36.1145 27.6005
299 1 25.9061 40.7816 29.8749
4690 1 19.8406 33.5908 22.4429
4555 1 28.9357 34.2514 22.3737
838 1 20.757 35.4792 31.4115
6354 1 30.1979 46.1611 23.333
457 1 27.9617 46.435 27.8735
1252 1 25.9387 39.9155 22.3636
4557 1 19.3406 39.0482 24.146
4456 1 21.4829 32.5657 26.6769
1940 1 21.3358 42.3116 30.7741
5606 1 20.8285 37.4846 25.7715
2441 1 19.6396 40.2004 18.8944
5594 1 26.8798 37.9801 25.9318
866 1 23.6944 41.4588 19.6872
5120 1 31.1988 44.5293 19.2109
5471 1 30.3312 38.768 27.0377
1229 1 31.6917 39.2364 30.6674
5177 1 26.6996 43.2087 28.281
6240 1 31.5274 41.739 19.72
7191 1 26.1896 42.392 32.1934
7992 1 22.8873 44.1771 19.3721
5730 1 30.8595 46.0947 27.1112
6854 1 23.2527 44.9259 22.2903
6273 1 30.7455 34.81 20.2636
3430 1 26.7841 32.7568 29.3208
5403 1 19.1106 33.3631 28.2246
923 1 23.2123 36.0935 18.7274
1410 1 26.521 37.5441 18.4222
3614 1 19.1383 46.3685 27.5468
5581 1 28.7233 33.7151 18.553
3263 1 32.4811 43.7857 28.9177
4407 1 30.7599 32.6647 31.9152
2246 1 19.5152 32.8352 30.9025
3939 1 30.9872 38.9513 46.1976
5258 1 26.9412 36.3106 33.4704
166 1 27.7743 40.0802 33.0815
5080 1 22.7186 41.8708 35.816
4429 1 29.1326 45.1546 36.2187
3303 1 27.6168 39.9121 46.4802
6724 1 20.2433 32.9998 44.6903
5966 1 18.9519 33.982 34.6955
1048 1 27.4432 40.3787 36.8791
7255 1 32.0255 45.0444 38.2328
659 1 25.976 41.7542 40.3913
6256 1 24.228 44.0233 34.6094
7082 1 29.5231 40.7617 40.9798
2414 1 20.4954 43.167 34.6295
3141 1 19.0419 38.9481 41.9189
4336 1 26.5648 43.7215 45.8723
2112 1 32.4992 36.4866 36.4539
5571 1 26.5934 45.2769 33.1557
4807 1 26.4416 33.6086 41.3082
1023 1 21.0159 37.3224 40.508
2292 1 24.6815 36.8207 41.4967
6598 1 28.1421 42.5015 38.8108
6138 1 26.7409 38.7935 42.1942
780 1 26.1449 42.1875 35.2288
7720 1 29.7551 40.9182 35.2757
822 1 21.5387 35.8241 42.8437
1255 1 23.6217 38.7248 39.6586
57 1 19.4148 38.2412 37.5055
2385 1 30.9572 38.1018 33.2622
7328 1 23.8606 34.5431 33.6797
1021 1 25.5398 41.2385 44.8877
4413 1 25.3901 46.3234 38.4852
5301 1 30.694 43.2102 41.3887
760 1 23.5079 42.7517 43.3231
429 1 24.7687 42.6093 37.821
5305 1 20.1448 43.7877 43.8603
6356 1 26.0117 34.4909 35.7196
6560 1 30.4572 34.328 39.5963
1748 1 21.3512 41.0261 42.4063
6677 1 32.17 39.9314 40.3202
7681 1 21.0736 42.6842 38.154
217 1 23.5881 37.2156 34.3375
2571 1 22.8804 44.1603 40.924
520 1 30.1519 38.234 35.9936
7445 1 22.0865 37.064 37.6342
1207 1 19.3885 46.601 35.4292
3002 1 19.9392 32.5134 37.1049
5448 1 27.4465 36.5576 38.2483
3788 1 21.6423 39.165 35.5983
1039 1 25.9324 35.2663 44.6696
7680 1 20.5212 35.8427 45.5726
3014 1 19.1416 32.7193 40.5938
1041 1 31.7954 40.0296 37.5075
7897 1 29.3699 38.9441 38.6708
1224 1 19.5891 46.2225 41.1371
4943 1 30.5423 42.785 37.3275
2125 1 23.03 44.7105 38.1279
5548 1 24.9696 36.8081 36.8774
1346 1 19.3552 41.0121 36.2619
1415 1 20.221 43.3272 40.9124
3391 1 28.3905 36.6532 44.4722
183 1 32.4579 34.5883 34.226
1796 1 21.2303 33.0844 33.264
1253 1 31.9682 42.8873 46.665
4120 1 25.2766 39.5244 34.2182
192 1 29.514 38.5676 42.8201
5669 1 18.5072 43.9335 38.5178
3169 1 30.7814 33.2187 36.145
1501 1 29.5592 34.9717 42.5542
5632 1 23.2552 37.8127 43.9768
6757 1 27.4059 41.5707 42.835
6739 1 18.4053 37.2543 44.4298
1617 1 28.627 34.4998 34.639
3191 1 24.1803 40.048 42.4119
7434 1 31.382 40.9991 33.0513
1450 1 23.4177 35.9046 46.1843
6971 1 21.5746 41.7728 45.3792
6274 1 25.8785 38.1985 44.9443
5827 1 24.4833 39.7093 37.1244
1294 1 18.9369 34.5631 42.6437
4315 1 32.1546 34.6745 43.4564
2426 1 21.4424 35.3951 35.1682
2045 1 22.4709 45.3551 44.2597
2481 1 21.9798 45.3866 35.5088
2767 1 31.4835 44.0143 34.7846
4556 1 20.7738 39.049 44.5477
3926 1 28.417 44.8993 40.2427
4191 1 27.6697 33.1461 43.887
6198 1 23.937 35.2358 39.1403
3668 1 26.308 33.8766 38.4429
5944 1 22.073 33.8788 40.6441
3227 1 26.5347 39.1488 39.3484
5940 1 23.0236 41.4559 40.0129
5717 1 23.4871 41.5516 33.0571
6323 1 27.4116 36.2382 41.1589
3353 1 27.302 37.9196 35.7041
4152 1 20.425 40.05 39.5844
3494 1 23.0681 33.3009 45.1908
7595 1 18.8419 46.2483 43.8791
3845 1 24.0986 34.3649 42.7308
6672 1 20.7683 40.5788 33.0861
585 1 32.3396 38.5007 42.854
7969 1 23.5599 44.2364 46.5504
6380 1 26.7465 44.2544 37.0467
163 1 32.0522 41.5094 43.3207
6791 1 25.6649 44.5126 40.8068
4809 1 30.9282 45.3793 43.5053
2486 1 29.6293 40.7482 44.5976
4853 1 18.5378 41.6777 42.8424
6209 1 29.7798 35.5967 37.0917
5947 1 30.2245 35.493 32.7193
3406 1 25.2604 44.9661 43.5976
1832 1 28.2846 44.3746 42.9559
7676 1 22.7127 33.6155 37.0776
4139 1 30.2377 36.9866 40.434
5985 1 29.4322 43.5083 45.4175
3861 1 19.5684 37.4298 34.6174
4914 1 20.0409 34.949 38.7329
3849 1 28.6869 43.2756 34.2027
2172 1 28.6353 33.3835 46.5602
6548 1 32.3155 36.9222 45.0283
1014 1 25.376 46.4163 35.5768
1982 1 27.2381 46.4797 44.9178
5095 1 30.4145 35.4048 46.4479
2598 1 19.3488 43.3939 46.4264
4798 1 24.063 45.1875 54.8479
1258 1 30.7938 34.8124 49.3099
1202 1 21.2902 34.7305 60.0523
7516 1 31.0336 32.5914 56.0658
5102 1 27.1524 33.9617 59.3944
3536 1 30.5662 43.0924 56.8896
2710 1 19.5044 41.5372 50.5423
5705 1 19.8848 34.9954 48.3925
1022 1 28.4282 36.0162 52.733
4422 1 27.3235 41.5185 51.4252
1056 1 20.5416 37.4392 60.0079
1028 1 29.8119 42.9111 50.1413
7848 1 24.9362 44.119 57.5486
5537 1 30.73 36.9112 51.3704
1220 1 23.9701 39.5005 54.526
6302 1 26.9585 37.5869 51.182
808 1 24.0295 43.6455 50.9503
4728 1 19.9789 32.5152 53.5415
4261 1 27.5257 43.3022 60.0122
5205 1 30.8263 35.9518 55.0375
5169 1 18.83 42.6066 56.2023
2215 1 31.2803 44.855 48.7371
2863 1 31.7043 44.0832 52.0198
5299 1 23.7922 41.5262 47.1583
3084 1 20.0526 40.9044 47.6892
1367 1 21.7969 35.2611 57.485
243 1 23.3293 37.9744 59.8696
3042 1 18.9892 32.8253 57.2179
7821 1 31.8686 37.6062 48.7347
1586 1 21.3435 43.9541 55.704
7991 1 27.917 34.6468 56.4679
7834 1 21.31 40.4222 54.3396
2198 1 25.2299 33.7565 55.642
6012 1 28.1617 41.9457 57.6112
4559 1 19.2574 36.2955 57.5399
3834 1 32.343 41.8139 58.982
2748 1 22.8595 33.1434 53.9257
7628 1 24.5694 41.5537 58.8221
6595 1 24.427 36.3377 50.3946
2013 1 29.7764 45.3214 59.3024
420 1 21.9161 36.8305 49.4776
7282 1 21.6797 38.8894 57.6654
5579 1 29.8034 45.8664 56.4832
6269 1 22.4826 32.8637 51.0538
6197 1 26.4117 39.3569 53.2658
6004 1 30.5914 35.0149 57.8551
2422 1 30.6453 40.8963 48.2265
1596 1 30.5129 38.6131 53.8302
744 1 19.8006 33.6852 50.8616
391 1 18.5127 34.1495 59.5195
507 1 27.5395 37.2504 55.0812
6752 1 26.1028 34.1085 47.3563
7204 1 28.4016 40.4016 55.1134
3924 1 20.9853 42.702 59.0096
6810 1 27.0147 45.8257 58.6394
2310 1 23.1938 37.4578 52.6919
5371 1 23.9788 45.707 49.1411
6353 1 27.2075 42.7746 53.8039
3121 1 27.4504 44.4177 56.0397
2226 1 32.2403 40.6512 54.7885
7743 1 21.6007 35.7222 54.5118
1673 1 29.2403 33.7507 54.1054
9 1 20.6516 36.1848 51.9006
1652 1 21.7321 32.6007 56.4878
7783 1 29.9089 40.6217 51.7739
7268 1 25.9701 40.2269 56.6932
1052 1 28.0322 35.5366 49.1774
6830 1 20.7492 38.2475 47.3686
126 1 21.6435 39.7957 51.598
4003 1 24.7075 42.3284 55.2447
7534 1 28.4711 36.6266 58.6835
3523 1 25.7312 32.9347 49.7798
5508 1 28.2476 45.1131 50.9731
6989 1 32.3585 34.9362 52.7485
147 1 22.5033 41.5007 56.8924
6712 1 32.4397 39.375 57.2236
523 1 21.4283 32.642 47.4089
3497 1 25.3057 46.572 60.6341
7547 1 19.2773 38.569 51.1105
2785 1 28.3078 33.5067 51.2537
4645 1 25.7252 37.0139 47.8516
1818 1 24.6245 35.1726 58.1666
7182 1 30.1276 42.5586 54.1068
3631 1 20.0989 38.2599 55.4219
1523 1 25.1161 36.1349 54.2051
1130 1 22.522 42.793 53.2328
5842 1 28.5319 39.5921 59.124
3701 1 23.5045 37.2753 56.2475
7503 1 24.8061 34.1932 52.1569
7163 1 24.4072 40.904 52.0053
1129 1 26.0156 37.6147 57.527
7402 1 25.6765 42.4118 49.0414
7455 1 24.758 43.7667 60.4856
5891 1 29.7822 38.4535 56.7574
748 1 26.5763 39.5998 49.1772
6035 1 26.7114 45.0168 48.5361
3495 1 21.362 44.49 48.4176
6067 1 23.6199 39.2688 49.6209
392 1 22.2377 45.0631 58.0112
1306 1 25.9064 39.1772 59.8178
3869 1 29.3642 38.7994 49.7281
6340 1 29.6695 45.4649 53.6478
1058 1 22.1232 41.8432 49.387
2331 1 18.5076 44.205 58.7753
3147 1 19.1344 41.0001 60.0977
6030 1 25.8536 44.9434 52.5439
7870 1 19.2272 46.3451 49.48
2970 1 22.6639 40.7548 60.7575
6895 1 23.4095 34.3583 48.6257
5067 1 18.9561 41.6459 53.4647
7756 1 21.0551 43.8857 51.184
4998 1 28.2254 42.3412 47.8779
1828 1 28.6302 37.5136 47.3356
848 1 31.2532 39.1257 59.9155
6899 1 30.6987 32.8051 59.5493
1196 1 30.3145 42.7109 60.6273
1727 1 18.6515 44.3172 52.7408
1938 1 18.9936 34.6607 55.1765
558 1 20.0422 46.1005 54.2788
4137 1 19.7935 46.6024 57.8746
3770 1 19.0032 40.1841 57.4253
1370 1 29.1447 45.7867 47.0331
1390 1 22.0858 44.6801 60.7781
2380 1 23.6477 38.7158 46.7808
4698 1 18.533 49.0268 5.881
827 1 31.5687 57.9981 12.6975
1762 1 31.8253 47.9907 12.134
1909 1 32.0246 57.7997 15.425
1790 1 20.9944 58.1542 9.5207
7107 1 29.4671 51.6709 16.3831
4523 1 22.5359 60.0462 16.4059
1576 1 19.2068 50.5014 12.7929
5843 1 19.3391 56.228 12.0047
2995 1 22.4843 51.8554 9.01561
5543 1 24.9451 50.9903 4.67935
5071 1 27.1212 49.5744 10.8452
4877 1 22.8305 52.8488 4.19854
5345 1 25.701 52.1271 14.988
4782 1 30.4085 49.3939 6.60516
1061 1 30.0729 48.6535 14.2729
342 1 19.1912 53.0609 7.94954
4891 1 18.6089 56.9164 14.8326
381 1 29.8535 55.7403 12.3832
3730 1 26.4176 52.2359 6.6409
1923 1 27.8885 53.2258 12.3845
2529 1 23.7981 60.3681 12.365
883 1 29.5695 58.902 16.6656
3443 1 30.1124 60.551 6.82003
2038 1 22.3908 46.7613 13.7456
971 1 21.5739 59.309 13.7766
5194 1 29.1469 58.9465 13.887
580 1 20.4242 58.8414 6.70445
875 1 25.4012 51.7317 12.1818
7723 1 30.4682 50.9573 10.3407
6396 1 20.5859 47.8833 11.9128
1077 1 23.8014 49.4316 13.2976
4788 1 21.7379 51.5577 14.1849
175 1 30.1863 56.2396 6.719
2065 1 27.6112 56.0877 10.4093
1873 1 19.2854 51.3239 4.28347
1864 1 28.9479 49.0385 17.6576
1088 1 26.9246 59.3157 7.52518
1359 1 31.6395 60.6687 17.8089
7274 1 26.6476 56.9035 4.76012
555 1 28.0928 53.7994 15.1272
926 1 22.9683 49.2519 5.96756
3093 1 28.8994 58.3815 5.55058
7632 1 22.1462 57.2581 11.956
7093 1 22.6323 47.6494 8.39934
3599 1 21.5689 53.3566 11.2417
6808 1 20.1819 49.1758 9.30842
4653 1 28.7968 55.0504 4.391
4408 1 24.2674 48.9681 10.3907
6499 1 31.1049 53.3309 4.51401
4851 1 25.1491 57.4449 14.5643
3953 1 24.7941 50.3601 8.06083
5089 1 23.6741 57.1448 17.8853
1543 1 32.0967 54.4041 8.06532
2202 1 28.006 56.5421 14.5222
417 1 23.6831 55.3067 15.8037
5721 1 26.4033 56.5659 7.762
4736 1 31.336 60.3147 10.7869
4290 1 25.9686 54.2093 16.9655
274 1 21.1035 57.9492 17.4023
793 1 23.0334 47.7903 17.858
3427 1 26.0071 55.4012 12.7017
2623 1 30.3595 55.4309 15.8761
2968 1 21.3744 56.6167 14.8145
7468 1 28.0617 47.8566 7.53877
2024 1 30.2385 52.4052 7.12588
5506 1 30.5233 53.8516 10.3821
5586 1 18.5044 56.6142 6.44385
6284 1 25.0088 54.7297 4.8012
2679 1 27.2333 56.9804 17.2651
7674 1 28.1797 50.5738 8.49482
6610 1 18.4421 58.8045 16.7242
4070 1 24.9516 60.1802 14.9654
3043 1 30.979 53.5579 17.7825
14 1 21.9014 53.4799 6.71375
6085 1 28.9522 50.8408 12.685
6924 1 27.5104 58.8805 11.5345
1190 1 31.5218 49.4038 16.5775
1154 1 32.2848 46.9599 6.33558
3284 1 27.7322 53.2406 9.59523
844 1 18.9794 47.2649 17.119
4558 1 31.2566 48.3722 9.22059
4335 1 28.0826 54.4165 7.13196
2561 1 32.3881 58.0393 4.15928
4225 1 31.967 50.6046 4.44456
2664 1 24.5373 54.334 7.49287
7771 1 19.2865 48.0861 14.5038
3956 1 32.1375 54.5591 13.8785
5779 1 23.7515 55.1067 10.8531
2440 1 20.4129 55.2632 9.34845
6531 1 29.0493 47.4481 10.9649
751 1 23.5736 53.7745 13.5024
3990 1 18.789 52.5945 10.7493
4550 1 32.0716 58.4684 7.19248
3660 1 29.2338 59.1274 9.23554
5117 1 20.2116 52.6374 16.3046
2128 1 24.8831 57.8446 11.6502
7304 1 28.4966 51.1066 5.11151
7560 1 24.7371 59.5003 9.29226
4125 1 22.3523 53.682 17.4634
6177 1 19.2905 54.1005 5.13862
4839 1 18.9414 59.1719 12.8512
2727 1 20.3576 54.0585 13.6508
1616 1 23.5725 56.9463 8.44209
631 1 27.5716 50.0001 15.07
4836 1 21.8371 49.0217 15.6361
3338 1 31.0785 51.9951 14.0124
3069 1 24.527 58.7956 4.59282
2754 1 24.9805 52.7038 9.82003
2224 1 21.8778 50.4229 11.2945
7511 1 21.4697 56.3258 6.68364
2704 1 25.5127 49.2851 17.0835
6797 1 20.6919 50.7391 6.90342
3666 1 25.6091 59.1903 17.7817
1835 1 25.3916 47.9774 6.49399
7672 1 30.2964 56.6221 9.55587
7143 1 26.2772 48.0788 13.2822
2858 1 23.2141 59.5552 6.92848
249 1 23.6309 51.3012 16.4001
7533 1 20.1721 49.9411 17.8736
5046 1 29.2189 47.5239 4.71692
689 1 23.0437 56.4865 4.23052
4808 1 20.0213 55.4496 18.2554
3565 1 26.3726 47.0626 9.6366
1152 1 18.5767 60.6603 8.74511
2478 1 20.3949 46.8836 6.48137
7901 1 21.9274 60.7633 10.0706
7588 1 25.9577 46.7825 15.8537
3612 1 26.487 55.5754 19.6287
7144 1 21.528 54.044 30.9108
142 1 24.2279 50.509 22.1207
3328 1 19.8239 59.7131 28.8461
2223 1 25.0565 53.1884 22.0973
2533 1 24.9841 56.1905 27.97
604 1 32.4504 59.1413 26.6724
5948 1 21.837 52.9505 20.2428
2734 1 19.5026 48.6898 20.397
7872 1 19.414 52.5081 19.1209
5675 1 23.7267 58.7477 21.1596
1310 1 26.7883 60.159 22.7014
6685 1 18.3765 59.3996 19.4887
617 1 24.7164 47.5275 22.0392
3645 1 28.9603 60.4096 19.0817
6324 1 29.5326 51.3815 28.3962
3667 1 27.3547 56.8301 29.4532
4864 1 25.9391 56.0087 22.4571
680 1 29.3833 56.8524 27.4307
2891 1 29.8556 56.7853 18.6282
151 1 26.8852 48.2265 19.4978
2484 1 31.1917 48.1597 25.1738
3961 1 24.2427 53.2933 25.5222
2991 1 30.7325 56.2828 24.9742
745 1 31.6568 48.5389 30.6915
7656 1 20.7463 55.449 20.9215
3751 1 22.3414 56.2167 23.043
6116 1 27.3411 48.3038 29.8861
7889 1 28.4111 48.7634 26.0632
3477 1 20.0185 57.8095 26.5556
4958 1 18.5606 56.598 22.1353
2049 1 20.769 54.6764 28.2955
4453 1 30.3352 54.1658 28.4136
1603 1 27.3455 48.8393 22.244
3937 1 27.4575 52.4318 26.8163
1240 1 24.7276 50.5593 25.0793
2193 1 20.6025 48.0467 31.0505
6617 1 22.2476 57.1729 28.2568
6990 1 24.0913 54.9426 30.459
3747 1 30.1454 50.9552 24.7048
241 1 19.8824 56.9423 29.9852
6735 1 22.6649 50.5858 18.9494
882 1 24.4302 57.8838 23.9722
6097 1 22.8483 58.6263 30.9092
5661 1 18.3802 48.7772 29.2301
1476 1 20.3217 49.8346 27.5425
2373 1 25.1341 53.4049 28.2556
7827 1 23.2396 49.5625 27.6875
1901 1 20.941 58.3195 20.1868
5881 1 27.0685 59.4622 28.5237
2163 1 22.9842 49.5761 30.5742
5775 1 30.0461 48.2134 21.457
5409 1 25.3351 57.1225 31.6243
5157 1 31.7509 50.2316 27.0425
4404 1 18.8578 53.2362 32.0251
7886 1 23.9429 60.7413 23.2271
3765 1 20.6544 52.6145 25.3982
1912 1 27.7169 52.2781 18.416
200 1 25.1649 46.8608 27.4477
4898 1 28.1203 53.453 31.8768
2191 1 27.483 46.8201 24.1367
6231 1 18.9401 49.4458 23.212
1143 1 31.0485 59.1938 24.2463
2371 1 30.6955 54.6286 31.2169
5577 1 26.1504 49.6742 27.5758
2170 1 32.1375 56.4688 28.3413
5942 1 22.561 52.5684 27.6446
2243 1 21.2286 47.7921 23.8148
2855 1 23.7017 55.9953 20.4453
2938 1 32.0108 57.8836 21.891
5780 1 24.6552 47.219 30.264
7716 1 24.498 53.4869 19.3595
5374 1 29.016 54.4375 19.7184
6424 1 25.0586 58.9032 26.6791
2792 1 21.8616 50.1795 25.1172
5266 1 22.2488 48.623 21.227
4758 1 21.7253 47.1969 27.1267
7651 1 32.2688 55.2754 19.5631
6213 1 32.2827 49.2884 22.6421
6625 1 30.9753 47.4572 18.8115
7673 1 27.2955 58.5264 24.9258
5570 1 21.353 51.0079 22.3518
2197 1 22.8737 59.8415 28.2114
2565 1 28.4784 56.8218 22.9518
1821 1 20.4378 55.5193 25.2905
6417 1 28.4946 60.3665 30.9007
4471 1 25.1682 60.2311 31.999
888 1 30.5239 58.6159 29.5559
5800 1 26.8361 53.7882 24.3167
5340 1 20.4324 58.5721 23.0765
4874 1 26.4765 58.3338 20.4979
4893 1 23.4751 60.5403 19.0854
1878 1 27.64 51.7162 21.4514
3993 1 30.9929 51.8126 22.083
314 1 22.4971 53.4892 23.2768
3986 1 21.6469 60.8277 32.243
3574 1 31.923 55.106 22.3632
2539 1 29.1444 54.059 22.4614
3327 1 25.3235 53.1805 32.1149
3 1 27.0134 55.9488 26.0291
146 1 27.369 50.8572 24.1933
5714 1 29.3067 58.3322 20.8427
7482 1 20.9854 51.4338 29.7889
4528 1 23.1799 55.8594 25.7343
2066 1 29.9308 53.5763 25.5342
3239 1 28.1649 50.8672 30.7305
54 1 29.9285 48.6525 28.5652
3911 1 27.677 54.1239 29.2464
6583 1 22.2781 59.3888 25.2981
2907 1 29.2047 57.0626 31.5035
5560 1 25.5751 50.861 19.5402
7392 1 24.9262 47.69 24.8449
1514 1 25.3161 51.1072 30.1178
7993 1 19.5048 53.8853 23.134
3237 1 29.2341 59.6062 26.642
3480 1 29.5774 50.6043 19.9421
772 1 30.447 50.6669 32.1579
4940 1 18.3592 53.376 27.1753
4927 1 32.314 59.5402 31.8434
6851 1 32.1644 51.231 18.827
1320 1 18.5816 51.7215 21.6102
139 1 29.4865 60.771 22.5571
3275 1 21.3067 56.4719 32.3173
3595 1 32.4609 58.0903 19.0867
7746 1 18.3777 46.9168 24.6001
7489 1 20.2627 50.6867 32.448
4258 1 18.52 53.7108 37.3059
7244 1 27.2923 58.7472 33.0534
372 1 28.6004 50.9808 35.8001
3636 1 31.7548 59.1719 36.0113
2099 1 20.7587 50.8038 36.6038
3692 1 28.6916 57.3524 38.3573
3216 1 31.6399 49.6946 40.0392
5037 1 24.4369 54.3193 43.588
7962 1 29.4507 58.589 41.5436
2522 1 24.9923 47.4674 41.1493
2706 1 23.6179 59.6525 34.3239
6861 1 31.9396 53.6401 46.2613
4569 1 21.3193 55.7964 39.0079
4248 1 28.1808 60.0091 39.2863
781 1 26.1565 58.1165 39.2643
3253 1 29.7668 52.7732 34.0301
4964 1 32.2411 57.547 42.5746
4388 1 30.3861 58.5049 33.6671
5454 1 22.7982 53.2629 41.556
6074 1 22.0231 47.1671 38.9765
1656 1 29.6198 49.6683 38.0704
6033 1 23.5586 56.8171 33.8753
3401 1 26.4041 51.1526 33.7724
6467 1 20.0992 59.8036 45.2375
2746 1 25.1256 54.6137 34.7126
6628 1 23.5707 50.985 36.2085
3475 1 25.8616 50.8793 45.6748
7936 1 23.6868 52.145 38.8242
2412 1 28.5313 56.4004 45.146
4402 1 18.7572 59.0223 37.0673
2626 1 21.8178 58.4552 40.2169
6520 1 23.3531 51.8448 44.8627
925 1 27.3903 48.6741 32.6122
3350 1 26.5935 51.7089 38.9428
7318 1 23.0139 58.9007 37.7695
4109 1 23.8158 50.0783 33.3809
4438 1 31.9686 50.7108 36.4487
6875 1 25.1316 57.1369 44.0974
2093 1 28.314 58.4638 35.8944
5786 1 27.6238 54.7069 37.4081
5446 1 31.3751 56.4208 37.0526
2184 1 24.4444 50.9724 42.3826
377 1 26.789 54.4203 40.0696
1767 1 21.9571 55.8451 42.5505
6226 1 19.3122 49.022 41.4559
1918 1 26.5718 53.5376 46.2882
4343 1 18.9504 58.4213 40.0028
3422 1 29.384 52.4242 38.1741
2009 1 18.6882 46.9432 32.6615
2629 1 26.0736 52.5147 36.3043
1419 1 22.4727 53.7092 35.4357
5138 1 19.6872 49.5772 44.4214
814 1 24.1962 57.1496 41.3059
1482 1 28.1371 50.43 44.0976
5451 1 30.9487 60.0265 38.6853
3434 1 25.4771 58.5604 36.3606
704 1 23.2371 48.1032 44.935
4699 1 21.2638 53.2092 37.8997
7306 1 24.2157 59.8746 43.8402
4990 1 21.1413 59.542 35.7204
3376 1 20.0954 54.6814 34.1829
7916 1 24.9143 47.5664 33.0008
649 1 18.8613 52.0336 34.8122
5290 1 29.2215 50.6579 41.3854
7028 1 22.5217 56.4139 36.3678
3679 1 31.5873 49.6329 45.0396
1927 1 25.193 55.9469 37.1934
3601 1 23.3897 49.7017 40.0325
6753 1 27.2396 49.1096 39.9623
2546 1 20.6564 49.8651 39.2647
7906 1 27.4019 48.4543 36.1296
7967 1 18.883 57.4537 42.7455
685 1 22.9753 48.0346 36.3473
2086 1 31.4273 51.5765 42.8972
4126 1 22.6663 57.0059 45.5364
7909 1 30.5577 49.2323 34.5925
4067 1 30.8592 47.322 36.9728
871 1 27.9631 47.2144 42.0907
2880 1 29.1059 48.6073 45.9343
3586 1 31.3518 53.6488 36.3636
6532 1 27.2797 54.2969 43.5552
6774 1 28.2756 46.9648 38.3805
7896 1 18.3566 52.1768 44.9592
1773 1 19.684 55.0851 41.2201
847 1 18.44 49.343 37.4744
7062 1 21.1869 48.9492 34.4649
7804 1 20.3168 52.2885 40.4707
5093 1 19.7155 56.278 36.7087
2046 1 20.9377 52.0942 43.3675
7052 1 27.599 58.7446 44.0503
7305 1 31.6362 55.8053 33.5974
7409 1 24.0407 55.0056 39.5846
2903 1 29.2184 55.483 35.2996
644 1 30.5438 55.2977 43.2717
7932 1 25.7377 48.6811 43.61
982 1 21.7354 58.591 43.2228
6567 1 27.2921 55.7781 33.2905
4089 1 24.9014 59.9952 41.1051
2204 1 31.5761 46.8749 45.7639
5588 1 27.5459 60.6239 41.9587
2828 1 29.337 55.6609 40.713
414 1 30.7098 53.0722 40.5117
6939 1 19.7159 56.9532 45.7078
1407 1 21.0693 54.5047 44.8762
2031 1 22.0442 49.4821 42.6388
7767 1 19.8461 58.7402 33.1892
934 1 25.2613 49.1357 37.8898
839 1 26.8955 52.0942 41.9902
2316 1 28.9075 46.8627 34.1426
6007 1 30.7563 48.1993 42.5422
5866 1 30.3991 59.2856 44.1526
1403 1 26.9175 56.7725 41.8479
2188 1 30.6896 46.87 39.9159
7531 1 22.213 46.6998 33.0193
4435 1 31.3854 57.2911 39.712
7741 1 20.6903 47.1845 45.8347
843 1 29.6686 52.8943 44.6737
3247 1 22.5528 52.4538 32.921
1361 1 23.5887 54.2686 46.3691
878 1 22.7173 59.6435 46.4359
1447 1 32.2629 46.8472 34.3964
633 1 26.1814 60.3829 46.0262
5977 1 19.3951 46.746 38.301
3448 1 22.3527 46.7793 41.7814
606 1 25.0581 46.7463 46.6211
5834 1 26.0107 56.2921 46.6322
7290 1 27.1587 59.6038 53.3038
4700 1 21.1835 59.0367 51.4001
6754 1 25.4442 47.8517 50.3299
3968 1 19.7692 50.77 47.0546
694 1 28.7985 48.4802 55.733
6119 1 23.5831 47.4648 58.6834
5520 1 27.5984 55.825 49.1221
7894 1 32.3397 57.2936 56.1151
5367 1 30.3846 50.7618 53.4385
5410 1 20.9252 52.304 52.4803
5130 1 31.5828 55.0549 53.0937
6089 1 23.5284 54.5925 50.236
3261 1 25.5257 53.0638 56.0317
5107 1 21.3538 48.9542 57.5303
446 1 23.8107 47.0948 52.4941
2835 1 29.7861 58.3372 51.1549
4155 1 22.0984 57.2876 55.2689
7332 1 31.5767 51.2195 47.5353
2255 1 23.248 52.3345 48.5387
4910 1 24.0777 49.7707 53.089
7035 1 23.0385 56.4598 48.2477
5127 1 27.986 56.1345 57.6371
7589 1 18.5671 58.4248 51.1748
3624 1 29.6558 55.5254 51.0884
5983 1 24.963 49.2132 47.8676
7218 1 29.8048 57.4853 59.7487
2773 1 21.5695 49.4372 50.5514
7165 1 18.7438 47.6405 60.1752
2464 1 27.5648 50.0132 47.9919
2932 1 22.0075 51.369 55.8324
5935 1 30.4261 59.9692 54.991
5531 1 21.0207 54.6821 59.629
1520 1 25.6443 54.6729 58.5139
2130 1 21.1968 46.6799 51.6938
5514 1 25.5657 56.0467 51.2728
3103 1 31.9301 47.9304 60.4324
3485 1 23.1745 53.7347 54.685
1728 1 29.0812 51.313 55.8916
1793 1 26.7208 48.998 52.5884
7573 1 18.6804 49.9115 58.533
7019 1 31.9224 55.3566 49.2903
6244 1 25.0174 58.6601 47.9058
1139 1 28.3263 60.5785 60.552
5440 1 27.7078 59.1297 56.1912
3831 1 28.1463 47.4813 49.2246
1454 1 31.4386 55.6918 58.3186
884 1 19.2222 50.9549 49.776
1531 1 26.3196 53.4832 52.1278
510 1 23.3756 52.7227 58.1022
7874 1 28.6636 60.0065 47.4893
5307 1 25.0506 47.5704 56.174
7729 1 30.2831 50.089 50.7429
7966 1 29.72 55.1442 47.3986
3429 1 24.8091 59.8659 58.7112
1802 1 23.84 57.0164 58.3037
169 1 30.8378 59.3754 57.9069
6439 1 28.9394 52.3449 47.3606
5957 1 24.2253 56.1575 53.7948
1301 1 31.5176 46.7551 50.6835
4989 1 27.0104 51.4362 54.0869
5566 1 26.9361 48.6576 57.965
1791 1 29.4846 57.1106 55.2452
2913 1 18.8849 60.1909 59.5243
1215 1 20.5238 54.9132 53.9132
1787 1 19.0058 58.4005 57.0071
6201 1 21.7521 47.6197 48.4801
4417 1 19.6278 53.6693 47.2859
2444 1 31.5 51.9251 57.3836
2475 1 24.5572 50.1372 58.5818
6792 1 21.2172 49.6068 53.5405
3258 1 21.9974 56.3524 51.9838
2472 1 25.6841 57.2514 56.1534
2936 1 27.1301 51.5644 57.9659
6640 1 20.4456 52.1746 58.4844
4043 1 19.6005 55.6536 50.4451
6835 1 19.1667 49.4849 55.6167
5036 1 31.6161 57.8412 53.2862
6373 1 24.4563 58.8428 53.1441
6890 1 21.0906 60.1424 48.7773
4132 1 29.2215 47.7845 51.8621
6760 1 27.554 58.5887 49.4597
4928 1 22.4545 50.1267 46.8937
441 1 31.1178 48.0988 54.0412
2580 1 29.0433 54.2572 55.7585
4368 1 21.032 58.4824 60.5823
500 1 31.9763 54.2955 55.708
1988 1 19.3097 55.5073 56.449
4463 1 27.9576 56.9653 52.8526
6736 1 20.1527 59.0067 54.2489
5070 1 23.9615 58.1616 50.539
7347 1 20.5073 57.3092 48.3548
5951 1 26.9853 51.1751 50.5349
2150 1 23.8893 59.5535 55.8217
4300 1 29.0857 53.3135 52.9779
1466 1 20.8964 53.2223 49.7921
1969 1 29.7414 48.0893 58.4166
5971 1 21.6784 58.8133 57.7882
6023 1 19.2619 56.6495 59.255
3491 1 29.6239 50.6531 59.2991
1817 1 30.3552 57.9901 46.7231
7460 1 24.2296 50.4437 50.4509
2154 1 24.5484 50.311 55.8019
295 1 21.8968 50.2662 60.2093
5225 1 25.9292 53.4037 49.0329
1428 1 26.7085 55.1022 54.5068
3795 1 22.0766 55.1263 57.0942
2167 1 19.295 52.2414 54.8807
6312 1 29.4221 53.5391 58.6892
3194 1 23.7761 52.5465 52.2642
421 1 29.337 52.7381 50.1644
5279 1 22.2921 47.5178 55.2225
6756 1 27.2509 58.47 59.0601
2208 1 31.6723 58.1343 49.3437
7287 1 18.7988 48.2156 52.5811
5684 1 30.7819 48.6517 48.5593
1069 1 26.9435 52.9939 60.3668
4357 1 27.0171 46.7815 54.3015
5521 1 26.3633 60.7384 50.7887
7106 1 32.3195 52.715 49.804
2122 1 29.6623 60.7831 52.3774
7350 1 26.9688 48.9964 60.8044
6935 1 31.223 60.6507 60.7056
3441 1 31.2252 60.8554 48.6073
5139 1 21.6376 47.5379 60.8185
6464 1 42.9437 7.85584 15.7733
4289 1 41.3612 11.2136 4.72054
313 1 40.6499 9.86446 13.6923
1146 1 45.1083 5.07642 7.06371
6931 1 40.7938 17.7281 14.8225
6765 1 35.1104 12.0664 13.2127
2984 1 39.1997 15.3648 6.8842
4293 1 34.0106 4.64635 10.806
4482 1 41.0674 5.20867 5.07847
1094 1 39.7195 18.0683 5.89488
5851 1 37.1711 6.67907 7.23602
5493 1 38.5542 8.17401 12.6618
566 1 42.237 13.6574 6.09167
7480 1 41.8517 7.65609 6.19057
7630 1 44.5457 11.997 6.60222
4527 1 36.5417 5.79672 4.421
4786 1 37.9815 10.4409 4.65463
1279 1 33.3088 12.3007 10.9842
5278 1 40.9428 6.05372 8.34542
583 1 44.7407 7.77898 6.32356
2834 1 45.8556 15.5793 7.37445
4749 1 32.9865 17.7556 4.2466
3414 1 34.4748 8.73436 5.22192
7529 1 36.4132 4.69778 9.20465
4207 1 37.2421 8.86273 9.2757
701 1 40.657 6.88568 14.2765
5644 1 36.5879 14.178 11.8377
1027 1 34.4598 15.5885 5.52129
5450 1 34.4613 6.29213 6.57605
2430 1 40.0034 14.4184 11.9492
5980 1 45.5956 11.1698 14.6639
110 1 39.42 12.3374 6.50536
1896 1 42.7376 14.9208 10.9194
4727 1 41.7618 15.5784 8.1313
1827 1 33.1401 9.64209 18.1513
3708 1 36.3745 15.7807 7.50578
4141 1 44.163 16.9761 9.27466
3446 1 43.5838 11.7548 12.5771
5192 1 38.5746 12.2704 13.0951
5398 1 44.4285 5.57764 12.8502
7645 1 33.8383 13.0563 6.60771
3754 1 33.2264 7.97607 8.70768
4147 1 36.6552 12.9628 7.0641
5849 1 39.0349 8.17644 5.93064
7297 1 45.9406 8.0046 13.0444
7593 1 44.5247 15.8101 17.2356
1128 1 44.2559 16.7578 13.8586
2930 1 33.0597 9.51221 11.5739
2466 1 38.1883 15.6464 14.0891
2501 1 41.2761 9.17259 10.2682
6986 1 42.3374 14.2237 17.9075
6171 1 43.5656 5.74759 9.43486
5041 1 34.6098 14.3426 14.706
2901 1 42.3549 14.5231 13.7417
2058 1 35.8534 10.3406 17.5963
3938 1 35.4342 16.8351 13.6475
7830 1 41.9481 12.6815 8.84725
3062 1 39.0464 12.3406 9.40837
7381 1 41.903 6.59449 11.6815
1163 1 45.5113 13.9696 11.8323
1876 1 34.894 5.35327 13.6648
7169 1 39.3456 7.11718 10.303
2118 1 44.2496 5.30804 15.8624
4634 1 44.3291 12.2799 17.0139
5122 1 38.7421 4.40942 10.5865
2600 1 41.0564 11.6501 11.4766
5153 1 33.879 15.0271 11.9297
3178 1 45.9451 16.6287 11.3275
5668 1 40.5009 15.0697 15.7526
922 1 39.7782 6.98144 16.9575
6559 1 39.5427 12.5355 15.9568
480 1 35.3901 7.09664 10.3618
7915 1 37.2936 8.50799 15.1296
2507 1 38.9522 4.68247 6.75961
6966 1 34.4185 8.67766 15.6872
2301 1 42.5259 17.7274 6.27745
4993 1 33.606 12.325 16.9159
7382 1 45.1291 14.0161 14.7875
1886 1 37.7642 5.3146 13.0824
986 1 45.0728 10.8714 10.1552
7801 1 43.2889 8.84909 12.9757
6956 1 37.1314 6.2033 16.7526
7336 1 36.6545 17.1351 11.0926
4355 1 37.0447 14.1885 16.4134
7881 1 39.1931 17.845 12.4232
7187 1 39.662 9.6799 16.2832
4615 1 36.1962 10.2346 6.84695
5253 1 40.287 17.3142 9.87348
1145 1 42.2198 12.0625 15.049
4464 1 37.5329 17.5051 16.3586
5197 1 44.2283 15.7874 4.89597
4791 1 41.8642 5.11699 17.683
4678 1 43.8709 8.7076 9.05031
6063 1 42.4251 10.2302 7.15844
5689 1 34.2322 14.3701 9.1404
3801 1 34.566 17.2207 9.26262
6952 1 34.3142 6.0539 16.337
2802 1 45.7002 8.49774 15.866
6671 1 36.9163 11.4296 15.2429
7284 1 33.7827 11.3735 4.43756
6159 1 39.7043 9.81683 8.08954
6166 1 36.145 12.1986 9.7863
170 1 36.922 10.3327 11.8896
1496 1 38.8788 15.7374 18.2753
79 1 34.7019 16.8631 16.3714
459 1 32.8514 17.4114 7.10405
6225 1 42.1897 10.161 17.3572
5500 1 38.2548 15.0963 9.74124
7884 1 43.8177 4.82482 4.71626
353 1 42.0933 17.5138 12.0395
6841 1 40.1143 18.094 17.5802
266 1 46.0021 7.35213 10.223
406 1 35.3056 8.32376 12.9632
3340 1 44.8233 13.4577 9.05151
5187 1 33.7761 10.8038 8.35491
7739 1 32.9702 10.8484 14.3834
4166 1 46.539 9.86907 6.38954
90 1 46.0378 4.46456 10.4194
1377 1 32.7538 6.74353 12.5268
7198 1 34.9056 14.6222 18.2549
1947 1 38.818 17.2594 21.4759
4514 1 38.2424 10.8036 21.7957
7476 1 46.3594 17.3777 18.912
5801 1 42.2988 15.921 26.8402
7001 1 35.4355 11.4778 31.0884
260 1 40.2493 7.52161 22.2981
5385 1 36.445 16.4285 30.4221
6175 1 37.9167 4.91623 23.9286
4443 1 36.6369 6.31245 26.2148
4624 1 39.0008 4.82306 27.2713
3855 1 46.4229 5.88044 24.998
3451 1 46.377 8.31827 20.3924
5343 1 45.3465 5.83888 19.3179
6845 1 35.96 9.92481 27.425
5074 1 40.6063 5.07409 20.9439
3470 1 40.639 12.182 18.721
4431 1 35.3568 12.1476 19.8919
7508 1 42.8559 17.5991 18.807
5763 1 36.4975 8.00981 18.8707
448 1 37.4383 8.83975 25.1326
332 1 45.65 12.0728 23.9116
2798 1 45.9445 14.971 28.7416
4295 1 43.4004 5.51392 31.6234
7803 1 38.5219 10.3634 18.8721
398 1 33.8382 11.3272 28.8252
6591 1 40.401 13.7974 29.6422
3789 1 43.3926 9.44954 28.2819
4795 1 36.5113 7.38688 28.8053
1388 1 34.4585 16.9508 21.2452
963 1 39.2362 12.7173 24.4791
5008 1 45.9003 11.2832 28.0515
980 1 39.1923 17.4295 26.0565
5634 1 41.2081 6.29671 29.8913
5737 1 37.5464 14.0132 29.4837
460 1 33.7387 8.43366 26.161
3418 1 41.0064 15.7811 20.0919
773 1 46.4588 7.53552 27.29
4879 1 38.2531 17.6847 31.9245
5830 1 32.9482 10.7473 20.7393
25 1 40.3245 6.35667 24.9399
4619 1 39.6141 15.6214 23.7214
6095 1 37.6228 15.2083 26.7162
472 1 44.2032 4.45135 26.0022
271 1 38.0172 6.09166 20.2268
3010 1 43.1368 14.1911 28.9594
1263 1 34.8931 13.907 28.3719
1087 1 41.4634 13.1922 21.2346
5502 1 35.2589 16.5962 27.6689
3351 1 38.6542 13.6753 21.8207
3201 1 44.0464 14.0225 20.3365
3651 1 39.4158 9.45061 30.4569
2057 1 46.5744 4.76082 30.1084
3219 1 42.1271 16.7055 22.6714
1050 1 42.0951 12.6797 23.9433
1097 1 32.9482 4.46683 23.7825
7517 1 35.5513 5.25104 21.5229
7431 1 44.5525 16.9001 21.0112
2762 1 41.8499 18.0794 25.2019
6344 1 33.6631 14.3487 20.7662
3460 1 40.1264 14.0483 26.8788
7604 1 43.5964 15.0018 24.5454
2804 1 37.5737 11.2687 29.3486
4302 1 42.9803 9.79419 25.7062
2914 1 45.3747 13.5058 26.3257
4909 1 33.8957 14.1111 30.9427
2633 1 32.9491 18.2112 19.0834
7461 1 42.8834 4.86007 22.5864
1406 1 34.3534 15.7367 25.1883
112 1 37.2974 7.39766 22.5637
128 1 43.2358 17.9162 29.7603
3144 1 40.6533 16.1237 31.1776
6692 1 41.8842 10.2057 20.406
2387 1 34.6759 6.75184 24.0151
5678 1 42.0857 7.09549 27.367
4665 1 40.1193 9.12737 25.7841
3302 1 36.1812 10.9997 23.6734
6929 1 39.3441 7.63322 28.182
6135 1 33.5874 6.93529 28.541
6264 1 46.281 14.3777 31.5513
7484 1 35.9458 17.9521 18.8925
2635 1 44.6398 11.3129 20.6135
6997 1 36.0732 5.21551 31.7226
3444 1 43.0855 7.64764 21.6142
826 1 35.3868 8.64627 31.2279
3709 1 34.1208 12.8656 24.5586
7447 1 36.9656 15.6051 20.2807
5954 1 36.7368 15.506 24.053
2053 1 35.8633 13.5062 22.4447
7235 1 40.4934 17.4096 28.5088
7847 1 45.4371 17.005 24.6191
190 1 39.2587 11.4561 27.1839
2411 1 38.0297 7.06337 31.4324
7964 1 42.3666 11.4082 31.7206
1026 1 36.5332 12.564 26.175
5685 1 44.2141 7.98884 30.528
82 1 42.6227 12.4262 26.7866
2621 1 43.5415 15.5309 31.4016
668 1 44.5751 6.11056 28.4379
3619 1 41.7285 8.58505 31.7861
1241 1 32.8075 16.4159 30.1009
2550 1 44.7763 17.173 27.3413
3858 1 43.522 10.3142 22.9936
3088 1 35.7461 9.50752 21.2132
7536 1 45.9144 5.39454 22.2614
2388 1 34.0056 7.29602 19.8315
1971 1 45.681 14.681 22.6899
7878 1 44.6948 12.206 30.359
2672 1 43.1199 6.89845 24.6011
5355 1 40.4481 10.294 23.2848
6416 1 33.7255 9.426 23.4141
2284 1 40.2881 7.94558 19.4749
7541 1 41.2507 11.0671 29.1382
4361 1 45.5834 8.14057 23.1395
1231 1 35.4228 4.74561 29.0068
3847 1 39.4451 4.44834 31.1278
5832 1 32.7113 9.05344 30.1381
6965 1 34.387 4.51754 18.6362
3066 1 45.9303 9.73232 25.6374
6789 1 37.9592 13.1406 19.0205
4662 1 32.6568 11.1155 26.2208
5260 1 45.7522 9.95357 31.9911
4695 1 42.9943 7.42156 18.7385
938 1 41.7424 4.31685 27.7784
6350 1 45.9672 17.265 30.7607
3552 1 36.5869 18.2801 23.0085
2641 1 37.104 13.5271 32.3824
1209 1 34.3915 18.0971 31.5855
216 1 37.6663 18.2294 28.5286
7563 1 46.3703 13.8293 18.516
2707 1 40.0556 12.7931 32.2325
650 1 44.9215 9.70999 18.3429
3744 1 35.7176 9.32121 40.9079
5642 1 41.4038 4.31218 33.2253
5294 1 37.2379 11.3208 42.0798
2935 1 34.2315 11.4962 40.1281
3343 1 45.4786 13.8113 39.6636
1438 1 43.6129 10.2824 34.1885
6978 1 40.3594 15.6185 36.8425
1330 1 39.889 6.79147 44.7088
2848 1 38.9239 10.2 44.0956
2115 1 42.2382 10.9367 46.6691
4489 1 38.4212 13.8289 42.7913
7552 1 39.8341 4.55135 39.3354
4442 1 41.029 9.50334 40.8907
7158 1 32.8103 15.4734 40.9286
2942 1 41.4736 6.86493 40.0692
1546 1 43.7284 6.298 38.5444
7587 1 38.8468 10.5598 39.6583
4946 1 32.9612 12.5983 33.1687
1872 1 42.9352 6.18596 42.4211
202 1 38.7262 10.1516 32.9729
5108 1 36.2935 9.10998 44.7282
6408 1 38.4846 6.96264 35.5837
7140 1 38.3434 13.041 38.2901
5774 1 43.6235 4.82729 35.0725
6506 1 34.4818 10.1255 33.6306
5100 1 46.1615 6.69157 33.4678
7904 1 34.3207 17.0295 39.0192
2299 1 32.768 15.1006 34.4855
5133 1 40.8299 15.2733 43.582
5066 1 43.4171 5.96158 45.1795
6359 1 41.1888 11.6832 42.8893
2298 1 41.6247 17.8202 44.735
677 1 36.1068 16.4152 41.1275
4603 1 39.9613 10.6595 37.1381
4296 1 35.1291 11.5252 44.029
3465 1 34.033 17.0855 43.0252
1376 1 44.5531 8.83143 39.5123
4016 1 44.0448 11.6436 42.0536
6932 1 38.8153 13.4097 35.5957
4490 1 35.0762 14.3763 38.1032
283 1 39.0372 8.05291 42.2619
1497 1 32.5504 4.16989 44.7537
5946 1 42.408 10.2657 38.5375
7486 1 38.8186 16.6753 42.111
7225 1 45.2137 17.6354 44.7164
1460 1 33.1151 7.40286 39.5099
6708 1 43.44 8.84167 42.1511
2176 1 44.1058 15.6933 38.1867
2588 1 41.3575 5.26212 36.8484
1557 1 41.871 15.9097 34.5895
6152 1 44.0662 17.4755 36.0387
2750 1 41.6562 9.11114 44.3385
2277 1 43.5574 7.36884 33.9339
623 1 42.5435 8.16087 36.6314
2383 1 36.5267 15.2255 35.7876
3996 1 38.7284 13.6224 45.7865
3048 1 36.1364 18.2453 34.0464
2523 1 42.1951 13.5978 37.0945
7941 1 35.9892 13.2358 46.1754
42 1 33.7143 8.84776 36.0613
3203 1 36.6339 6.30844 37.641
6622 1 40.0482 7.80242 37.7984
113 1 32.6397 14.8259 44.4896
7378 1 45.6609 12.3458 33.6852
3952 1 36.326 7.18268 42.6947
1500 1 38.8791 16.5752 45.2026
3627 1 35.044 6.58039 35.2836
5449 1 39.6658 15.6092 39.5707
3504 1 33.345 13.0607 46.5981
5296 1 36.0024 16.2306 46.6736
3980 1 35.9842 4.35158 43.198
5310 1 41.242 12.1552 34.8822
5787 1 42.7694 15.0078 41.6247
7668 1 37.2431 6.97002 46.1767
533 1 33.4713 7.66451 42.2661
6578 1 34.1526 17.1636 36.0224
3950 1 46.4999 15.9626 33.9466
1718 1 44.4799 10.9296 44.7772
2526 1 40.7654 9.35139 34.7069
3229 1 44.897 17.0263 41.9615
6221 1 43.2126 13.7281 33.5207
6651 1 34.9832 5.54108 45.4731
1431 1 34.1624 13.4731 42.3922
432 1 45.2523 9.08419 36.6713
5880 1 34.5385 13.0562 35.5667
7873 1 39.9688 13.116 40.6691
660 1 45.077 8.20432 44.4869
7117 1 46.5276 10.4903 41.0192
6006 1 41.5782 13.1598 45.1398
7164 1 37.408 9.70216 36.3379
6857 1 36.0176 15.1626 43.8717
4948 1 33.4 4.82603 42.115
3123 1 44.856 14.4604 35.7486
7823 1 36.8033 11.7757 34.3976
3971 1 43.9969 14.2997 44.9438
4497 1 42.6602 12.8249 39.8393
7154 1 37.4171 5.29344 40.8887
1441 1 40.0863 5.25136 42.2433
4254 1 37.9008 7.92667 39.618
6631 1 46.3689 6.73138 39.6627
4751 1 36.4635 13.6674 40.5149
7245 1 40.2081 6.81871 33.4078
52 1 37.2342 16.4026 38.5027
4889 1 35.8515 11.494 37.8107
3021 1 39.285 15.3079 33.5067
6828 1 44.3279 11.736 36.8474
7176 1 34.7693 5.09363 39.53
6064 1 45.952 17.6521 39.3956
1347 1 45.7755 6.31898 36.3069
7307 1 45.4154 14.2559 42.4682
2874 1 35.3669 8.61572 38.2341
1242 1 45.2113 5.05903 41.5827
2971 1 38.4817 17.2608 35.4179
225 1 35.4107 15.6121 33.0619
6285 1 42.1334 16.9889 39.6288
3038 1 39.1434 4.21427 35.4017
6024 1 33.6435 8.19851 45.287
2077 1 36.5128 18.1606 44.2719
7151 1 34.0768 4.16016 36.806
254 1 36.8382 8.22211 33.7506
5950 1 41.1496 4.47811 46.1626
1573 1 43.3421 16.5541 46.629
682 1 46.5945 4.2364 38.0586
1977 1 41.7721 18.1583 32.9084
1029 1 38.4022 4.3968 45.6108
4047 1 44.4679 17.9756 33.2357
2624 1 33.8371 6.70209 32.6118
6454 1 40.5331 16.4112 60.4236
4918 1 46.5339 15.6694 57.0779
3882 1 45.7737 17.867 58.7492
4208 1 41.5102 14.6408 47.5801
5021 1 36.2796 16.944 53.0748
6717 1 35.3001 6.00023 52.1686
3285 1 34.7325 6.15284 55.2009
2175 1 33.7952 7.78227 50.6205
340 1 37.5065 9.17641 56.2447
4057 1 41.6593 17.7988 54.3718
3096 1 37.7048 5.90106 54.7626
1217 1 44.3622 10.1631 51.7483
2106 1 45.3181 8.46389 47.3047
86 1 44.2761 14.5305 50.4299
2514 1 43.171 14.7376 57.0935
1630 1 39.2238 13.1743 48.7064
1852 1 46.5853 15.5365 60.3747
15 1 32.7703 16.5014 51.991
596 1 37.7766 6.60825 57.6742
3537 1 46.1647 9.7411 57.2627
5336 1 34.3958 9.18543 47.9385
2078 1 38.8434 17.366 57.1114
5862 1 41.1729 7.7965 51.1477
6279 1 38.5976 8.30558 52.0752
5097 1 41.5397 17.2445 57.9439
1702 1 41.5942 8.66917 60.3373
5250 1 41.4787 17.6921 51.4843
6249 1 39.662 8.12904 47.1821
2236 1 44.3606 7.35741 49.7837
4959 1 33.4575 9.54388 52.7637
985 1 36.7833 6.85478 48.868
2334 1 44.7201 16.1383 53.8232
5242 1 35.642 15.8794 56.4095
4169 1 36.1768 8.31763 53.625
1900 1 46.4935 15.5315 47.4757
7472 1 39.67 8.21211 54.843
7217 1 42.0469 18.0085 48.5806
2578 1 36.2368 13.6967 51.6837
2974 1 39.0445 13.8595 51.5457
5673 1 44.6627 16.888 49.1403
5838 1 38.1265 5.5038 51.728
6469 1 36.759 12.0794 58.0435
2680 1 43.3108 6.45104 53.8341
5223 1 42.5677 9.52981 49.4704
3757 1 32.748 8.1048 59.6006
4071 1 44.1458 7.51419 60.3949
34 1 40.4067 11.1231 54.9179
31 1 45.8111 6.98674 56.5767
6847 1 35.0319 10.5262 50.4378
3985 1 41.3038 10.7441 57.4077
2225 1 40.3595 7.96211 57.7434
3057 1 44.1076 17.4064 56.2763
5280 1 39.7323 6.27105 49.3574
4479 1 32.8154 10.5916 55.3026
1020 1 33.8772 17.0406 58.4954
7120 1 46.2232 13.3427 55.4578
2238 1 36.6488 8.29891 59.7705
4280 1 45.5326 12.8252 46.7393
5161 1 42.0488 9.17125 53.5111
575 1 37.6827 11.8287 55.3141
4324 1 34.4551 13.5079 57.1507
2737 1 42.993 12.2081 53.8368
2528 1 43.3475 18.0034 60.1586
6462 1 34.8089 8.7897 56.2922
7180 1 33.0905 16.5098 46.8844
4287 1 39.5748 13.8458 54.469
3995 1 38.7468 10.033 58.7827
4179 1 40.1957 14.6638 57.1121
3044 1 43.9465 11.9611 56.6858
7944 1 34.882 14.5466 59.6723
3200 1 34.8298 6.60308 58.1322
1932 1 36.6948 10.5277 47.3272
2613 1 37.4795 9.40124 49.7595
3582 1 42.0478 11.9627 51.144
7234 1 36.8942 14.5745 54.304
3450 1 42.2495 14.8716 54.3947
1926 1 33.5065 13.8389 52.4797
3435 1 45.3666 10.7114 49.0256
714 1 45.9659 7.33692 53.8007
161 1 36.6348 11.0795 52.8581
7557 1 44.3403 5.50155 58.5111
3752 1 42.7682 5.36459 51.3001
2011 1 40.2886 4.20967 59.1912
5614 1 38.909 16.6603 54.4437
7611 1 42.3767 5.66901 48.4818
10 1 39.9302 10.7075 49.5698
7825 1 43.288 12.779 48.609
4111 1 39.7509 16.8174 47.8412
6392 1 37.6033 14.976 58.2956
658 1 45.1252 13.6517 58.7408
4020 1 39.3597 11.0712 52.2783
5600 1 44.1343 17.8596 51.7326
7183 1 43.5443 9.60915 58.5176
4861 1 41.6507 14.8035 51.4165
786 1 36.2037 12.8878 49.0338
2157 1 39.4476 6.72182 60.1431
3061 1 44.0568 11.6712 60.5101
7496 1 34.7432 12.5471 54.6695
1212 1 33.8189 14.4979 48.8906
4174 1 34.1166 6.26113 48.2094
3746 1 46.5543 5.49644 50.201
5099 1 41.8866 5.48901 57.0844
7122 1 35.0849 16.334 50.5814
5109 1 33.7126 16.9824 54.5808
7469 1 40.2197 12.6283 59.1423
5640 1 33.5469 5.57291 60.6592
7493 1 43.0234 7.99926 56.1838
2036 1 38.645 16.7294 51.5279
7478 1 44.9004 10.0004 54.6401
6142 1 40.7177 5.47364 54.5182
7608 1 45.2736 13.5909 52.861
7065 1 37.4702 15.6307 49.0591
5184 1 42.5136 14.2954 59.853
2701 1 34.7478 10.1087 58.8123
7102 1 36.4902 12.5528 60.8289
7051 1 42.5739 8.06001 46.9106
3879 1 44.671 4.49534 47.3431
4705 1 46.6677 4.45558 55.7682
3657 1 32.8175 12.1698 50.3151
7112 1 46.5935 8.34806 51.1889
3425 1 36.2243 4.16105 58.6087
4129 1 36.8177 16.5986 60.7137
584 1 38.7331 14.2804 60.8236
5281 1 39.3024 10.9538 46.7308
1157 1 38.1661 21.0021 5.81122
5113 1 38.3574 21.2628 10.0193
5810 1 40.4291 22.9786 9.01629
763 1 34.7923 27.0528 15.6285
3690 1 36.4773 30.4632 4.75716
4177 1 42.7664 20.1634 11.3607
538 1 38.795 31.1927 17.6736
6129 1 37.4832 27.8118 9.75104
7702 1 42.5165 22.727 14.8691
2001 1 37.216 32.3111 8.67654
5001 1 38.0534 20.159 17.2199
5874 1 32.8887 20.275 7.07349
2920 1 36.093 27.6938 12.2154
3931 1 37.2686 28.1875 16.4519
387 1 36.7409 22.3603 7.89662
5420 1 35.4169 30.5417 16.5746
4781 1 34.007 22.9782 12.4066
2161 1 33.7581 28.5541 7.64683
1325 1 33.4475 20.9626 10.4341
2564 1 38.0624 27.63 6.68812
289 1 43.8945 20.4417 13.8851
2616 1 43.2386 28.0879 7.00138
7125 1 41.7124 20.3288 5.37765
7230 1 36.3989 26.7475 4.60407
830 1 38.0483 18.6692 8.89918
2449 1 46.3933 27.2155 12.8246
7726 1 37.0677 19.1051 13.9831
7951 1 44.6744 21.577 16.6136
59 1 39.7599 29.851 11.8782
7333 1 44.6964 25.9955 10.8695
2401 1 45.8622 29.4205 6.57802
1759 1 36.7741 18.4485 6.32726
1339 1 46.5929 29.6915 11.1508
2562 1 39.9858 28.5798 4.81812
3189 1 41.4569 25.9467 12.921
1153 1 35.4032 19.8765 8.66216
6433 1 43.0316 31.5252 15.3823
4362 1 36.1153 20.1722 11.5181
2253 1 42.815 27.9213 4.31516
2590 1 43.1968 25.3805 7.72491
7105 1 44.7651 30.3813 13.2832
2857 1 42.1203 28.8322 10.2977
2717 1 36.3054 31.8501 11.2135
4350 1 37.774 25.7938 17.7831
3571 1 42.3374 19.1367 8.81083
373 1 43.5225 27.9223 12.7662
1219 1 38.0089 32.4774 5.91818
1851 1 33.8055 27.502 4.92984
5033 1 35.3696 26.1801 8.41788
3696 1 40.4556 23.2525 12.9677
834 1 35.2542 23.5191 16.0696
6979 1 34.9811 25.4775 18.1735
1685 1 44.1069 31.5817 5.7382
3390 1 36.4574 22.0632 13.828
5270 1 37.5361 24.1428 4.8834
4845 1 35.3951 20.5905 16.1141
1475 1 42.4924 30.6699 8.10101
6597 1 40.162 20.5721 12.0646
7924 1 45.5589 20.2397 10.5801
3606 1 38.9313 27.1596 12.3808
859 1 45.225 28.3636 17.0036
4306 1 40.4732 25.0341 6.8606
3558 1 43.8195 24.3508 12.9854
4074 1 39.4724 31.1491 15.1259
4941 1 35.6272 23.8561 10.1491
3439 1 36.3284 25.1632 13.8112
3947 1 46.023 32.1912 7.62286
1794 1 39.1665 30.1883 9.00547
5808 1 39.1184 25.4818 9.97112
5825 1 34.1149 26.1388 10.9991
5770 1 44.5828 31.2251 9.98657
2177 1 38.7743 25.8834 15.049
1780 1 45.981 22.4969 13.6074
7551 1 44.3955 20.9764 8.13631
1658 1 44.8277 23.5932 9.19255
7096 1 42.5099 22.974 10.8388
3949 1 42.6554 29.7849 17.606
612 1 41.7899 20.551 16.7139
7185 1 33.7519 28.8991 13.5332
1112 1 40.841 32.4064 9.45101
2221 1 40.1254 30.6402 6.47045
83 1 40.9223 24.3443 16.431
3545 1 41.6994 26.904 15.5526
367 1 35.0288 29.5299 10.2421
4502 1 33.6728 22.9418 8.27837
7798 1 44.3225 20.6042 4.39357
1504 1 41.5112 29.4522 14.1542
76 1 45.6918 26.3742 6.68749
939 1 37.7461 29.404 14.0043
4822 1 37.7295 24.9083 7.56448
4121 1 34.7275 19.8181 4.81544
989 1 39.754 20.3607 14.8479
2375 1 33.3868 25.3287 13.6874
6530 1 40.5667 27.7269 8.17897
5869 1 38.6556 22.9521 15.2781
6130 1 39.9567 28.5181 17.4827
4530 1 40.0661 20.2891 7.7289
4142 1 44.5623 26.4176 15.014
1659 1 44.3372 23.3773 4.98313
705 1 43.1104 26.7838 18.15
2572 1 41.9397 25.968 10.1983
1465 1 40.2071 22.8633 5.0098
6443 1 35.101 22.5341 5.55877
6483 1 35.5846 31.0287 13.8191
4691 1 43.9731 24.373 16.7774
3742 1 37.9401 23.6645 11.6584
7139 1 46.1807 19.0883 16.5962
2527 1 32.957 19.0666 16.322
3098 1 44.7372 28.4496 9.34726
6473 1 37.5514 22.8912 17.8792
7838 1 33.5854 18.8567 12.4264
5633 1 41.5263 31.8312 4.508
5141 1 36.4646 29.7703 7.5422
6283 1 42.3981 22.617 6.98547
2643 1 34.4666 32.4078 5.59166
5401 1 33.133 21.0586 14.2357
3591 1 42.3805 31.3212 11.8329
7148 1 46.2069 19.0387 13.0622
4995 1 32.9644 27.4731 17.9175
873 1 33.7824 25.1145 6.41264
6667 1 32.5524 30.991 9.9582
6051 1 46.4522 23.6499 6.85957
6626 1 32.6385 29.7958 15.9694
3718 1 46.6724 24.3382 15.4749
720 1 43.4232 18.3955 15.9126
91 1 45.3029 18.5433 7.09928
6764 1 39.9861 25.8756 4.1489
7740 1 34.2447 27.5844 25.5977
6663 1 46.244 21.1135 22.8364
5534 1 46.5181 20.9052 25.8318
3308 1 42.2038 28.7707 23.2697
947 1 42.398 29.6122 27.9968
4714 1 35.9486 21.1391 29.9003
7722 1 36.0932 27.0142 27.7688
6876 1 43.295 19.3683 21.8723
6082 1 39.9411 30.7565 28.9718
1970 1 37.3409 21.9271 23.275
1505 1 37.9401 19.5256 20.1087
5656 1 32.7327 27.0619 20.9026
6574 1 33.5066 19.8693 29.5898
1651 1 45.3675 29.7024 28.2573
3129 1 44.7399 31.0419 19.3147
900 1 32.6204 25.23 23.0052
7408 1 42.8939 27.2308 25.6143
565 1 42.8535 26.8329 28.6045
5556 1 40.323 28.0519 26.5381
1300 1 39.3835 25.1589 27.0175
1915 1 45.2635 25.0646 19.4584
937 1 41.1602 24.5275 21.2463
5740 1 40.0017 26.8535 23.694
6980 1 35.627 20.5126 21.6459
3198 1 40.8802 19.7092 19.947
4796 1 45.0301 24.1286 26.2633
3420 1 33.1733 26.4961 31.5938
2032 1 35.5727 25.0426 22.1405
7831 1 41.5736 31.5755 32.137
4585 1 37.1657 31.2409 21.1566
5665 1 46.6022 27.5351 31.5575
6781 1 35.5024 28.306 31.5014
140 1 37.3438 24.8518 29.0583
3556 1 45.0481 28.1945 19.8929
5945 1 34.353 20.3951 25.6742
5877 1 35.4736 27.3534 20.3474
4837 1 37.7645 29.7138 26.2717
799 1 41.0002 20.9102 25.2798
5236 1 41.1905 29.0059 30.9438
2294 1 45.469 25.405 28.6041
212 1 38.2989 19.7278 24.7145
1626 1 42.14 24.6966 26.7947
6945 1 37.6926 28.951 29.0012
4399 1 38.2609 27.2174 20.2393
1761 1 42.5641 31.0477 21.0476
4157 1 43.0093 23.1229 19.3119
3403 1 40.4711 20.2185 28.0161
3794 1 44.2326 19.7333 24.5392
394 1 38.9338 22.4472 26.9382
4842 1 37.0198 24.4385 24.5248
4085 1 32.9125 22.7849 21.2612
7216 1 36.1469 23.6433 31.4041
4426 1 45.2911 26.4251 24.846
4554 1 44.8745 29.3263 25.4156
4767 1 46.4561 22.6923 18.6642
7195 1 37.7097 26.909 25.5447
7576 1 40.919 21.8804 21.9222
7626 1 38.6169 20.1778 30.3571
7698 1 40.45 19.155 22.9052
1495 1 40.0401 27.1945 29.2321
3016 1 40.3921 22.394 18.464
4718 1 42.7552 31.1828 25.7033
4487 1 40.5279 29.0039 20.1946
3884 1 34.3638 22.2181 23.6972
1593 1 42.1581 24.888 23.929
3222 1 41.355 31.9712 18.5323
3628 1 34.7381 30.3284 26.576
6361 1 34.2784 28.7875 28.9939
7058 1 34.32 24.8223 25.3252
815 1 39.7989 23.3962 24.2528
5014 1 37.8826 26.7516 31.0076
5112 1 46.3094 20.1403 20.0048
6238 1 35.6544 23.2479 19.99
4012 1 35.981 27.8388 23.2615
5267 1 41.5687 24.8421 30.2854
6946 1 44.483 31.1372 31.6716
599 1 33.5205 31.1 30.3312
3909 1 34.5448 25.3557 29.5375
245 1 34.007 32.2238 23.267
6216 1 45.6833 32.3099 23.2694
6054 1 44.062 28.4242 30.7214
1750 1 43.4822 20.3646 18.9954
1538 1 45.4722 23.8234 30.8003
4590 1 46.5001 27.3447 22.3985
2137 1 44.4429 25.2563 22.3278
3616 1 38.5257 24.9593 21.9381
5151 1 36.0043 32.2818 28.1317
1833 1 33.4487 22.9229 31.6965
7738 1 39.8831 31.8087 21.0346
3204 1 43.3005 22.368 24.6896
7512 1 33.7741 22.6437 28.7349
5393 1 43.5697 21.7585 30.9841
2605 1 38.416 22.3108 20.7145
5649 1 36.0198 23.3577 27.0316
2972 1 40.5041 25.8252 18.7975
1978 1 42.4029 27.0427 21.0573
6976 1 36.3147 30.5861 23.8292
7499 1 36.7487 20.4675 27.1907
4376 1 34.0335 29.5832 22.009
1328 1 44.572 21.7219 27.6899
4065 1 42.7048 32.0197 29.523
3761 1 40.1414 30.2771 24.6685
2732 1 45.2633 19.9275 30.0125
3948 1 43.8096 22.3481 21.9079
3454 1 33.9689 29.853 19.1574
6096 1 43.0806 19.4989 27.2867
734 1 41.4301 19.9506 30.7886
6113 1 36.3598 31.0072 30.6066
5271 1 38.5251 29.0237 22.5956
1657 1 34.4643 20.7577 18.8786
3607 1 41.9677 22.5488 28.624
7893 1 39.2866 22.9396 29.7858
579 1 36.9115 29.5423 18.8834
6726 1 44.7052 29.7146 22.4813
6905 1 32.8862 19.962 21.464
6423 1 46.4964 31.9131 29.9868
4933 1 33.2418 18.4374 27.2924
447 1 38.5265 32.4731 27.1078
3248 1 35.1056 32.3831 19.6028
2372 1 38.8105 32.3722 31.0614
6196 1 33.789 18.3864 23.8149
4872 1 42.3218 24.735 42.2296
3563 1 44.6012 20.0629 36.8991
4410 1 36.1995 22.2945 39.9617
6872 1 42.8962 30.9412 37.983
1236 1 39.3972 24.6271 36.7733
5723 1 41.0419 18.3917 41.8414
6091 1 34.321 31.5079 33.7662
4051 1 37.5437 26.9476 44.9827
1398 1 34.0035 23.5271 41.5392
4849 1 38.4 20.4454 43.8729
7960 1 41.0903 22.4873 40.898
5852 1 36.1476 29.3864 44.1841
7715 1 38.0457 20.234 33.2622
281 1 34.8318 22.3476 34.9587
94 1 42.5793 26.7756 36.7015
7339 1 34.9902 27.986 34.3873
5065 1 46.2747 29.3982 39.8038
6543 1 38.8626 26.5377 41.9768
3436 1 46.5664 25.6413 43.3302
856 1 44.5239 30.2276 41.7987
858 1 36.2116 23.0241 43.6957
286 1 44.7722 24.943 45.2834
5937 1 43.6662 19.5814 42.3059
3099 1 37.0161 19.1156 41.5555
5176 1 43.0668 26.7594 43.8149
4511 1 36.0009 25.6988 42.8267
5024 1 32.5762 31.7812 37.8458
385 1 33.5366 26.7638 43.9159
152 1 41.1446 28.3834 34.9001
1394 1 44.1358 28.5592 37.9943
5463 1 38.0472 20.9512 36.0513
2366 1 40.2483 22.1311 45.7015
6147 1 32.8194 29.3528 32.5482
7272 1 34.0797 26.0113 36.2176
6325 1 42.9264 28.0448 41.3152
5232 1 46.1974 20.8901 45.5407
400 1 46.1119 25.4324 37.4702
629 1 41.2933 20.9315 43.1837
5433 1 38.6809 26.8146 34.8298
4899 1 33.233 18.9447 40.9897
2547 1 34.7392 20.8451 42.1944
7269 1 37.3875 23.5453 35.0281
4278 1 34.0414 23.9941 45.1785
7377 1 45.812 23.0408 34.653
6914 1 36.8353 25.1593 40.0529
3190 1 35.9346 31.0732 37.2449
1655 1 37.0813 27.632 38.6018
1399 1 46.1024 32.065 43.3617
3349 1 44.8292 31.7099 45.9177
3807 1 38.7524 22.9845 32.6056
4167 1 37.5327 30.4705 39.6415
3174 1 34.4241 20.1312 44.7943
4869 1 35.217 20.7003 32.6992
7371 1 43.8967 24.0722 36.5697
2488 1 43.4278 19.9246 45.1631
4962 1 40.3573 30.9604 39.3492
7303 1 40.7868 22.1952 35.8296
4062 1 45.5507 21.6436 42.2933
5823 1 46.324 32.1595 38.8677
5694 1 43.2228 30.1436 34.0979
1440 1 37.1492 28.869 36.1095
6790 1 42.446 25.9339 39.4323
6636 1 39.3611 20.1477 40.241
2345 1 40.3733 28.4845 40.6987
627 1 34.4087 28.441 46.1011
4760 1 36.979 30.7557 46.5517
2323 1 44.9488 24.2379 41.365
4932 1 36.5454 25.1492 37.2891
1590 1 34.2019 28.0497 38.1255
7162 1 38.6462 22.3522 38.5887
928 1 41.4615 21.0026 38.3176
2458 1 41.2705 21.9212 32.8775
7584 1 41.598 24.8299 34.9381
5618 1 39.7554 24.2857 43.6051
7805 1 33.3185 20.2634 38.3345
1924 1 45.2139 26.7056 39.8791
3168 1 43.4873 22.721 43.9602
1930 1 44.3634 27.424 34.7048
6206 1 43.3543 21.6406 35.0528
5812 1 41.3001 25.4105 45.6603
6474 1 45.7031 21.4587 39.2744
6179 1 45.6719 25.3087 33.1646
2016 1 39.6501 29.7491 36.8247
7745 1 36.7565 28.3263 41.537
6961 1 34.6962 22.9036 37.7776
3555 1 37.9682 24.0667 45.7362
3293 1 36.5364 21.4223 46.141
2433 1 43.3404 23.1892 39.1664
5003 1 43.4728 28.9711 45.6107
4747 1 39.9732 27.1998 38.141
2030 1 38.3008 22.4304 41.9927
6540 1 40.2951 19.4039 34.834
4859 1 35.427 19.9416 36.2514
6638 1 39.9102 25.403 32.6672
1444 1 43.586 19.5031 39.5028
7887 1 40.3204 27.7157 44.1166
4346 1 40.0577 30.3009 42.9368
6699 1 33.4422 29.7668 35.9803
1809 1 39.7723 24.8342 39.8813
487 1 43.8881 32.3301 40.1068
5968 1 37.4698 31.0373 42.4202
6733 1 45.7583 29.5639 35.8005
115 1 45.4856 28.2462 43.6687
4359 1 33.8594 30.7631 43.3933
7067 1 33.6782 24.6629 33.7445
177 1 39.6629 19.2259 46.2933
4770 1 36.6508 30.2193 33.3545
3775 1 33.7959 28.5528 41.6691
4708 1 39.1763 28.8266 32.84
1566 1 34.4113 30.551 39.5465
7205 1 36.4152 25.6958 33.3996
3001 1 34.0669 25.9466 40.1345
6866 1 36.0496 19.4786 38.9589
4213 1 39.3266 31.5809 33.7388
7016 1 38.5218 18.7826 37.8602
7792 1 40.3578 31.2912 45.5603
5789 1 41.3594 31.8813 35.8078
4484 1 45.3115 20.6546 33.1214
3714 1 42.7027 31.086 43.8691
518 1 41.4538 18.3612 37.1087
5103 1 44.4136 32.2729 35.8566
5062 1 42.3549 26.9892 32.5958
5427 1 39.0283 28.9594 46.4224
5964 1 42.6495 23.2859 46.6391
3008 1 38.4936 32.269 36.4508
5486 1 41.4648 32.4124 41.6204
7257 1 43.1971 24.1109 32.5554
7423 1 38.1655 24.4505 50.4061
2886 1 45.6414 31.0266 50.7281
7721 1 38.3622 32.4587 54.9586
6446 1 33.275 26.0245 47.0175
4263 1 33.0713 19.4647 47.3169
3669 1 38.6564 27.9901 49.1423
4571 1 43.3419 20.2355 56.4546
1706 1 40.6721 23.6402 56.9253
6334 1 38.7221 18.5924 59.9141
6678 1 45.6444 25.2385 54.4231
1867 1 40.0371 21.1505 48.4419
3040 1 45.0925 22.45 47.9144
3022 1 35.3596 27.2845 50.3737
597 1 33.3115 23.4366 57.531
1010 1 37.3843 27.6958 57.0527
6487 1 43.5782 30.5018 59.7825
4897 1 44.0279 30.4059 53.0076
454 1 42.827 21.6716 50.5447
4386 1 32.7483 27.5869 49.2573
4242 1 43.8975 24.9643 48.9784
2042 1 45.1011 23.9186 56.947
7733 1 40.8454 26.8994 50.8851
224 1 41.6612 30.2405 56.1556
2697 1 33.3883 19.6598 53.6827
1831 1 34.1061 22.1264 47.4801
6522 1 35.836 31.1962 54.7192
390 1 41.0582 26.2313 55.5618
4050 1 35.904 25.1157 53.074
5963 1 34.9529 18.6492 49.2813
1646 1 42.9179 22.8919 55.5216
3354 1 45.4139 27.7465 53.0515
7776 1 35.8772 24.8404 59.2582
3540 1 45.4899 20.4664 51.485
6169 1 45.3636 29.9009 57.6652
5247 1 37.925 30.4933 52.7611
4256 1 45.1671 19.774 48.726
1418 1 36.2316 19.619 53.5536
191 1 41.8557 26.8095 48.2129
2844 1 39.1754 19.4829 53.882
6304 1 40.975 31.8102 53.8617
7602 1 38.6368 24.1925 58.6912
1172 1 36.6392 29.8664 50.3231
1724 1 36.5007 31.917 57.4012
6232 1 38.7367 30.1289 56.576
5719 1 35.701 27.6012 54.658
5114 1 40.5167 24.2445 52.0531
7292 1 43.6677 31.1159 48.5924
2837 1 38.0766 20.824 56.9817
5816 1 32.9549 22.3149 53.099
5563 1 40.238 20.3373 51.2413
1479 1 46.673 22.9746 50.2548
3899 1 36.3417 27.1415 47.7522
6315 1 45.9963 29.3329 60.3731
197 1 35.8419 24.3523 47.6194
1893 1 41.9639 28.5751 58.3489
4769 1 39.6873 26.8284 58.1707
7596 1 42.8975 25.1133 53.7205
3212 1 40.5877 19.6481 56.3934
4391 1 40.217 30.1971 50.0216
4106 1 35.8465 21.8139 59.5699
7126 1 34.1973 28.5734 52.5885
3853 1 35.0259 31.4181 51.9599
710 1 36.4052 18.6219 56.3364
2141 1 36.9336 24.95 56.483
6579 1 33.9547 20.1956 56.4291
1975 1 33.1687 20.9129 59.1913
6068 1 42.7453 28.1065 54.4862
3458 1 46.0579 23.8632 59.5769
2889 1 37.4402 22.1936 48.7239
1941 1 38.5617 28.0288 54.467
6495 1 37.9334 26.9573 51.8435
1414 1 33.8047 29.4566 56.065
2453 1 43.6067 26.6695 51.1767
2409 1 36.5936 20.6103 50.7378
6172 1 43.1396 26.0236 57.6335
3871 1 33.0332 25.111 53.6505
512 1 38.1746 31.8959 49.0259
6985 1 35.7708 22.3397 56.7075
7457 1 41.2027 23.5711 49.2096
3713 1 36.0359 18.9239 59.059
3373 1 44.0768 31.3902 55.5879
5487 1 41.892 22.6463 59.2243
798 1 38.4825 25.1185 54.1427
3235 1 32.9942 31.4442 54.0913
4641 1 45.2316 22.3531 53.6356
5679 1 34.7211 30.3111 48.1751
1698 1 37.7113 28.6048 59.7844
4648 1 39.8382 30.4586 59.2499
1549 1 45.9732 19.6451 55.4391
7618 1 39.418 25.3943 48.0335
2113 1 35.2222 24.5015 50.4247
2259 1 42.8796 29.3483 50.6838
1904 1 34.0521 21.8341 50.4221
7227 1 39.2618 22.3069 54.9292
7620 1 35.7347 22.2595 53.8243
5348 1 43.6623 19.8678 53.6228
336 1 41.4701 29.6428 47.5158
747 1 38.2016 22.2002 52.3248
3419 1 33.8629 27.0539 58.7861
1080 1 34.2219 25.7516 56.07
1564 1 45.336 26.5243 60.3094
5927 1 44.2522 23.8818 51.5261
1580 1 40.5732 29.1693 52.7269
6960 1 41.2125 19.931 59.1619
1936 1 38.496 18.8884 49.5901
3508 1 35.478 29.4284 58.319
3176 1 38.6837 21.3977 59.7491
1618 1 45.4003 28.2968 49.4491
4706 1 41.5579 21.8516 53.2403
231 1 42.6358 20.5954 47.8347
2140 1 44.3996 21.5848 58.5466
2108 1 45.1737 27.5271 56.3131
2993 1 33.3333 24.1233 60.5444
497 1 33.7383 30.2537 60.5237
5126 1 36.9149 18.8465 47.2211
4591 1 32.7766 19.3331 50.8896
4783 1 32.9829 30.1034 50.5205
238 1 44.6185 27.0594 47.0344
4811 1 37.8265 32.3724 59.746
1684 1 42.6422 25.1022 60.3468
6411 1 42.9752 40.6759 14.0049
1288 1 42.4562 45.488 17.7227
3213 1 44.783 44.2194 12.7832
3841 1 41.6219 45.6263 14.9606
4352 1 41.8713 34.0122 16.5259
3771 1 40.3459 40.717 15.1871
3187 1 39.1519 35.31 11.2281
7168 1 45.5176 41.6428 5.64124
3241 1 43.7784 41.9588 11.3766
4202 1 34.771 36.6708 9.53982
5361 1 41.5631 38.2478 16.1244
6709 1 34.5044 42.4932 16.9974
4334 1 46.6297 41.6029 10.4704
6780 1 37.6912 39.9595 15.8536
957 1 34.4025 44.4813 11.5679
6674 1 32.5668 41.4993 7.20925
3516 1 33.4898 36.0629 5.69784
3041 1 40.5438 44.4542 5.77511
681 1 36.0002 34.8182 5.8901
4476 1 36.9754 36.1744 8.02778
6214 1 41.8569 43.8146 12.676
7642 1 44.9297 40.589 8.17872
7942 1 39.0705 34.954 17.0021
7114 1 33.0637 36.6667 13.6684
524 1 40.108 44.2268 9.36871
6260 1 37.7745 37.7592 14.228
6368 1 38.9801 41.2426 8.00479
462 1 45.4538 39.9454 12.6672
4097 1 36.4905 43.4563 14.9739
2959 1 45.1386 33.9632 9.76091
2758 1 36.434 36.2051 11.9337
1425 1 35.1735 43.2265 7.57087
491 1 44.6013 38.4848 10.2839
1443 1 45.6085 37.3813 14.0929
3277 1 36.4218 45.3575 17.1712
4986 1 39.1172 44.5901 15.9656
5204 1 38.6462 45.023 11.6474
1829 1 43.1142 42.8834 5.13765
4623 1 35.288 38.9313 17.0744
5553 1 39.443 39.4706 12.724
3116 1 33.9421 44.9231 15.0627
4091 1 39.6135 34.8006 5.9016
2674 1 36.2689 40.4363 7.23422
5101 1 34.7471 34.1579 10.8404
2421 1 42.1441 39.874 6.32109
2765 1 38.9231 34.3537 8.64451
2037 1 38.4358 38.0095 10.7236
306 1 37.5437 33.133 14.1886
2646 1 43.5077 43.4206 15.1456
6721 1 33.8107 40.2248 15.2813
408 1 45.4794 32.9385 16.222
5583 1 34.9597 46.0996 6.94294
1086 1 42.4767 37.2272 8.59472
3233 1 33.9709 38.8246 7.90115
6534 1 45.9285 36.5115 8.69991
4737 1 45.2074 45.1202 16.5803
6343 1 41.5963 42.4962 7.65049
2274 1 41.8591 36.0556 11.2989
1448 1 34.367 32.7387 8.46929
2434 1 44.0281 35.2533 14.8719
6669 1 36.8919 41.0503 13.345
4049 1 46.0303 33.0423 13.5047
4395 1 35.2291 38.5134 13.328
7791 1 39.9128 38.655 8.59414
5335 1 41.4122 46.3079 7.90423
277 1 37.4617 46.2761 8.16446
3404 1 42.9905 42.6558 17.733
4600 1 40.3139 41.7725 11.154
5921 1 33.3894 42.5126 9.83113
3643 1 45.8535 34.7204 6.42749
2544 1 36.665 44.2047 9.99896
849 1 34.6636 35.0032 17.9983
5026 1 37.5531 41.6143 10.5174
2132 1 45.3711 36.1428 11.4915
28 1 42.6581 34.5425 8.94766
1789 1 41.0606 33.0024 13.8342
1323 1 43.8408 45.1627 6.7943
2659 1 41.8355 36.6358 13.9823
5616 1 33.8967 40.208 11.5265
4023 1 43.4885 33.9447 12.4636
949 1 34.7263 42.8083 4.79415
7561 1 39.0025 32.5706 11.7566
4820 1 33.1592 36.8848 16.5668
6223 1 36.0772 39.2823 9.95276
3387 1 36.791 32.9745 16.9169
7485 1 44.2739 36.2859 17.6099
7900 1 38.0777 38.2107 6.37715
7059 1 44.2739 38.9623 16.0402
2097 1 39.684 40.4612 5.32669
753 1 37.31 41.9071 4.89706
1672 1 38.1705 43.6761 7.05114
1648 1 45.5919 41.3319 15.126
5776 1 42.2726 40.2557 9.40042
2973 1 44.6048 38.2026 6.65306
2818 1 33.221 32.5448 17.2739
6612 1 42.6131 45.5056 10.2956
7678 1 36.2898 45.6199 13.2881
5131 1 34.2494 42.3077 13.4118
4266 1 39.2554 35.376 14.0988
5468 1 36.6634 36.4246 16.5365
4245 1 33.4913 40.3088 4.67134
1799 1 39.0947 37.887 17.6029
3035 1 43.995 43.3925 8.9337
5421 1 45.7811 42.3912 17.8782
4427 1 42.0984 38.8007 11.9492
6403 1 35.3964 35.0875 14.2936
2851 1 39.1609 42.8653 13.7248
7882 1 35.2318 38.2678 5.40788
2511 1 42.2125 33.7564 6.3646
5437 1 43.5461 35.9225 5.38203
3185 1 37.3283 42.0448 17.5262
965 1 40.9223 37.273 6.12587
1949 1 40.1951 42.3306 17.3851
3400 1 33.7885 32.9978 14.607
2548 1 46.1938 46.5638 7.40796
5158 1 32.6858 35.0047 8.22431
2958 1 41.4702 36.5203 18.2909
401 1 39.5873 46.6113 17.9843
2495 1 32.6547 44.8933 8.53528
7899 1 38.0125 44.7558 4.37033
968 1 32.5778 37.8483 10.9791
5859 1 42.6793 39.9787 18.22
1182 1 35.2475 45.4873 4.22989
842 1 36.3934 40.7801 21.9406
1674 1 33.0456 37.974 27.4276
7109 1 34.5197 35.839 22.834
5978 1 46.6396 40.8668 23.8332
796 1 42.9319 35.6577 27.6763
6046 1 35.8514 44.8001 30.9258
5202 1 41.3099 41.5497 31.3523
5889 1 44.9796 42.6077 31.2408
3173 1 36.7488 37.988 22.904
3162 1 36.0555 33.8426 22.058
1989 1 37.6563 35.8266 24.6377
6481 1 34.2857 38.7148 21.2755
4792 1 44.406 38.1294 27.6894
4389 1 37.5254 43.9233 19.5454
5756 1 38.8631 39.475 30.3892
4522 1 39.7496 32.8356 23.6992
7912 1 46.3208 34.1648 19.8325
4856 1 34.1088 40.5166 27.1039
3177 1 41.0221 36.6698 22.3672
2273 1 36.3305 35.9846 29.9539
1141 1 41.9153 41.12 28.2618
6057 1 34.5011 46.5141 20.9225
6919 1 41.3243 37.4276 25.841
5480 1 40.8609 45.9483 21.8406
246 1 42.5498 43.5792 29.8408
3290 1 32.5136 32.6438 20.7499
121 1 33.4508 33.3231 31.9044
1298 1 39.2486 45.3144 25.2374
6341 1 44.9789 46.3074 30.1132
758 1 38.1496 43.2661 22.2498
7646 1 44.5963 45.4434 25.5787
1186 1 38.7288 40.2594 26.1509
1778 1 43.2786 44.7133 22.9889
3280 1 46.4209 36.5262 26.5511
5989 1 44.1412 42.2498 24.3535
7094 1 40.7259 43.6182 23.5137
3493 1 39.3529 35.3587 26.6247
3881 1 36.7273 40.0 28.2544
6572 1 43.3146 37.8734 23.6646
1065 1 37.5841 37.4203 27.8827
4451 1 45.5963 41.2908 26.7416
1529 1 36.1158 39.7335 31.0057
625 1 40.9364 40.8429 24.4081
1335 1 41.747 45.9586 26.4146
553 1 34.6818 34.1853 25.3039
370 1 35.4441 36.8777 26.2201
3421 1 36.5875 46.5388 24.7399
466 1 34.211 37.7438 30.0921
39 1 38.82 37.8185 20.6673
4271 1 40.3299 44.3361 19.624
5943 1 33.23 36.1115 20.2962
6079 1 44.7344 33.9129 28.8978
2286 1 33.1012 45.9247 30.7286
897 1 43.5102 45.0257 32.2408
2906 1 36.0134 44.5757 26.7177
6112 1 44.8526 40.707 20.0281
5007 1 44.5066 43.6532 27.7919
6737 1 42.0065 43.1181 26.2029
1251 1 37.6741 42.7827 25.2454
294 1 38.5684 45.131 27.842
1518 1 44.8775 37.2277 30.4698
307 1 45.976 45.5022 22.3677
549 1 42.5905 38.9863 30.9405
7054 1 42.9724 40.3883 22.3147
1226 1 41.9549 38.4772 20.4949
1105 1 36.3748 33.6372 31.7721
1521 1 36.0787 37.1093 19.4163
4857 1 43.8192 43.3318 20.4704
6970 1 33.5747 43.1754 26.2678
1439 1 39.2828 40.4106 22.0299
816 1 39.9281 40.2269 19.1354
3719 1 44.373 36.9834 20.3331
2222 1 44.5869 40.4552 29.438
7869 1 41.5297 34.8458 24.6375
4991 1 41.1781 34.1766 30.6643
4257 1 45.518 38.8372 22.1651
7568 1 38.7851 42.3876 30.2368
1312 1 33.7089 41.1173 29.8771
5257 1 43.1408 39.796 25.777
1333 1 43.748 33.561 18.6179
4663 1 42.6874 34.5445 21.1429
2868 1 33.3472 39.7436 23.8751
1101 1 38.7097 35.0206 22.0984
2882 1 37.13 33.0695 24.7046
6865 1 36.0892 39.519 25.1981
7348 1 46.5887 42.7186 21.4409
1472 1 43.8755 34.7248 31.448
7684 1 36.0952 42.7653 29.0339
4778 1 39.61 42.6359 27.522
7091 1 37.9417 46.0506 22.0568
1844 1 40.2311 38.8475 28.0098
4269 1 41.285 42.2174 21.0282
7599 1 41.5028 33.283 27.0786
2870 1 33.2934 45.1729 24.3906
7248 1 34.6593 34.6883 28.086
1290 1 34.9393 42.9493 20.4445
6616 1 34.4309 42.8844 32.1517
3068 1 44.9913 45.6454 19.4098
6549 1 33.7374 46.2243 27.9314
6489 1 45.2376 34.9141 22.2844
7193 1 35.1905 42.013 24.1967
7395 1 33.9823 44.883 18.5853
7796 1 37.2023 34.504 19.4866
4605 1 42.7798 32.6352 23.2976
6318 1 39.2877 38.1949 24.1301
5461 1 39.0483 36.813 31.1796
95 1 38.6637 34.4406 29.3086
7491 1 32.8862 37.1572 24.7392
1585 1 41.3221 36.8482 29.6008
782 1 40.182 34.3338 19.8207
215 1 36.9846 40.0328 19.4315
244 1 44.2709 35.5751 24.9799
1632 1 35.5111 44.5451 22.795
1121 1 40.0293 44.9736 30.4221
7832 1 34.0576 40.5418 19.0747
7905 1 32.803 42.2437 22.3326
1853 1 44.9942 32.911 26.1186
1206 1 42.2439 46.4248 29.2011
3753 1 45.9633 38.5945 18.5619
6001 1 46.6412 43.7561 24.4597
4276 1 44.8396 45.5678 45.2311
2265 1 37.6841 33.875 34.2424
3604 1 40.4381 43.9981 45.3266
68 1 34.4192 43.0046 41.6642
4196 1 36.9234 38.0702 44.9315
5707 1 32.7026 45.3351 41.2345
7987 1 39.854 36.8799 35.7195
3648 1 43.1584 44.2993 39.2148
2295 1 39.5338 39.5944 44.8565
4552 1 43.4056 41.518 33.3873
149 1 36.1045 45.368 42.1305
5848 1 43.5605 36.7414 36.4962
2312 1 37.8901 38.4856 34.5548
7891 1 35.0294 46.2376 44.6363
2663 1 33.1126 33.7519 39.9105
213 1 37.5213 35.9536 43.3339
6821 1 34.5951 44.2031 34.5125
1666 1 34.397 33.1869 36.113
4149 1 42.1641 35.1527 41.8569
3501 1 35.1006 32.7162 41.6685
4181 1 38.8872 33.6619 42.1874
1541 1 37.0166 45.5727 37.187
5907 1 39.8078 33.7649 38.6668
2149 1 44.979 39.6756 41.7594
1126 1 44.3862 42.8619 44.5382
1248 1 40.9533 45.6219 40.6816
6482 1 41.8312 40.5232 43.5124
3055 1 33.1855 41.7218 35.4135
6043 1 34.6085 35.2802 38.0878
5991 1 33.5272 36.3807 41.5716
81 1 40.998 41.8548 35.0146
5818 1 44.7495 34.2765 41.9791
1165 1 45.6222 33.3299 33.2984
3682 1 40.8903 40.3997 40.9084
6224 1 38.6281 41.9591 46.2378
4697 1 44.5313 38.9169 33.0383
821 1 39.7691 43.1275 41.0439
7553 1 40.5121 37.382 38.3137
4308 1 40.8824 44.0249 33.0291
505 1 46.4073 36.6692 32.7541
1637 1 33.2631 43.962 44.3433
7459 1 35.0352 41.7885 37.6708
774 1 34.9157 39.2604 43.5226
4252 1 35.4292 42.0382 44.2168
6155 1 38.0011 41.3925 43.4551
7231 1 39.6774 35.9305 40.6057
5209 1 40.7062 43.064 38.3277
2209 1 36.0724 37.5202 41.5348
766 1 44.3467 43.7996 34.7335
4030 1 43.6199 36.3925 33.7841
499 1 43.3954 41.8653 40.6826
3965 1 44.0463 37.1505 44.3564
2427 1 39.8083 37.611 42.8958
831 1 34.9756 44.252 38.9624
1894 1 34.7766 36.4668 46.0072
3907 1 39.006 35.3241 45.728
4034 1 36.9616 35.9748 39.2731
6345 1 41.7035 34.6349 36.379
6086 1 45.4151 45.5368 37.8783
5970 1 37.8577 42.6155 37.8865
4919 1 45.7815 36.862 42.1578
1877 1 35.0277 34.7824 43.5366
3633 1 44.4297 39.9623 44.5631
7559 1 45.9852 46.1427 35.2928
4777 1 37.9086 38.5326 38.7354
3726 1 38.3385 44.3389 43.3052
7302 1 37.3048 33.3902 39.9739
4806 1 35.1471 39.0481 38.2655
3720 1 33.4183 40.4264 45.7617
4000 1 42.5646 34.4695 39.0293
7239 1 42.6154 46.0375 43.2306
6576 1 46.6247 40.1144 39.42
674 1 43.344 42.4108 36.9271
3681 1 34.1672 46.0328 36.6364
2341 1 37.7132 44.8203 39.8646
3562 1 33.8141 38.9397 35.6998
6649 1 41.1155 40.053 38.1388
7747 1 44.4797 46.2165 41.0306
576 1 43.9101 40.0625 38.4877
2751 1 39.9787 35.0043 33.1338
6898 1 38.2364 39.4607 41.2811
3531 1 45.288 43.5008 42.1032
6037 1 45.7947 36.1112 39.4682
4215 1 38.7163 40.2891 36.6705
824 1 33.7669 37.4433 33.0634
5798 1 34.2229 40.1859 33.1389
4721 1 35.2875 35.2696 34.2156
7075 1 37.0789 42.0447 40.764
3366 1 43.2461 37.4717 39.2341
4259 1 44.6116 40.0028 35.7604
3158 1 36.0084 37.0894 36.1131
186 1 34.8725 40.1601 40.8305
4481 1 46.2275 37.8139 36.2531
1650 1 42.4653 38.1482 41.9614
2902 1 41.0456 37.6991 33.106
4536 1 41.955 43.284 43.0372
1278 1 41.9499 39.0674 35.5908
5362 1 36.2003 40.8207 35.1518
6886 1 37.1714 43.4741 35.1887
4446 1 37.9851 35.1307 36.7443
4416 1 46.1338 42.6645 37.7429
2194 1 32.9166 37.4809 39.1451
5539 1 38.0797 44.8731 32.6533
5919 1 41.5044 35.7465 44.6908
635 1 39.3849 40.2603 33.0561
6582 1 44.9646 34.3212 44.8396
2217 1 39.844 45.9125 38.1555
6493 1 42.0414 40.192 46.5775
7910 1 36.8187 44.2232 45.6485
616 1 42.4765 33.6026 33.8788
4458 1 42.4165 33.3182 45.6256
2135 1 39.8751 44.3311 35.7197
1974 1 42.3834 45.9552 34.881
2662 1 44.9941 34.5329 37.4379
896 1 32.6169 42.3918 39.2691
2227 1 38.0873 32.7609 44.7976
4840 1 46.6626 35.1676 35.1101
3365 1 32.6999 33.602 46.1895
3857 1 35.1255 32.6123 45.1013
2929 1 36.5678 37.272 32.5436
3149 1 37.2031 42.0384 32.6139
1839 1 46.6503 40.7113 32.5023
1222 1 34.7359 46.6076 32.8566
5512 1 42.6755 46.6671 37.7728
6276 1 41.3964 42.4912 57.3696
4255 1 45.9003 40.4667 47.1165
7538 1 32.5971 46.3774 55.7258
6629 1 39.6393 44.6633 49.0457
5210 1 36.0996 37.4923 56.5878
1823 1 35.9416 34.4492 59.827
7334 1 45.3682 33.8062 56.386
162 1 42.5179 33.8054 55.4645
6686 1 44.0954 41.853 58.1764
4598 1 33.0517 38.669 51.1882
6964 1 42.2385 45.6522 47.9777
5870 1 43.2488 33.0308 52.2624
5104 1 45.0536 36.6007 59.7217
4041 1 45.296 33.8588 50.449
5032 1 39.579 40.5192 57.5362
1162 1 36.9783 43.0946 56.2655
5415 1 38.2494 42.8606 53.638
474 1 45.5821 33.9249 53.4781
6267 1 41.6981 42.3854 53.0795
5436 1 36.2416 45.9589 47.9246
7040 1 33.3304 44.05 57.1588
5069 1 37.3673 36.1003 48.7043
3768 1 36.1106 39.3578 53.6762
1996 1 42.4787 35.3099 59.5664
4171 1 39.7897 34.5109 56.4215
223 1 42.1787 39.1261 57.6709
7448 1 32.6887 41.4368 51.9835
5019 1 37.362 36.6799 54.066
6041 1 36.8518 40.1585 47.1769
6891 1 38.0976 45.8068 53.0773
4123 1 41.3567 37.7622 60.0958
7623 1 34.4511 42.4438 55.0896
6062 1 42.948 36.4721 50.8373
2279 1 38.1491 42.6661 58.916
6306 1 41.3366 37.6217 54.6913
7692 1 35.5885 41.9738 52.4892
697 1 33.7533 43.7983 49.7008
7003 1 42.4361 35.3916 53.2738
647 1 36.9986 38.6561 51.155
2609 1 39.6435 35.0147 53.5411
1627 1 39.4261 39.4062 49.5463
1713 1 37.7704 40.5855 55.4348
7837 1 42.2008 36.3402 56.9298
7973 1 41.2038 35.4795 49.0468
5659 1 39.2854 36.2875 58.4998
4729 1 35.9836 34.0576 54.5539
8000 1 41.8325 38.9256 51.0161
3202 1 40.0494 33.2974 47.5968
1420 1 43.5608 34.0869 48.1768
4176 1 33.2295 40.9191 49.2948
4669 1 35.0114 35.8311 52.4586
1511 1 40.0399 44.3051 51.7299
3339 1 39.7003 44.1162 55.8871
4077 1 36.1161 39.9227 59.7875
7453 1 44.9271 39.2194 56.9418
1581 1 32.9803 34.0233 60.5104
6660 1 36.022 40.8277 49.9536
5890 1 43.6861 44.5502 57.0392
1859 1 43.9854 33.0952 58.832
2074 1 33.5795 38.175 53.9216
1045 1 41.9554 40.4968 55.1697
1804 1 39.6977 40.4674 53.2616
3621 1 36.0399 44.6165 51.4618
3028 1 42.1367 44.6323 54.6594
1268 1 44.7045 41.6664 55.4509
7412 1 43.4307 39.043 53.2433
1210 1 45.5175 36.595 49.8518
6942 1 45.6251 44.4029 54.8404
2724 1 39.4212 37.7575 52.369
7955 1 42.8808 40.4293 60.3229
1150 1 39.3501 32.6896 51.5684
2617 1 44.7687 36.6435 54.1858
4776 1 45.6284 40.7518 53.0862
4693 1 35.0978 37.0827 49.9094
4230 1 44.8755 42.7667 48.5816
3283 1 44.4732 43.1812 52.3615
4312 1 35.2695 40.2005 57.0084
7170 1 34.5652 38.7053 47.6138
3900 1 40.7166 42.4353 60.2132
444 1 33.508 35.182 48.4203
5923 1 44.2537 36.8931 47.3205
352 1 37.0438 43.3558 49.0298
2649 1 38.9288 35.2954 50.6605
368 1 33.9445 44.9942 53.522
6402 1 42.7024 43.0787 46.7829
5370 1 34.9952 42.4575 47.2601
4480 1 36.1757 45.7255 55.2464
3683 1 40.6172 41.9307 48.4272
7156 1 42.6637 44.6354 50.5743
6114 1 35.5846 33.0029 48.9405
621 1 36.6325 33.7032 51.5557
35 1 46.4495 33.0653 47.815
7000 1 41.4773 44.9596 59.0801
6855 1 35.2265 42.5655 58.6086
7410 1 43.7258 39.4539 48.6839
1327 1 46.2159 43.2382 59.408
2926 1 38.9746 37.9993 56.2224
6357 1 41.5262 37.4717 46.9964
469 1 33.3423 36.8713 56.3464
7011 1 38.648 41.8422 50.8002
6215 1 37.0999 34.8744 57.2098
1992 1 45.0793 36.5663 56.9787
6360 1 42.7766 41.709 50.2516
3357 1 44.0759 44.7979 60.1326
6434 1 35.2094 37.218 59.4092
5352 1 45.6921 39.4746 50.4927
7877 1 36.5426 34.3982 46.7657
3639 1 34.0012 33.1287 57.934
5159 1 38.703 45.6382 58.3006
4205 1 40.167 33.9839 59.9152
1155 1 35.7978 45.4695 58.1131
3837 1 46.2303 46.652 60.5065
3408 1 38.7967 39.0484 59.7889
129 1 33.094 33.2413 50.4934
3256 1 33.2512 34.2349 55.4126
6645 1 45.0579 45.5221 48.0611
1280 1 38.8326 37.9885 47.1961
5700 1 33.6463 45.14 46.9429
1488 1 43.1251 46.4977 52.6849
869 1 41.7291 32.6813 49.9229
6204 1 45.4186 46.0168 50.9934
1911 1 45.8675 32.9692 60.8362
1916 1 32.6516 45.2127 59.6872
439 1 32.5581 36.5337 59.2244
3133 1 41.3924 32.5067 57.794
794 1 46.6709 37.4921 52.3488
5922 1 37.6686 36.4572 60.8547
2206 1 45.3283 39.1315 60.7315
3345 1 38.7812 46.1428 46.7322
6681 1 42.3686 59.6786 15.6178
3524 1 43.9079 58.4408 17.7551
2825 1 34.081 56.3926 12.605
1805 1 38.7671 51.1659 10.0486
624 1 34.5966 53.8386 6.74241
4734 1 32.6855 58.0295 9.93924
4491 1 42.0129 60.2005 8.53888
3675 1 37.7822 47.5553 10.6204
5193 1 43.8951 50.9459 14.3202
1317 1 44.8717 47.1127 9.87337
5517 1 37.7427 54.0223 5.52611
699 1 37.0253 49.4552 8.56672
905 1 41.6467 49.4972 5.83645
1366 1 38.9015 52.4113 17.7446
2129 1 45.6165 47.6874 15.4546
1772 1 37.6463 49.8458 16.722
6193 1 38.7571 49.5025 12.6934
5491 1 44.4125 53.8072 7.40914
6860 1 44.4407 56.0859 12.5195
1592 1 40.1254 56.3236 8.40902
2390 1 34.1234 59.2946 12.9923
73 1 45.1456 48.9871 6.60746
7809 1 36.9123 55.3179 16.9248
2610 1 42.8344 57.3255 8.97855
5914 1 36.6638 52.0114 7.32001
1950 1 46.633 50.9178 18.253
3395 1 38.134 60.4878 15.739
2019 1 33.8344 48.6557 7.95714
3602 1 42.9113 51.5483 8.58667
6594 1 46.058 59.9225 15.0578
4972 1 42.8541 48.5762 13.4018
3148 1 38.1609 50.458 5.47422
2983 1 38.8578 52.4406 13.6371
2076 1 33.6666 47.7696 14.3
6769 1 39.8003 57.9984 13.6938
1225 1 40.1048 48.7539 16.4052
2234 1 39.4435 57.8649 5.93589
1412 1 36.21 58.5886 14.7424
5609 1 32.8878 60.499 15.1692
5540 1 39.4691 54.5201 15.7303
7707 1 40.9812 52.0547 11.7658
4707 1 34.614 53.1628 13.9119
5295 1 45.9015 53.888 16.1669
2819 1 43.1136 54.8753 15.6847
1468 1 37.9815 53.6823 9.13833
1571 1 34.5347 56.7697 7.21733
3079 1 37.7117 56.2525 14.4436
96 1 39.2353 57.4966 10.8796
2205 1 36.3713 50.0948 13.9413
176 1 35.8493 57.1866 4.70581
4715 1 35.1085 48.6258 17.8196
4292 1 39.0515 47.0618 14.2433
6476 1 43.9379 51.4584 5.77315
1731 1 32.7217 50.5889 12.0699
7914 1 46.1137 53.708 13.1716
6014 1 36.4838 47.5108 15.3869
6772 1 34.5037 56.3544 15.5846
3428 1 45.1975 54.7651 4.76735
1055 1 40.0355 58.3516 16.5838
5575 1 41.5807 52.539 16.3959
483 1 44.7161 52.4104 10.8963
5552 1 41.138 55.934 17.5662
2627 1 36.4891 52.0697 11.815
6910 1 35.966 48.7643 6.13537
6988 1 44.2559 54.9988 9.90196
4604 1 45.8703 49.75 10.7004
4450 1 42.0524 53.3544 4.84362
5322 1 40.0001 51.1295 7.63325
1933 1 41.2194 55.3628 13.5273
5729 1 32.6723 55.5101 5.32371
5837 1 35.3864 58.9221 10.5419
72 1 37.5392 59.1994 12.2299
835 1 33.8782 55.5991 9.92418
550 1 36.4777 58.9254 7.749
7127 1 33.4735 53.9186 16.4233
5913 1 44.6265 55.6884 18.0948
7177 1 44.78 59.4401 8.41329
6630 1 37.1681 57.9651 17.5599
5030 1 33.5453 46.9553 10.2834
7070 1 36.7793 56.2892 10.0049
2887 1 41.5287 53.995 9.6528
2538 1 35.1452 53.0065 9.50385
1843 1 42.8779 48.6215 8.35087
5624 1 41.465 60.3767 11.3039
2408 1 34.1009 51.0141 6.10321
5750 1 33.0746 46.9239 16.9931
2179 1 39.3191 59.1619 8.61513
6727 1 34.482 58.9046 17.0369
4711 1 38.3171 47.4092 5.03377
6693 1 37.4353 59.6586 5.1787
7376 1 43.7875 59.5811 13.0931
1289 1 43.2021 53.3476 13.0518
1144 1 44.2896 57.4503 15.0149
4681 1 40.2325 53.7488 7.03795
2079 1 42.4767 55.7611 6.61408
3272 1 45.1253 46.9222 12.8156
3220 1 39.3986 54.5764 11.4991
6881 1 42.0904 59.3394 5.7999
5687 1 39.4676 48.1688 7.62785
4251 1 33.5751 50.5606 14.8374
5677 1 34.6465 51.4265 17.3589
6422 1 42.9993 50.0419 11.0714
3698 1 36.5688 54.7767 12.4523
312 1 43.651 47.3359 4.86927
1756 1 41.9577 57.6377 11.8124
1474 1 37.4667 56.1195 7.32653
2103 1 34.8307 50.2225 10.2989
729 1 44.2839 51.8313 17.1035
6858 1 33.0284 53.2812 11.439
4173 1 40.9477 50.4514 14.3539
995 1 40.5086 48.8086 10.2816
3172 1 35.4757 48.1642 12.0475
655 1 36.7833 52.6252 15.8536
32 1 44.278 57.5096 5.56514
6039 1 34.1277 60.3505 6.81585
3684 1 42.7847 47.8977 16.2509
3183 1 46.2382 59.9995 18.0195
1116 1 46.4079 50.7436 13.2929
302 1 45.7214 58.423 11.0325
1191 1 41.2075 56.2358 4.18141
6509 1 40.9538 46.6975 12.1557
6575 1 46.6452 57.8211 6.94283
4656 1 32.6632 51.467 8.5639
3313 1 40.9836 46.9749 4.37024
5327 1 40.3015 60.7782 13.953
5028 1 41.5068 60.5449 24.9066
6167 1 33.2443 51.0389 24.6706
6258 1 32.5253 52.3416 30.9426
6163 1 41.6349 58.7036 22.4581
3392 1 43.6979 60.3572 29.6338
2861 1 33.6109 57.054 25.0428
3693 1 45.2266 53.0263 32.0331
4423 1 40.7986 53.3684 29.7125
996 1 42.2781 49.969 22.0805
2545 1 39.1293 47.3425 31.9637
2730 1 39.3735 50.2577 22.1019
1589 1 34.8969 54.5204 18.7373
4885 1 34.3756 54.3465 31.6245
3988 1 37.434 48.5294 26.6892
5999 1 44.7722 55.1938 26.1918
44 1 42.6405 51.8396 27.1391
1435 1 40.5271 57.1344 24.6095
7416 1 43.066 56.1942 28.3007
6621 1 37.0574 46.9938 19.4563
2948 1 44.7117 53.59 21.1239
6637 1 45.2961 50.3628 28.7846
265 1 43.2371 60.5717 19.7958
1671 1 36.9513 57.4284 24.3064
595 1 34.8337 60.7935 26.3799
5293 1 44.807 50.8482 20.5867
1491 1 46.0303 47.6388 28.0178
5799 1 36.9068 52.2862 26.0346
5686 1 35.6456 51.9173 28.623
3663 1 46.405 55.919 24.0497
4170 1 43.4281 55.4525 31.7921
6853 1 46.6354 53.2655 23.2385
1111 1 38.9342 55.0536 19.1897
3026 1 32.6534 53.7526 24.8632
7115 1 35.6674 58.0365 26.8487
5445 1 45.3806 52.7493 27.1677
7104 1 42.5234 47.4195 23.8719
879 1 38.7574 57.8417 19.9972
1034 1 45.3677 59.021 20.7331
6457 1 39.9646 60.1166 18.7296
1311 1 38.887 59.357 25.2809
168 1 37.5632 49.7274 19.8213
7522 1 35.2025 57.1871 19.5818
5660 1 42.4588 54.8316 24.5577
4826 1 33.0128 60.343 21.0242
3140 1 39.6954 47.6747 29.2329
1477 1 33.2904 59.7145 29.1947
1669 1 40.2536 52.6723 20.3985
975 1 40.2517 48.6553 26.5345
3132 1 34.898 48.4028 22.8084
6151 1 41.5138 59.1549 31.0434
2714 1 39.7892 53.8019 23.9966
6696 1 34.7629 54.4989 23.0103
7246 1 45.1708 59.098 27.5289
1917 1 35.1055 50.0706 26.5928
4725 1 35.7019 51.7934 23.3738
5688 1 44.6252 48.1766 21.9741
4733 1 37.7267 49.8441 29.3114
1160 1 43.9877 56.3575 20.7303
1891 1 43.8842 57.0847 23.483
7621 1 39.6216 47.8053 23.7434
2021 1 38.3605 55.9531 29.6745
7853 1 37.2742 58.0193 31.2732
2513 1 42.8445 47.2871 20.0373
7426 1 44.4042 48.2929 25.9714
6664 1 34.7063 57.3899 22.4127
4475 1 42.2958 52.8858 22.376
4310 1 42.2325 50.255 24.8011
5735 1 36.664 52.482 19.3764
4540 1 41.7498 57.9246 19.6007
2786 1 42.0733 47.5752 32.0602
7550 1 38.9682 56.2925 22.4722
5676 1 39.3889 51.1531 24.9959
2518 1 33.1819 48.8535 19.8189
6093 1 35.5959 59.9243 23.6707
6110 1 37.7402 60.0842 29.3138
5050 1 34.097 54.8867 27.0383
5118 1 38.874 55.2784 26.3313
5431 1 33.3849 52.9626 20.905
5873 1 38.1599 53.3887 28.31
3170 1 35.0375 50.6138 20.9374
4206 1 37.9612 52.7372 22.1194
331 1 43.2807 52.122 29.901
2820 1 39.0179 59.7217 22.2153
4824 1 38.631 54.6096 32.4325
4977 1 36.417 59.3026 20.9805
7518 1 42.8796 58.0845 26.0488
7615 1 36.3549 48.1784 31.1932
4762 1 37.3064 49.4521 23.9632
610 1 41.0669 56.2352 30.3166
7222 1 35.7504 54.8023 29.2055
1688 1 34.707 50.3939 30.8805
4799 1 44.7468 57.6162 30.0529
362 1 42.7303 48.9698 27.9809
2306 1 44.337 52.1404 24.4421
4002 1 35.0821 57.6354 29.4804
4801 1 33.8789 47.6344 25.4265
494 1 40.278 48.4904 20.1319
7327 1 45.0435 59.6596 23.6272
3489 1 39.8879 51.1591 27.7969
4267 1 36.3028 54.9283 25.3071
255 1 36.6954 55.0725 21.0872
7689 1 41.3611 55.3412 21.0518
4364 1 41.2295 49.8961 30.3186
3697 1 41.3478 54.4354 27.0403
7394 1 41.096 58.3547 28.2927
4515 1 38.4086 57.7934 27.618
7032 1 32.7737 52.7071 28.1672
4683 1 38.3353 52.1288 31.0177
1623 1 44.65 48.8228 31.2474
6587 1 45.052 54.4081 29.4935
6164 1 33.6098 48.8492 28.8337
2747 1 45.922 49.8184 24.278
3517 1 32.9868 56.6129 31.1149
4980 1 42.7332 53.652 18.9269
6798 1 36.3563 46.6972 28.8001
7367 1 46.4911 53.7398 18.9501
4118 1 43.4398 49.5651 18.5079
2439 1 37.1539 60.6522 18.4674
105 1 40.8998 50.5907 18.443
2777 1 45.9326 48.0709 18.3831
4470 1 39.3439 55.6112 35.8542
3402 1 44.5808 57.1034 36.2866
5013 1 42.0058 51.5122 44.5628
5541 1 42.4238 48.0116 40.328
5604 1 39.2698 52.1868 38.1434
4970 1 39.5871 58.4777 36.8929
2394 1 36.9896 48.1091 38.4342
6316 1 36.1598 55.8294 32.9837
1426 1 46.3948 58.1494 45.974
2353 1 35.2918 60.6755 34.1731
7703 1 37.8371 50.7547 36.1964
3661 1 46.142 51.9605 39.9812
3777 1 46.6431 54.9863 40.1136
7542 1 40.8505 54.1236 40.9952
4279 1 39.7514 47.2374 34.8358
1463 1 45.8465 53.6049 36.8411
6320 1 41.5289 59.3876 40.3463
4183 1 37.1072 53.3052 39.5335
6303 1 44.1561 60.1403 39.459
1127 1 37.8491 60.1428 33.134
6967 1 33.6911 59.0272 39.0469
2493 1 41.879 52.2489 36.9705
1956 1 44.1838 53.9081 39.1559
4153 1 44.015 52.0629 35.2006
3554 1 44.8903 50.5255 42.1117
5061 1 33.2993 49.1732 33.0788
2560 1 34.6001 58.9711 41.6549
6174 1 33.638 57.1032 35.221
5711 1 40.0451 50.006 39.9307
860 1 45.0725 57.2978 39.1046
4726 1 40.4128 56.4076 46.4354
5359 1 43.019 59.5134 36.9597
6083 1 42.7328 54.9851 36.8167
6305 1 44.8543 54.7747 42.5461
5674 1 44.2387 50.9874 46.1408
4670 1 40.8509 58.6452 44.894
4231 1 43.7367 48.2519 45.7983
4340 1 36.2449 54.0565 45.9793
3342 1 35.5492 48.803 36.1271
2661 1 34.2189 52.0854 45.4904
3625 1 35.189 55.9862 44.0094
237 1 42.7016 48.9482 43.1181
6658 1 44.9295 53.4341 45.1036
673 1 34.2866 51.0325 34.8261
547 1 45.4659 60.5273 32.8387
7696 1 33.4411 48.6413 37.9361
4520 1 34.7411 53.0037 41.0941
5611 1 37.653 53.3476 34.8467
2552 1 37.6346 47.667 44.623
2087 1 36.9898 49.6218 33.6006
2263 1 36.6425 53.6014 43.1561
854 1 44.5594 54.8093 34.4539
6491 1 38.1472 55.3074 41.2163
1015 1 37.4863 50.9007 40.9499
7505 1 33.817 50.4531 41.9566
4011 1 41.5985 58.5791 34.7246
1527 1 41.749 55.7503 34.3062
2073 1 37.4279 57.7313 44.7906
5807 1 33.1705 53.915 43.4977
4465 1 45.0353 49.6361 36.3697
5549 1 38.1584 56.9889 38.8744
7688 1 32.8315 52.0805 38.9282
252 1 35.4041 52.3044 37.2433
6117 1 40.1898 54.9402 38.4898
3550 1 34.7691 58.6906 44.524
6646 1 41.3814 56.1021 43.123
488 1 35.7962 58.7541 36.2605
913 1 36.1817 50.9203 43.6811
3812 1 37.5355 60.3733 37.8771
2716 1 34.691 58.2776 32.8628
7793 1 42.426 51.8588 39.6654
2788 1 35.1972 50.2871 39.3883
1524 1 34.8492 54.5379 35.2058
1113 1 46.4288 48.2164 44.858
6987 1 36.4924 48.3963 42.0466
6918 1 42.2207 54.4028 45.3687
6767 1 45.9689 58.9301 41.3859
1384 1 41.8192 57.3717 38.3618
5494 1 42.2856 60.1201 43.0223
4493 1 33.5613 47.6859 42.6388
3632 1 37.7922 57.5583 34.7008
5174 1 40.1487 51.9531 34.7771
1814 1 44.5841 59.9935 44.7364
6069 1 39.4499 48.7152 37.2179
3997 1 38.6584 47.5319 40.5279
5417 1 38.6834 59.7037 43.2095
7202 1 45.8234 50.4479 33.5953
4135 1 38.8611 55.5229 44.1732
7787 1 44.3751 49.7772 39.2119
3954 1 45.6955 59.6716 35.6006
7868 1 37.1742 59.1096 40.5076
6922 1 43.0289 52.674 42.2255
3371 1 36.9809 54.8952 37.2412
273 1 39.2906 52.3258 42.6627
3131 1 35.3918 56.8633 38.3085
3058 1 43.7628 57.6775 42.9837
4881 1 46.2337 57.2707 33.9076
4504 1 41.5614 49.3279 34.4603
1943 1 32.8754 55.0606 40.6988
4330 1 39.9706 49.6801 42.9879
4759 1 39.6949 57.6536 41.475
5589 1 35.4436 56.3224 41.1412
4437 1 34.3609 49.2019 45.1449
5658 1 42.2514 49.4438 37.1913
7636 1 44.183 47.9226 34.177
3802 1 38.3838 50.383 45.3976
5458 1 46.5506 51.0058 44.3117
1972 1 42.9935 56.0819 40.6068
1019 1 33.5489 54.7444 37.9799
1174 1 36.925 46.8249 34.5609
3710 1 46.2818 47.7941 39.1796
3359 1 46.4921 48.2774 41.9776
2410 1 39.7126 53.0674 45.3716
6109 1 44.0699 56.6125 45.8383
3613 1 34.7066 47.0026 40.0302
2824 1 40.9131 49.5217 46.3824
2540 1 39.8436 57.2411 32.6396
6384 1 43.6461 58.2605 32.7604
917 1 32.6887 53.2137 33.8177
1811 1 36.0095 52.1627 32.7868
6963 1 41.2216 46.7412 45.5509
495 1 32.631 56.7068 45.3531
5804 1 46.6764 56.9451 43.3732
6149 1 39.7737 46.7246 43.095
473 1 41.2805 53.4344 32.6509
413 1 42.942 51.038 32.5807
3694 1 46.4827 46.8072 32.6371
2986 1 39.5659 50.0767 32.5666
5941 1 37.3147 49.9787 54.7564
876 1 38.4831 52.3152 53.6666
2262 1 33.8061 59.3185 57.8497
3733 1 39.8833 48.1536 58.8239
539 1 35.9512 60.1045 47.0995
7943 1 43.5056 53.734 48.0432
7131 1 35.0089 56.8767 55.2098
988 1 38.7218 56.6256 55.8522
2790 1 43.3325 55.4749 52.8438
7467 1 44.8762 50.0088 53.744
6311 1 41.1015 51.4129 51.0577
5180 1 42.2829 51.0119 48.4074
5298 1 34.8217 48.1813 55.0194
4434 1 37.4101 49.2422 59.709
99 1 39.485 52.2984 60.6135
4454 1 33.0514 59.1241 47.0411
2557 1 43.8807 60.7689 55.3063
4218 1 37.3721 54.2576 55.6047
7368 1 37.1854 51.7522 47.4681
5038 1 38.0876 47.7268 56.4341
503 1 34.6645 48.2618 60.4691
1998 1 42.95 58.9671 47.039
648 1 39.1743 60.4003 48.435
6927 1 45.5556 59.4364 60.3935
7322 1 43.9853 56.524 59.452
6972 1 33.5687 47.7039 52.518
155 1 35.0949 53.0457 49.0279
7565 1 43.4335 49.1444 55.9835
5245 1 32.5391 52.3884 52.5353
3484 1 34.7038 54.6509 56.9746
6045 1 45.8418 57.6834 53.5514
7988 1 39.0103 59.1041 54.2834
3356 1 38.6408 60.6052 56.8449
4053 1 35.1631 50.9913 52.7489
4755 1 38.1327 55.1514 47.7094
1092 1 37.9089 51.7835 58.3388
6265 1 36.717 52.7984 51.2998
3570 1 42.498 56.4587 48.5131
4459 1 39.9037 52.7985 48.1466
6561 1 41.6462 59.7425 49.5938
3603 1 41.6661 48.0975 49.431
637 1 36.541 55.4711 50.205
1166 1 36.9176 58.2492 51.0726
2976 1 35.5494 54.4792 53.4469
7781 1 33.2886 47.8653 47.6959
6217 1 44.1873 59.5537 57.7724
3915 1 39.5878 50.0835 56.759
159 1 46.5134 58.3214 56.4254
3386 1 40.3009 55.2764 49.7679
7871 1 33.8333 55.4785 51.3661
3685 1 38.7798 54.67 52.0641
5490 1 44.0465 52.3552 52.6131
2003 1 38.3923 50.9235 49.8317
4917 1 41.2954 59.6007 56.0536
5273 1 35.4932 48.2397 57.7497
6500 1 34.1489 58.1279 50.5794
4992 1 43.8975 57.031 56.5756
5220 1 42.8706 58.087 54.2116
2321 1 33.991 55.1056 47.3512
3230 1 44.4244 50.8051 50.1941
7215 1 44.2014 51.4414 59.6031
5643 1 42.4181 53.811 50.728
727 1 43.5258 53.2346 55.5403
1601 1 40.7094 55.386 53.9777
5098 1 41.3854 50.2779 59.9396
3226 1 46.047 48.7532 51.2146
6363 1 44.3704 59.966 52.4875
3803 1 43.0409 53.9537 58.9053
2763 1 46.3539 49.6246 58.4886
850 1 43.6789 48.726 58.8482
7927 1 39.1867 48.4909 48.5081
5908 1 35.2346 54.4917 60.7389
1854 1 36.6099 60.2663 53.3288
222 1 40.7141 57.6921 52.3589
3262 1 35.2517 57.4695 48.152
6444 1 45.4583 51.2407 56.2165
5793 1 46.1138 54.884 47.3113
3906 1 45.2058 59.8618 49.7106
7996 1 42.0022 47.0149 57.2259
5544 1 45.2275 47.131 54.6289
2525 1 36.0275 49.1541 49.8249
4878 1 36.6741 57.4424 57.618
6879 1 41.1733 49.5797 54.4324
3695 1 37.2843 56.849 53.4018
5056 1 45.6759 55.8993 51.1802
736 1 34.268 50.5072 47.9305
450 1 45.8818 53.4044 49.8802
3877 1 43.3002 57.7211 50.8895
4873 1 39.0437 49.9363 52.3615
7288 1 46.1623 57.3571 48.7887
3535 1 34.2634 52.6475 55.0702
3157 1 40.4883 57.5433 57.7565
4579 1 37.2366 54.6727 58.4644
5124 1 42.1228 58.7948 59.7863
5390 1 41.3011 52.4794 53.8257
4285 1 38.3664 58.8846 59.2527
5090 1 34.1627 56.7174 58.9772
1203 1 45.3793 55.1894 54.856
6603 1 42.0752 51.4944 57.3372
541 1 44.6203 48.2211 48.6967
3851 1 35.6918 51.0865 56.7949
3583 1 41.6997 55.0894 56.5502
6511 1 42.5804 49.1326 52.0042
5821 1 39.7852 52.8277 56.2974
940 1 33.7591 50.7202 59.0442
1017 1 39.367 57.9197 50.0318
2029 1 36.0172 59.6199 56.0363
3329 1 36.6335 48.8702 47.0645
4348 1 45.5277 53.8295 57.3837
13 1 40.0856 54.5813 58.8608
6562 1 32.9847 53.4696 59.1956
297 1 36.4796 48.3167 52.4459
5073 1 34.2239 58.6117 53.3254
1611 1 32.5221 48.4767 57.619
1866 1 33.252 50.1167 50.7611
3641 1 38.3436 56.2168 60.4705
6388 1 45.4548 46.7958 57.5971
2480 1 38.1 58.0432 47.4376
2291 1 46.4018 51.0916 47.8625
3182 1 46.5025 52.8743 59.9118
6052 1 33.3797 60.5709 55.1977
3388 1 40.5176 60.6719 52.1767
2742 1 36.7289 60.8429 49.749
5542 1 40.3341 47.1364 51.8802
2467 1 35.951 51.6507 60.5378
2966 1 46.5756 53.5479 52.7222
2160 1 32.6404 50.221 55.3204
4211 1 37.8157 46.7216 50.2671
5759 1 33.8096 60.8375 50.1808
6741 1 34.336 46.737 50.0346
6542 1 40.1032 46.8926 54.8967
2666 1 34.6333 59.7238 60.7499
5464 1 58.7766 8.86403 13.7184
3225 1 57.277 7.56797 6.76289
5533 1 56.5989 11.5029 11.5529
108 1 54.5464 7.30477 17.8355
4282 1 51.3564 9.71201 16.3813
84 1 50.0802 17.8706 17.0334
7 1 46.7136 16.4029 15.2096
7010 1 56.0869 14.9515 6.46026
4581 1 49.3302 9.219 13.2186
478 1 55.8874 5.85179 9.94044
3500 1 50.6431 10.6537 10.0034
6369 1 46.8639 13.4334 5.73733
493 1 55.5832 15.7424 13.4026
1308 1 56.8945 12.1669 14.3833
6793 1 49.2276 12.3966 11.6967
7612 1 59.3431 13.9336 11.48
6787 1 57.8025 5.07527 5.16288
5738 1 51.0375 6.03791 17.8631
5797 1 50.6185 11.6805 14.343
7247 1 47.3466 6.89978 7.69308
2189 1 55.0 13.7145 11.7031
504 1 50.5703 17.7907 5.07145
354 1 59.6336 10.0231 7.71521
7133 1 56.0491 16.9718 15.9551
7285 1 55.7239 8.18269 4.32328
423 1 57.7972 8.89166 17.4261
6684 1 49.1421 13.6502 7.10581
7509 1 53.9581 4.52883 5.49655
6061 1 60.0291 14.29 15.6658
160 1 57.8141 17.3751 11.5567
4092 1 49.0999 4.4737 16.2803
6008 1 58.6115 17.2512 14.5381
7710 1 50.0357 15.03 4.5722
4102 1 58.648 14.076 5.656
6775 1 53.1027 12.2361 10.2417
154 1 54.8025 4.16575 15.3877
6331 1 59.357 18.1184 5.80873
2369 1 59.4916 4.35544 17.4751
2908 1 47.9727 16.7711 5.6807
5304 1 60.0882 7.16915 8.25584
1343 1 57.6351 13.1312 17.0648
134 1 49.7108 10.651 4.41336
6777 1 56.9736 7.12975 15.1998
7824 1 47.5403 10.88 8.74723
5924 1 52.5039 10.562 12.4206
3045 1 58.6372 17.6376 17.5219
6144 1 54.1973 15.4655 9.41859
2612 1 48.2352 4.2782 8.55087
7750 1 47.7329 13.9602 13.606
4632 1 55.2348 10.0806 17.3852
4646 1 53.0455 8.17362 5.32039
3791 1 52.2607 8.31592 9.62896
239 1 51.2095 14.3669 11.3805
144 1 52.5518 5.44884 9.10732
3482 1 51.2993 5.72424 5.62095
4875 1 52.2721 12.1188 17.4662
7572 1 54.6684 6.57853 7.36941
5622 1 53.0625 4.96749 11.8599
7972 1 51.3983 4.32204 14.2867
2667 1 52.758 11.9421 7.24749
1421 1 57.5161 17.0851 7.70605
1132 1 53.8341 16.7991 6.84027
2563 1 47.5218 11.1775 18.1154
6370 1 59.1618 5.23784 14.7258
6058 1 57.0177 8.4546 9.53631
941 1 58.4218 11.3952 4.62619
5790 1 60.3802 16.3013 10.273
6278 1 60.1393 15.9388 7.46193
1297 1 58.1404 14.5694 13.7844
1735 1 51.2779 7.03519 15.2599
7380 1 49.7191 5.44322 12.2386
731 1 56.704 5.24575 17.3433
3785 1 59.3664 8.75878 5.14966
4108 1 59.3609 11.1724 12.1821
5608 1 50.1563 10.9399 7.14826
2531 1 48.5129 8.83139 10.4741
4922 1 58.1017 5.23643 8.3068
1449 1 57.0988 15.0551 9.94252
725 1 46.9341 10.5693 12.3031
5602 1 57.3525 5.957 12.5176
1768 1 52.9445 16.2032 14.2114
5018 1 54.3709 12.3639 15.5977
959 1 53.6964 9.68183 14.8551
6189 1 52.5412 16.8406 11.3918
6128 1 54.5773 9.69798 10.6055
326 1 51.6684 14.3497 8.38522
1395 1 48.4499 16.113 8.40859
1753 1 52.4975 15.743 16.9291
5111 1 49.8758 6.63936 9.44125
943 1 54.1026 6.81026 15.0347
2494 1 54.5545 7.25925 12.3063
3492 1 51.5568 7.61604 12.455
5826 1 54.1936 9.43606 7.62865
7354 1 51.0654 16.9897 7.67123
5850 1 50.1643 15.5429 13.973
4608 1 57.3437 11.0824 8.78426
7438 1 48.3669 6.75589 14.3434
5895 1 56.0064 9.41462 13.4273
164 1 56.4558 10.3146 6.28387
3822 1 59.2355 7.80156 11.0946
4906 1 50.7936 8.13432 7.1325
4466 1 47.6798 13.6229 9.69145
6882 1 48.5669 8.13136 5.3273
805 1 47.098 4.54314 12.9571
6123 1 52.8373 13.3995 13.5367
3111 1 48.5912 9.14032 16.1056
7219 1 55.2389 14.6429 17.2504
7405 1 55.2927 12.979 8.26855
2852 1 54.9184 12.5527 5.42701
2520 1 58.9908 13.471 8.55348
578 1 48.7895 15.7658 11.3082
6246 1 58.8955 10.8948 15.7433
5386 1 48.3433 15.5663 17.4653
270 1 50.3692 13.8673 16.1726
6545 1 52.731 14.4693 5.53511
978 1 52.6621 10.9325 4.53366
3721 1 48.0981 12.1034 15.5848
6673 1 48.7841 18.0183 14.2038
2910 1 60.6792 11.4416 17.8471
3156 1 55.4696 16.6321 4.34545
7965 1 59.0691 4.27626 10.8888
4639 1 59.9604 7.09016 17.9922
5422 1 46.7741 6.18123 16.911
6773 1 55.1228 18.1151 11.9388
6512 1 55.1633 18.2277 9.0528
618 1 60.8167 7.81618 15.2489
5146 1 51.2119 7.35182 21.2736
88 1 54.1271 13.6956 31.9515
6205 1 47.8445 9.37398 28.769
5757 1 55.5104 4.86405 30.3763
3337 1 60.6732 14.8485 23.8248
6009 1 54.3428 11.7864 29.9031
62 1 54.1784 4.69368 18.7983
3250 1 47.8103 13.6874 20.7997
4184 1 49.0621 14.7773 30.6068
5044 1 56.6535 5.35006 26.108
1548 1 53.5819 6.96446 27.3642
5276 1 50.6792 15.3904 19.3481
376 1 58.5439 6.42742 32.2478
41 1 58.498 4.7178 23.7379
5238 1 51.4018 12.791 30.9892
4500 1 48.7296 6.14349 27.6372
2326 1 59.7616 12.5672 20.155
3012 1 48.4649 6.46122 21.3712
1552 1 55.4642 12.7166 20.6462
4385 1 60.5114 4.54174 30.9257
6241 1 56.4935 7.49347 28.2167
7175 1 53.3471 9.66751 28.3253
5696 1 51.4809 16.2476 25.5205
5893 1 49.8229 12.7277 18.9379
5166 1 60.6204 6.29332 25.2009
4081 1 53.6821 5.91193 21.238
7495 1 49.1615 6.26335 24.8708
4949 1 57.0804 11.4722 29.0984
2114 1 56.7305 8.3667 31.0747
4044 1 60.1318 14.897 27.8514
3469 1 54.8313 8.23589 25.1704
1830 1 48.3989 8.61133 23.3643
3165 1 52.9437 9.66382 23.5904
7514 1 48.6772 17.5193 29.8036
4575 1 51.8496 6.98637 23.9993
6463 1 58.5625 9.33655 20.8861
1629 1 50.6146 9.36266 29.0669
6218 1 58.5901 13.9517 30.1997
5601 1 54.1133 5.41865 24.9783
7749 1 50.4374 4.74129 20.1382
4069 1 52.158 8.56776 18.7859
608 1 48.3354 16.1047 27.3981
6906 1 51.8498 7.51144 32.3178
6452 1 53.211 14.2042 19.3084
4029 1 48.7907 9.84073 25.9665
4061 1 57.895 17.9447 31.8005
1721 1 59.5985 7.06887 22.3892
1624 1 49.0597 12.7968 26.0726
3464 1 50.8526 12.2236 28.2929
7836 1 56.0508 5.72656 22.6704
5492 1 60.0389 6.91623 27.9828
3984 1 53.7711 18.0793 27.2833
7429 1 53.586 9.97035 31.9061
4766 1 57.7173 10.7227 24.9962
4971 1 57.8797 16.8444 23.0093
7393 1 50.6285 10.1431 22.3399
4462 1 54.2808 15.4683 25.762
1961 1 47.461 14.9678 24.9616
3647 1 51.7065 10.5496 26.0271
530 1 56.4015 15.3632 31.4183
5356 1 56.9469 8.37673 23.1693
4637 1 56.3907 16.7322 27.1384
3478 1 48.0576 12.9615 28.6768
7208 1 48.1319 11.2482 30.9886
1331 1 49.7893 7.01869 30.3251
1282 1 58.1289 5.51901 29.6195
6015 1 54.2504 11.9735 25.5633
1324 1 56.6231 15.2457 19.6993
4219 1 58.6006 17.4329 29.0728
1517 1 56.8679 5.0131 20.1851
3999 1 59.6304 5.30647 20.2252
3888 1 53.8263 10.7364 19.6793
3898 1 55.3108 15.7343 23.1337
2842 1 49.4693 16.4637 23.6192
5820 1 49.7143 9.98844 19.5978
3510 1 59.2816 11.6303 22.6904
3363 1 48.4106 11.5142 23.5963
7134 1 56.2767 14.3228 28.4412
5239 1 55.8195 10.0195 26.9503
1371 1 54.229 16.4388 20.5622
2608 1 54.5114 8.6501 21.4308
5092 1 58.8432 12.4928 26.9821
904 1 53.4189 13.476 27.8034
6294 1 60.0338 11.6727 31.1476
930 1 51.5296 13.4196 25.0053
3274 1 51.9127 15.7365 22.1608
4501 1 56.7014 17.9951 20.6945
806 1 59.1761 15.0587 21.4139
4621 1 53.0857 15.4173 29.8704
5918 1 53.6438 13.3868 23.0065
3966 1 51.9881 5.52588 29.3591
4115 1 46.9648 7.44961 30.7668
1765 1 50.6556 10.1872 31.6598
3617 1 60.4824 9.69235 25.8216
2625 1 56.5539 7.6907 19.7171
5083 1 48.2695 16.4129 21.0539
5358 1 51.2806 16.2905 31.7868
4430 1 49.8981 13.7408 22.7932
5483 1 56.5968 13.5977 25.498
1356 1 50.8871 15.0875 28.0069
932 1 58.8438 9.08157 29.1997
6028 1 57.2735 11.1664 19.0493
4896 1 57.1696 11.1745 31.8235
7136 1 58.2729 7.87402 25.8025
3943 1 51.7888 12.416 21.0824
953 1 50.8788 7.81467 26.6544
5395 1 55.576 10.9886 23.0434
4001 1 57.1541 13.4687 22.6613
2413 1 60.7774 12.3358 25.077
784 1 54.0197 7.58261 30.29
6488 1 58.5576 15.6733 25.5417
7567 1 55.0844 17.3969 29.6918
918 1 47.4151 10.9044 21.018
7101 1 59.2031 14.9882 18.4037
2827 1 53.6269 17.8701 24.2831
2651 1 60.8041 16.1332 30.3129
7346 1 60.5926 8.19499 31.3687
2775 1 51.4723 17.8065 29.2705
3820 1 50.3292 18.0704 19.8257
7938 1 60.6021 11.097 28.4446
5144 1 49.39 4.18528 31.0674
6694 1 48.7199 7.58322 18.6028
1147 1 55.4739 11.0073 46.0302
2689 1 52.608 5.436 39.4933
1072 1 57.8239 8.00459 34.5974
22 1 56.609 4.53563 46.5549
4628 1 57.9303 13.5926 33.0913
4019 1 55.926 13.9933 35.1227
330 1 56.731 4.37551 32.8209
1138 1 50.713 5.12109 35.4689
1096 1 56.0052 6.21647 43.2021
5405 1 52.8568 13.3897 46.019
6786 1 53.2153 5.52743 43.0113
6228 1 60.2194 15.3752 45.8552
6047 1 59.2103 14.0874 43.4843
1954 1 59.1346 11.2684 44.4717
3981 1 54.5862 8.90743 36.1488
434 1 50.7318 9.51619 45.4406
3618 1 60.2466 6.89449 46.3936
855 1 51.2423 11.478 43.4435
5287 1 53.3874 18.1144 37.2628
5423 1 53.3594 14.5922 36.4671
7383 1 50.5491 7.02365 42.2555
2068 1 60.6549 15.4885 40.3365
3348 1 58.4614 8.09509 40.5423
3161 1 50.3667 15.1175 40.9903
5860 1 56.9638 5.62799 40.592
1239 1 60.3672 9.69839 38.1016
5884 1 55.6484 6.4828 37.2749
2656 1 58.7253 12.8968 37.8831
2592 1 56.6733 12.8191 44.3067
3589 1 51.2378 13.0937 33.8662
6704 1 47.4583 6.69599 44.7215
632 1 48.5933 6.98055 35.9864
7289 1 57.2817 12.9184 41.4474
5598 1 58.5648 17.4315 38.3038
3854 1 59.0032 16.812 42.4703
2314 1 52.2073 10.6831 40.8689
7044 1 48.2388 5.48224 41.382
1960 1 50.3526 14.5401 36.3523
563 1 60.7871 7.05055 39.2698
7196 1 58.0061 17.1765 45.219
3930 1 49.9967 18.0459 40.7065
1743 1 47.8926 15.3286 39.5052
2196 1 49.4608 15.7079 33.9308
6827 1 54.9543 11.1402 41.2022
1349 1 57.5346 5.37076 35.3887
5064 1 55.2631 15.1873 38.4465
1559 1 47.6994 8.86776 38.2065
6833 1 52.0735 7.77965 35.0863
199 1 50.2816 8.986 37.0908
5886 1 54.1876 5.92132 32.8071
1123 1 55.5904 7.1813 45.7853
1270 1 55.9598 12.5169 37.5826
3686 1 49.5919 16.5768 44.3996
3243 1 53.1508 11.8365 37.4075
2296 1 52.215 13.2862 39.7178
4735 1 51.8745 15.93 38.673
6743 1 50.6626 7.61214 39.5581
1005 1 50.9025 17.4049 35.783
6837 1 55.2051 11.7 33.698
1526 1 49.3857 10.0306 40.3658
7056 1 55.1562 8.18931 33.5315
7935 1 49.1498 12.7307 39.6682
2425 1 51.6595 4.71573 32.8033
6188 1 53.0083 15.3386 33.8652
2728 1 57.7823 14.993 39.6047
4390 1 54.5347 14.0228 41.0028
3573 1 52.7847 9.2139 38.5092
3743 1 53.9161 11.8954 43.8086
3498 1 60.3644 7.7344 35.9432
2873 1 59.3836 7.8754 43.2309
6187 1 46.9156 9.21504 34.509
2723 1 55.5168 16.6637 34.0695
7389 1 57.3201 9.15894 44.5684
754 1 49.9528 9.83936 34.4837
7487 1 52.6883 10.7566 34.8278
411 1 50.2077 11.8381 37.229
1381 1 58.4344 5.48759 44.5913
2465 1 54.8016 7.40813 39.9209
7539 1 47.8798 11.7071 35.5339
840 1 57.8793 8.19041 37.6278
4960 1 59.1527 12.0125 35.2159
7443 1 58.8359 5.32615 38.119
4004 1 56.2681 16.438 41.6462
2364 1 59.8407 10.3756 41.997
5538 1 58.3496 10.9764 39.8269
2876 1 47.2949 10.9192 44.4008
4492 1 55.7277 9.91005 38.7966
2950 1 49.0124 7.33422 33.1306
6382 1 58.0655 17.7164 34.6509
1452 1 54.423 17.4344 46.0923
7166 1 56.1673 17.2515 36.8144
2905 1 52.8754 14.6345 43.3336
4377 1 47.8356 16.7667 42.1232
6553 1 53.6824 5.45803 35.6253
6698 1 46.7993 15.4079 44.6072
6288 1 46.8786 8.12379 42.2568
2026 1 50.3316 6.6519 45.0079
6414 1 54.1621 17.5326 39.9757
1062 1 48.3212 4.59697 33.5786
5863 1 50.0046 13.8504 43.431
569 1 55.9666 8.7996 42.1984
6490 1 58.3884 15.3867 36.2026
2628 1 57.0127 10.5713 35.8523
2220 1 49.3769 9.39152 43.0141
6233 1 47.7561 12.6845 42.1853
3267 1 53.0448 5.68776 45.7576
3242 1 48.3571 13.2091 45.6473
2178 1 53.1457 8.32269 42.2488
1193 1 53.2529 18.2693 34.3985
2509 1 48.4257 13.1576 33.0933
7860 1 49.0253 5.60807 38.523
6183 1 47.5559 14.1922 36.8653
1059 1 52.2746 17.0258 42.009
7833 1 49.3993 17.2752 38.1777
6018 1 60.1574 5.32935 34.3373
7782 1 55.4437 15.5283 44.211
3461 1 53.6279 9.13472 44.8321
4764 1 59.2926 9.86845 33.2
1575 1 59.6547 16.0207 33.0497
2955 1 46.8239 11.7669 38.3483
6120 1 57.3148 14.6817 46.3542
1038 1 51.9565 18.2175 44.6708
919 1 48.065 9.22578 46.5128
2216 1 48.2259 17.9511 32.5824
755 1 47.0321 17.1468 36.5762
7095 1 50.9278 4.23516 41.6695
6508 1 58.0507 15.6713 57.3845
443 1 49.2895 5.2149 49.9136
7103 1 55.748 5.84963 54.4287
3546 1 56.2812 4.50314 51.9794
4818 1 50.805 7.63478 50.5643
6611 1 57.0897 5.50562 57.5931
3221 1 56.2421 7.45358 51.2872
6761 1 47.9469 11.7267 48.1206
415 1 50.2348 4.87984 58.03
2787 1 59.9893 4.59254 55.552
80 1 53.5561 6.32472 57.196
267 1 52.4982 8.25107 47.2879
3335 1 59.6581 13.9473 54.5972
137 1 54.8847 7.19241 48.6621
5188 1 47.3626 16.7008 54.5215
6950 1 55.2102 15.6692 48.1144
544 1 55.6123 4.42988 49.2098
2583 1 49.8727 13.5896 49.1786
5456 1 55.1854 15.4375 54.8942
5350 1 57.5301 17.0685 54.9546
7422 1 53.2345 4.39309 59.4134
4518 1 49.4634 12.9979 53.4597
3309 1 53.5366 18.0681 56.4608
2647 1 48.909 5.6215 60.6995
3676 1 52.401 9.94265 57.2414
7549 1 47.4449 12.3473 58.0448
6065 1 59.185 6.01609 59.6371
2463 1 59.5167 8.58803 56.7074
2423 1 48.5967 17.5884 49.053
6601 1 52.0508 16.0514 46.8902
4880 1 49.8268 7.04405 47.7248
3542 1 49.8267 11.3135 51.1857
3925 1 53.3018 10.5221 51.1538
6165 1 53.7662 16.727 52.8973
7228 1 56.1999 12.4042 50.4483
7279 1 46.9243 11.1779 60.7962
6573 1 50.0563 15.822 50.955
4396 1 51.3195 9.35523 52.9392
3502 1 53.4454 13.1093 52.3395
4659 1 50.2176 8.99928 58.8388
100 1 55.6983 7.99147 57.4416
4353 1 47.2257 4.3721 58.7492
7926 1 54.7533 12.8356 48.1464
3539 1 54.885 8.56329 54.6671
3711 1 52.641 15.6385 49.5778
7013 1 51.5237 16.242 57.439
7092 1 58.2761 13.1845 52.3404
6730 1 57.7198 16.449 49.4178
3779 1 53.5807 7.70059 52.1539
4268 1 52.4483 12.9075 49.7007
4440 1 60.2352 16.6531 48.3946
7784 1 50.1443 16.5566 55.0689
2638 1 57.8978 8.18744 47.259
1053 1 58.3779 11.2799 58.369
4956 1 57.0336 9.8883 49.6184
4855 1 59.0931 5.04245 51.577
1492 1 49.5877 5.73108 52.6583
7357 1 50.8935 12.2145 56.7792
6984 1 60.3186 14.3872 58.6218
4950 1 48.5373 9.20903 49.4871
181 1 49.763 12.8121 59.4801
308 1 58.2739 11.165 47.253
3787 1 49.0229 15.5251 58.6237
1269 1 52.1539 4.24783 55.9208
4124 1 58.9791 18.2169 58.4123
3481 1 50.5619 11.9442 46.86
1766 1 57.9964 8.54865 59.2462
6734 1 55.9433 10.2024 52.4264
2879 1 58.6407 7.71786 52.6293
4090 1 57.9293 6.16793 49.2476
7309 1 57.1322 10.0643 55.9386
3120 1 60.6396 9.48693 47.7404
4304 1 57.4509 13.0747 56.3196
465 1 52.868 5.7348 49.9159
1747 1 58.252 13.7644 48.8521
1345 1 46.9035 13.7871 49.8083
2652 1 48.9453 14.0895 56.0446
4052 1 54.7862 13.2375 57.5406
6153 1 52.1327 7.98309 55.3806
3199 1 59.7144 16.267 60.5488
828 1 46.6965 8.47743 59.9395
2682 1 57.219 14.8031 59.9355
3901 1 52.8199 14.264 55.7395
2881 1 58.1814 6.69468 55.2493
7570 1 60.2705 7.9725 50.1465
1040 1 49.3901 4.81707 55.2803
3341 1 54.5134 11.1964 55.6458
4577 1 55.0625 15.0192 51.0659
7789 1 54.3626 9.94625 48.5513
4318 1 47.6126 11.0682 54.2144
269 1 47.722 14.8469 52.2098
836 1 51.9911 11.7228 54.2934
5584 1 51.8368 6.86971 59.5804
6501 1 58.5849 10.3798 53.5351
3433 1 48.2 7.01563 58.1733
2347 1 56.0015 12.8879 53.9009
4883 1 59.4244 10.7459 50.9264
906 1 53.1365 15.559 59.6012
5505 1 49.239 7.65425 55.6827
7192 1 51.4031 10.1476 49.0459
7238 1 57.5003 15.9513 52.2915
3594 1 52.2331 5.75729 53.6572
5813 1 56.0019 12.0955 59.6454
2460 1 51.352 4.52118 47.9508
564 1 52.5363 12.7972 59.1479
6745 1 54.3185 9.86731 59.2544
5630 1 51.5674 14.9291 53.2143
3904 1 48.6065 8.46922 53.1178
1008 1 55.3071 16.1415 57.7092
7340 1 48.859 10.3025 56.6423
1458 1 49.2618 15.5097 47.0528
7179 1 60.3373 16.5967 54.907
3914 1 60.101 16.9361 52.0848
1689 1 46.7988 17.1033 51.0153
7984 1 60.2784 14.3762 50.7893
2536 1 55.6921 5.49701 60.1254
5894 1 46.95 6.07782 47.4801
6779 1 60.5634 12.9561 47.3052
3075 1 52.9914 18.2281 60.3848
863 1 55.1563 18.1704 49.4634
1890 1 46.8283 11.434 51.4618
861 1 46.7674 4.68402 53.0121
6121 1 55.9235 18.3118 52.2476
7839 1 60.4667 12.1943 56.7475
3886 1 60.4175 21.6216 7.20973
6133 1 58.3572 26.5113 12.7077
2776 1 54.9955 27.3378 15.3485
4110 1 56.113 30.2839 6.10739
4512 1 49.2152 18.5002 11.3418
55 1 54.1002 31.0398 11.1875
6904 1 53.3271 24.4939 13.5845
636 1 53.9671 29.1973 13.5156
4229 1 55.5814 26.1652 12.7944
7520 1 54.9144 25.6261 17.8107
5357 1 54.1087 30.9472 8.20095
4929 1 53.75 26.1566 7.21428
4819 1 60.3899 21.8447 9.96223
6715 1 59.5649 21.6833 17.6311
2000 1 49.754 29.9202 17.1426
4642 1 54.5502 23.5779 7.37149
1985 1 47.3564 18.5601 9.33497
804 1 46.9732 29.1695 14.7408
5274 1 51.9353 29.2204 9.85908
7033 1 52.9681 32.495 5.75182
532 1 54.8806 31.9787 16.6257
2800 1 49.1357 21.1743 12.2337
6975 1 46.8393 22.59 10.896
3551 1 60.7557 28.2334 12.0031
70 1 58.5405 32.2591 14.6086
4079 1 58.0775 23.7625 9.62882
792 1 51.1553 23.2257 11.8777
2027 1 55.778 21.8871 9.40412
7714 1 53.607 21.7093 14.2056
4314 1 48.7407 23.0038 16.8154
2845 1 57.2917 23.7278 6.73273
4038 1 51.9613 31.294 13.2496
2865 1 58.6672 32.3414 11.6024
2348 1 54.2315 18.8874 14.6835
6308 1 50.1742 29.1174 13.2885
6633 1 49.1847 27.5976 15.4954
4226 1 46.9553 20.9533 6.76013
7664 1 50.8314 20.4264 5.91978
1508 1 55.7192 28.6159 11.3307
7212 1 53.6641 19.658 5.96868
4201 1 48.3643 31.1891 13.2289
498 1 53.9117 23.9391 10.7862
4309 1 58.3136 26.8715 9.85952
7883 1 47.2452 26.3916 17.2868
6421 1 50.4584 23.803 14.6644
4460 1 48.7555 20.1914 17.525
7391 1 56.3688 31.8564 9.61213
3588 1 52.1439 27.3186 15.9256
7575 1 58.1378 29.5255 12.3907
6606 1 56.0987 29.364 17.1316
6687 1 50.8779 21.0641 14.7354
974 1 55.731 24.4914 4.22915
7098 1 52.6811 24.5192 16.5088
1379 1 47.5414 25.1331 10.8604
607 1 56.019 23.2319 13.7527
3164 1 49.259 28.4527 10.7322
2949 1 48.8098 23.7694 5.43669
820 1 58.5318 26.2544 7.07659
4618 1 53.0253 25.3898 4.70966
3568 1 58.3459 20.9064 11.8363
5697 1 57.127 19.7759 14.3077
5318 1 46.6896 19.0199 4.60858
1183 1 49.2184 20.2665 8.25358
3553 1 56.5448 19.0 5.5891
5523 1 52.0407 22.827 8.58969
5742 1 51.5178 25.6133 8.71302
349 1 48.8484 31.1543 9.65414
4311 1 51.416 23.2655 5.84176
2698 1 50.3537 25.8501 11.3399
6524 1 54.795 22.0762 5.06641
2753 1 56.0662 26.8617 5.74624
7917 1 59.3692 22.8488 4.87268
5222 1 47.9319 20.776 14.7938
3384 1 50.8162 30.7412 6.01185
3506 1 49.9676 26.4391 18.0187
2055 1 57.9174 29.5483 9.44957
5587 1 53.0022 18.5811 17.2007
3209 1 59.8589 27.1575 4.63582
7556 1 58.4711 29.1929 15.3836
1729 1 51.3457 18.8088 9.64586
2089 1 53.4219 26.8368 10.7385
1568 1 57.6157 20.9726 7.28818
594 1 49.4037 22.5313 9.56166
3731 1 48.6298 29.3423 7.34891
6799 1 48.8315 24.8079 8.16614
4291 1 59.6703 21.0206 14.7009
5962 1 52.4324 30.1709 15.9581
5617 1 60.6631 24.3838 8.05226
2033 1 50.0519 27.0685 6.73163
366 1 58.5262 23.7361 12.3432
7778 1 55.7644 25.69 9.32615
4534 1 56.2142 30.7412 14.5412
53 1 47.486 27.2939 8.93842
6124 1 52.3415 28.6817 7.27442
6893 1 58.7162 29.1245 6.75406
4508 1 57.6708 26.3767 15.4879
6683 1 51.575 20.9815 17.4536
6084 1 55.5276 20.9286 12.1562
6832 1 48.7169 32.2465 15.6544
6580 1 56.8704 20.9464 16.7479
5443 1 57.8372 19.2264 9.48379
2096 1 59.0652 26.6115 17.9221
1296 1 54.2525 22.0797 17.1639
3732 1 52.1264 27.0595 13.2685
6977 1 53.4427 20.3126 8.6754
5574 1 60.4546 31.5602 6.34061
6624 1 47.8859 26.5177 4.90356
4022 1 52.6597 20.6183 11.5339
6026 1 59.2637 23.9261 15.3584
3967 1 55.5442 28.3898 8.31356
247 1 48.5137 25.5158 13.596
69 1 56.5492 23.6967 16.4743
6604 1 54.0158 28.7017 4.72757
759 1 51.392 31.887 10.5366
5936 1 60.1442 18.8145 12.7345
1928 1 55.8152 18.7869 18.0124
2355 1 60.1836 31.887 16.8849
6555 1 51.5434 18.7119 13.4296
3964 1 48.7284 32.4229 7.09126
5715 1 60.5873 30.1947 9.72891
1953 1 59.6989 29.5349 18.0579
4510 1 46.852 30.6693 17.3318
3513 1 60.6705 19.0039 9.86274
5052 1 58.4639 30.7963 4.26954
1763 1 51.3116 27.6137 4.22989
1159 1 50.7536 30.985 25.0349
5498 1 53.541 29.5774 21.8078
5207 1 51.633 25.0289 20.8175
2867 1 51.058 22.885 30.6859
951 1 51.7396 28.3988 23.9094
1046 1 59.6881 19.0119 22.2619
4354 1 56.4039 27.9688 23.169
5400 1 48.6719 30.415 31.0145
3629 1 58.4043 30.8607 24.6475
7251 1 57.185 31.2466 31.5051
1187 1 49.1536 20.5809 20.3125
7799 1 59.8915 24.6252 30.625
3074 1 48.4708 24.1419 30.8332
6005 1 50.6641 25.73 28.6002
2247 1 55.4531 20.3869 27.1231
7343 1 50.6261 27.402 26.2153
6994 1 57.9539 25.4675 23.225
4216 1 55.675 28.2979 28.6547
7863 1 48.9468 20.7803 27.4892
7948 1 53.0485 24.1921 26.5928
2126 1 51.7214 21.5613 20.2514
6259 1 58.7799 23.6963 26.6637
7053 1 50.4712 32.2551 30.2833
7819 1 48.2732 24.4714 27.9178
234 1 56.8504 23.1699 24.4438
1638 1 59.5448 26.8297 28.5343
2631 1 56.6697 27.3799 19.2376
4013 1 53.2518 29.5298 26.1311
3332 1 58.0465 28.9497 21.1608
4235 1 55.2322 21.0474 19.7738
1192 1 51.774 25.6497 31.2582
6889 1 52.2726 20.0292 25.6086
6386 1 60.8095 29.7009 20.6476
3424 1 49.5403 28.1237 29.6346
1842 1 47.8708 29.1205 19.564
2362 1 53.9275 23.6541 19.7861
5397 1 56.5948 21.5219 31.4927
3910 1 54.873 22.8857 28.86
2010 1 53.2946 19.3478 30.9148
5183 1 48.1367 32.2007 24.7133
3564 1 53.0662 18.9703 20.1033
4572 1 54.9652 26.8821 32.2489
5190 1 50.4939 23.0699 22.5094
4223 1 51.3318 18.6685 22.5658
2733 1 52.3975 28.3768 30.276
945 1 49.1451 20.5419 23.2551
1436 1 47.9485 26.1317 20.2387
2081 1 46.8848 18.7796 27.7305
2794 1 50.7004 28.7137 19.7904
1849 1 56.4449 18.6207 24.9914
3155 1 54.5514 23.4752 22.7069
2695 1 47.7549 23.4375 25.3882
4127 1 57.4231 30.9375 19.2398
2281 1 55.9645 24.8347 26.7636
6348 1 47.7735 26.8832 26.3062
2570 1 47.2819 31.7429 20.8772
3326 1 46.8275 23.8225 22.6925
7450 1 50.8241 30.8249 21.9148
7356 1 49.6035 29.7886 27.2076
7850 1 53.2189 27.0228 27.8757
124 1 56.4464 24.6944 20.8534
5034 1 52.7808 21.2602 22.8983
2015 1 58.3577 20.7906 27.5507
4924 1 48.5583 25.7559 23.8452
4704 1 47.5212 29.4465 25.0957
3920 1 47.169 31.5342 27.258
5149 1 50.1762 20.2487 29.9964
4763 1 49.2703 26.5374 32.1615
6358 1 46.7251 18.3431 22.2705
4068 1 59.9329 21.371 25.127
2212 1 58.1974 23.9758 18.7862
7194 1 53.4484 29.705 18.6213
1473 1 52.8105 27.0288 18.8175
2743 1 51.0386 31.6845 19.0931
3511 1 55.0055 19.6984 22.3925
4920 1 55.0482 30.412 24.0441
4010 1 48.2984 29.3973 22.3903
931 1 54.8527 29.4781 31.0906
1565 1 54.6239 27.102 21.1843
2551 1 57.7926 22.9907 29.2694
7341 1 60.05 21.088 29.9689
1057 1 51.0189 22.9809 27.9372
573 1 50.2876 22.1999 25.2596
2975 1 57.742 27.1502 31.9067
7078 1 54.6959 26.9853 25.3514
7034 1 51.8941 30.7179 28.4835
2336 1 50.058 27.0523 21.9214
765 1 57.6844 20.7563 23.3055
3134 1 47.0616 22.1209 29.0875
6518 1 58.127 29.0337 29.8831
1824 1 56.7835 29.0153 26.1275
5164 1 53.8366 22.1326 31.3683
3626 1 60.392 25.2185 20.1519
1355 1 57.1221 31.3319 22.245
3382 1 54.1505 25.374 29.868
1528 1 54.2151 22.0569 25.1708
7430 1 59.1181 18.5155 25.859
233 1 58.3455 26.5063 25.9019
1605 1 53.2481 25.7853 23.2686
6896 1 51.1179 24.9076 24.7814
7029 1 52.7182 20.8522 28.3843
5607 1 57.0181 25.8392 29.1671
5081 1 59.9359 28.6387 24.4973
3883 1 57.6885 22.0851 20.7795
5059 1 48.5596 23.3857 20.4005
2419 1 57.2295 24.2851 31.9762
5664 1 55.2124 31.1497 27.4062
428 1 46.8989 27.7214 28.8073
2854 1 59.522 29.5671 27.4017
739 1 59.2621 31.801 29.3588
5865 1 59.9853 27.1847 22.0158
1002 1 58.7635 19.6342 19.6903
3515 1 60.3577 24.1441 24.0499
7606 1 59.5728 32.2133 21.0319
3750 1 54.0487 31.6657 29.8225
715 1 60.1995 22.8302 21.5746
6776 1 56.8696 19.5564 29.6365
7840 1 47.7519 20.4448 31.4424
3867 1 54.8729 31.6627 20.2318
5289 1 60.6405 27.1632 32.1548
7953 1 60.7797 19.082 28.0979
7713 1 47.9709 18.5692 24.8499
3704 1 60.3544 32.3624 26.491
4516 1 60.8385 29.7455 30.823
1362 1 50.2443 18.4186 26.7733
2072 1 51.1403 29.4303 32.4708
950 1 50.7477 23.687 18.4702
1822 1 49.8839 22.0457 45.0032
3895 1 56.9119 18.8078 40.1473
2809 1 58.8319 25.5512 41.779
3300 1 47.0887 19.4161 43.099
6458 1 56.0472 28.3758 37.5046
3307 1 60.3603 23.1685 42.3544
4684 1 58.0946 19.6254 42.6447
322 1 48.7259 31.7552 44.8105
259 1 49.1997 30.1334 36.5309
2849 1 47.4288 22.9143 43.9214
1574 1 55.2678 25.5212 35.5902
3543 1 60.2702 25.4672 44.4754
2722 1 60.4722 19.6953 44.0272
7326 1 53.8529 23.0331 38.7577
1919 1 54.4922 20.5703 40.2499
6824 1 56.021 19.9712 37.7076
999 1 58.6575 22.2643 33.3423
7352 1 58.3654 27.6973 43.7848
6758 1 51.6401 27.7209 42.357
7026 1 56.5195 22.6988 40.9498
6413 1 50.8197 21.9546 33.2342
1234 1 53.7521 28.4318 44.0916
2805 1 51.3513 30.6858 42.4878
1303 1 47.682 28.0305 37.5728
4675 1 56.2833 25.5788 40.832
1506 1 48.2751 32.23 33.4444
6755 1 52.0887 24.3781 34.039
2890 1 49.9316 19.9426 35.1362
1783 1 59.178 23.6187 39.7008
5788 1 53.673 26.7768 40.6785
3431 1 55.1472 21.9173 43.4898
4247 1 53.694 30.707 33.3531
2145 1 54.118 31.8145 42.7525
6020 1 48.0444 28.9032 42.1585
7266 1 50.2767 24.9704 42.0479
5795 1 48.9053 30.7954 39.2529
7270 1 47.1679 26.4301 35.1512
640 1 48.9774 22.3224 41.5613
6544 1 51.1464 22.5248 36.2334
7190 1 56.6034 25.6296 37.9996
4006 1 47.0968 21.4465 36.6934
924 1 57.4012 24.7021 44.9352
4094 1 56.702 22.764 38.0735
5045 1 58.8249 21.3314 45.9953
3941 1 49.5249 19.0986 45.8845
4867 1 58.7743 20.0524 37.2887
5691 1 52.6526 21.1697 45.3114
2859 1 47.0755 24.11 46.6701
4947 1 57.8991 25.7732 34.383
7603 1 48.9972 26.1798 44.4773
2069 1 52.1967 30.3952 45.296
2432 1 55.4898 19.3598 32.8815
3819 1 53.3571 21.062 34.0441
6951 1 51.8785 19.8022 39.1778
4686 1 59.3896 25.6908 37.661
320 1 54.8848 28.3688 34.9032
4703 1 60.701 18.5185 35.7478
5871 1 60.5282 25.3204 34.3878
3908 1 49.5689 26.1213 38.4342
6533 1 52.0169 26.099 44.8922
7814 1 48.1137 22.7775 33.2524
3083 1 48.5787 23.8449 37.0107
7786 1 48.6241 31.8713 41.9211
2924 1 55.565 30.5175 44.8852
7427 1 59.7762 31.1459 41.7549
5055 1 47.6546 19.7105 40.2505
2 1 53.4904 27.3238 38.071
2174 1 58.7811 23.5345 36.0369
1385 1 47.3599 31.9965 36.1333
4834 1 55.8237 18.5786 43.8509
1710 1 52.4618 27.1913 33.6588
2459 1 57.379 30.0137 42.692
2573 1 49.3496 24.8865 34.434
7042 1 58.0976 31.0483 39.4739
3577 1 52.3904 30.5079 39.8821
7100 1 54.5437 29.322 41.4397
1091 1 49.7818 28.9868 44.3695
5981 1 51.8591 21.4764 41.6193
7454 1 59.8061 27.5189 39.9908
3725 1 50.3975 22.4024 38.9487
5582 1 53.5606 19.5905 42.857
4862 1 56.8634 28.4839 46.3487
92 1 59.9496 29.4002 37.9868
4159 1 46.7697 29.7739 33.1649
3468 1 55.7634 26.6376 43.3892
695 1 55.2892 22.6482 35.3862
2982 1 55.7083 31.2374 37.8745
7025 1 47.2987 23.6834 39.7121
1378 1 58.4946 27.9615 36.0129
6430 1 55.9797 20.6706 45.8786
3687 1 49.2679 20.011 37.8532
188 1 51.5324 29.1651 37.5325
7523 1 54.516 24.2821 45.0186
49 1 60.6365 29.0392 45.3424
3735 1 50.7426 26.9492 35.9411
7038 1 50.2333 28.4411 40.0057
3367 1 49.1052 28.6028 34.1847
5726 1 53.8427 23.7759 41.5384
4761 1 60.0296 31.4393 35.9587
4163 1 53.464 30.7378 36.1653
4549 1 53.4747 20.9815 36.9249
5934 1 52.7633 24.933 36.7563
5479 1 50.9284 32.1659 35.6055
1795 1 57.0744 28.404 40.2243
5911 1 58.8573 20.8295 40.1507
1200 1 51.699 24.7985 39.7099
1826 1 51.9647 23.4835 43.725
6666 1 57.9287 22.3226 43.505
2705 1 49.9144 19.8629 43.0166
3662 1 60.0382 31.5962 44.5111
2619 1 59.6565 31.0316 33.0806
6670 1 57.2368 29.3272 33.7858
6850 1 57.1695 20.426 34.9467
1332 1 47.878 26.3024 40.8521
5559 1 57.2035 31.7104 35.4911
6728 1 60.0813 18.7682 46.5188
6742 1 47.1049 29.5939 45.5922
6528 1 54.5944 24.2784 33.0052
5527 1 60.7608 28.6781 42.4218
6907 1 50.0777 24.5748 46.5018
5979 1 51.2338 32.203 32.9269
2597 1 47.3462 19.3281 34.7532
4599 1 50.9103 18.9782 32.6095
1218 1 60.45 18.3443 40.2022
6829 1 54.4961 26.7448 46.6377
347 1 59.8568 19.8276 32.5076
6738 1 49.7926 25.354 49.061
1133 1 51.1276 27.9574 46.831
4284 1 60.7216 24.3907 50.3635
5228 1 50.178 23.8225 51.3132
5896 1 59.479 32.3251 57.6335
5145 1 59.6142 20.0319 60.6686
3070 1 51.6372 23.0895 53.7121
5387 1 50.9486 27.1827 55.0156
3700 1 55.7446 21.1736 52.671
6921 1 59.1535 29.492 56.5877
966 1 55.5953 27.2648 53.0284
2639 1 57.2795 18.5786 47.5053
5196 1 48.6874 28.7285 59.8327
7986 1 54.6327 27.2012 50.3382
2566 1 53.7669 28.2516 55.2532
3360 1 53.5345 24.9517 52.9628
7752 1 51.1417 30.3969 59.7739
2264 1 53.7629 19.7753 47.5394
6806 1 51.1598 18.5882 48.2532
5892 1 60.7401 21.0722 48.2751
2061 1 49.8542 31.2378 56.5276
2201 1 51.7899 28.1477 50.4202
2569 1 51.9498 18.519 54.2397
3023 1 51.1803 21.3764 48.4383
1274 1 58.5422 22.6009 58.1077
2379 1 58.018 21.0953 48.9978
4713 1 52.596 28.731 57.8809
3922 1 47.9148 31.3906 59.9327
4144 1 54.8385 30.7966 52.6023
3018 1 52.4144 22.256 57.1272
4895 1 47.4717 19.1922 52.8879
3580 1 49.8904 29.8517 53.9743
761 1 58.3222 27.0005 57.8431
5208 1 47.5708 27.6682 51.3068
4200 1 47.5797 21.7067 60.7301
1905 1 60.2194 32.0244 50.0941
4370 1 49.4144 31.7606 50.1802
3130 1 56.2161 24.5875 58.0272
2537 1 52.9312 21.055 51.6109
5269 1 51.0141 24.417 56.0727
5302 1 47.2376 22.4187 55.8414
1195 1 58.7853 26.3808 46.8018
3289 1 48.0638 25.2328 56.0093
5781 1 52.6113 23.5917 47.1696
6146 1 47.1134 20.5837 58.1436
4277 1 58.0888 25.7534 52.2587
1865 1 52.5626 29.4807 52.9361
1391 1 58.2734 23.6171 47.6497
2479 1 56.0272 29.0921 48.9929
3143 1 50.9536 26.2608 58.5048
3124 1 56.029 25.3953 48.7275
4214 1 55.1001 30.8386 55.5674
4116 1 57.5515 32.37 47.6612
1757 1 56.7826 23.6863 53.7727
1185 1 55.2048 21.2319 49.6108
2543 1 52.6389 31.3446 56.6138
6930 1 50.0152 30.709 47.3864
4345 1 48.5423 21.4471 47.4623
3557 1 55.3687 22.9476 47.4279
2162 1 51.3535 19.0913 58.1286
4886 1 53.3349 24.721 58.5857
3361 1 58.0948 27.0091 49.6643
2101 1 49.1103 28.245 48.9548
5134 1 57.0147 21.1999 60.2451
5082 1 57.2648 29.4042 52.8601
2896 1 56.2772 28.662 56.8617
5741 1 50.2561 20.895 60.04
2604 1 51.249 26.3048 52.3993
1114 1 47.6301 23.9011 52.7074
4338 1 54.8924 27.3161 58.923
6648 1 58.952 29.9466 47.5626
5259 1 48.7391 26.3583 53.4486
6600 1 48.8934 24.7635 59.4511
6364 1 49.3687 22.4734 57.8147
4240 1 60.7954 25.0507 53.0146
1991 1 47.2583 26.8428 58.0997
6073 1 53.7129 25.3294 55.7182
3394 1 59.0475 27.7163 54.2562
6852 1 47.2411 30.3708 48.4744
393 1 46.8409 25.5236 49.2236
7591 1 50.1981 21.1208 51.065
6711 1 55.0993 22.9615 56.036
1400 1 52.6453 22.2886 60.1218
2943 1 48.8712 18.3383 59.3685
4008 1 47.63 27.0705 46.9172
7592 1 53.3156 21.067 54.5391
453 1 59.7437 25.325 55.8091
3844 1 58.5244 29.7333 50.5498
3286 1 53.7857 31.2094 60.1555
4833 1 56.6621 26.1455 55.528
2957 1 60.5927 20.6597 57.9682
4234 1 58.4454 18.9598 50.8143
567 1 57.3219 28.1391 60.2731
5469 1 49.6082 28.3773 57.1856
7435 1 56.3622 20.8275 57.299
3826 1 56.3232 30.5471 59.0679
5317 1 57.8902 31.3505 54.739
1846 1 47.8736 20.3593 49.8007
3578 1 58.6864 21.3032 52.5335
3605 1 58.1334 23.3385 50.6476
1149 1 58.9933 22.5807 55.1695
6399 1 52.5814 23.402 49.9614
4969 1 55.2946 23.7665 51.1982
2675 1 51.9623 30.7562 49.7046
2280 1 55.7075 19.3347 54.9692
1599 1 52.521 26.0026 48.7134
5006 1 50.4402 20.4413 55.7477
1547 1 58.4434 24.7918 60.0049
3467 1 47.4845 28.488 55.0338
6644 1 47.9723 30.2347 51.9146
4901 1 54.664 31.6157 49.9573
3786 1 54.6467 31.8543 47.1353
5404 1 56.2977 18.5523 59.2864
7879 1 48.9304 21.6582 53.7589
2884 1 53.9157 20.212 58.4272
3411 1 58.5998 19.7211 55.9034
3615 1 60.4292 19.1975 53.8197
6419 1 60.6208 31.1436 53.8789
7571 1 60.4434 29.9964 59.1468
6577 1 57.3132 32.3007 50.4373
6486 1 47.26 31.6953 57.0727
2171 1 53.4735 29.3194 47.7001
686 1 48.4097 18.5787 56.4618
2168 1 51.4307 32.1024 52.2384
3805 1 52.6267 18.321 50.6774
4854 1 60.6962 28.7681 52.151
1968 1 50.1117 18.4273 52.1028
4890 1 46.6894 31.1894 54.143
7835 1 46.9196 18.3748 46.8241
6908 1 56.8782 40.3972 7.94417
6090 1 50.4935 39.8413 6.88706
3622 1 59.276 40.6852 18.1053
4677 1 56.1378 37.7643 7.26626
4843 1 46.9195 44.4727 11.0659
5912 1 47.0358 35.2094 17.2498
3893 1 56.6025 35.4852 12.6578
1071 1 53.4823 41.5673 16.6415
6864 1 49.3801 37.1374 13.983
2502 1 52.4693 42.0517 11.694
405 1 58.6971 44.2973 7.54584
6248 1 56.207 34.9465 9.69903
7580 1 48.0669 41.4593 7.02817
4983 1 49.8774 37.451 8.61452
4483 1 56.25 42.0792 10.0936
5972 1 60.467 35.5451 16.789
6053 1 53.6384 33.306 14.4183
3020 1 55.1156 43.7638 8.14525
4732 1 53.0144 37.2126 16.3341
7031 1 54.3029 45.9777 10.1377
379 1 56.0507 37.9226 10.1326
6801 1 58.3275 40.8423 11.8265
1587 1 55.2772 35.5447 15.3365
1499 1 56.2149 34.9487 6.74404
1484 1 57.2553 46.057 4.59126
2084 1 50.9364 45.8529 17.8771
6092 1 46.8027 43.6796 8.32567
5306 1 49.0941 43.1864 16.2882
2447 1 60.7589 45.631 10.9282
5477 1 57.1921 42.5768 13.8522
4625 1 51.393 38.0127 4.65427
6176 1 50.1532 43.3909 10.5873
3378 1 54.038 36.7158 11.9515
7890 1 52.4238 43.272 8.94362
1025 1 58.8127 40.4479 15.3054
1595 1 55.8511 32.8359 12.5995
4319 1 59.4648 35.0116 12.8042
463 1 57.47 32.9892 17.3562
2602 1 53.2518 44.1384 14.848
6707 1 50.7879 39.6993 11.6935
1396 1 54.787 39.0362 13.4277
1291 1 53.6958 38.7686 5.97844
5053 1 51.0953 35.4409 10.7767
2240 1 53.6228 45.6234 17.2529
6566 1 47.6244 37.8188 16.0688
1099 1 58.2164 37.7222 15.3655
5526 1 53.6508 45.5624 6.48618
1221 1 57.3516 38.1478 12.7694
5663 1 59.7961 32.8383 8.97252
2007 1 48.0251 34.7196 14.6248
652 1 54.4293 40.0796 10.7941
1760 1 48.2903 35.9603 5.78727
2847 1 58.6814 39.102 9.64452
4546 1 52.327 38.0859 10.1859
6913 1 51.4109 43.1083 18.2644
663 1 55.5857 35.196 18.0437
16 1 53.6311 33.8736 10.7511
1307 1 51.147 35.9588 6.57923
1951 1 55.6507 38.3167 16.0439
7060 1 50.0174 33.4143 12.5896
7760 1 53.5541 39.2756 18.3121
5856 1 50.7975 42.5518 14.0196
4190 1 50.6303 35.604 16.0101
2416 1 60.4677 46.4245 6.96785
2499 1 59.3565 44.182 13.2106
6803 1 59.4461 41.5912 8.43721
6075 1 51.0416 40.2827 15.5376
1675 1 48.2029 39.5817 13.0801
4775 1 52.0902 34.6183 4.225
3597 1 47.6085 33.336 10.9579
6021 1 52.3248 45.0835 12.0186
1597 1 52.7859 40.3777 8.42597
6412 1 47.9899 38.636 4.6487
3755 1 57.9731 35.0272 15.2538
1422 1 48.3496 42.4123 12.625
3773 1 57.3155 44.3861 16.0305
1181 1 48.4661 34.981 8.62656
3723 1 59.9305 37.6379 11.6617
7706 1 51.3427 32.9924 16.4778
2683 1 51.9195 38.2291 13.9629
4342 1 58.6519 35.6309 5.23176
1871 1 57.1038 45.6155 9.34855
2418 1 53.4051 36.7258 8.04335
4647 1 49.4583 44.8888 8.05069
7979 1 57.7167 32.643 7.08321
2686 1 58.8441 37.1351 7.68867
5734 1 49.2885 40.9013 9.58607
24 1 52.071 35.3996 13.5673
1336 1 56.1787 41.0824 16.0776
5708 1 57.9668 40.6009 5.19659
1614 1 55.3026 43.9982 12.2025
2378 1 55.7566 33.003 4.8246
5615 1 48.1427 36.1669 11.3937
5088 1 47.6676 38.726 10.3594
832 1 51.8126 46.2221 8.61024
508 1 50.6923 45.1767 15.2325
4730 1 49.3108 45.7574 11.9918
1836 1 52.8382 43.2703 5.04111
997 1 53.9544 33.8984 8.00506
3945 1 47.4574 38.6015 7.31713
3959 1 48.2902 40.5537 15.8146
2996 1 54.4652 41.5149 6.49563
2864 1 58.8255 43.533 10.557
1615 1 54.3101 41.774 13.8291
4921 1 46.9106 44.3149 5.41971
3936 1 49.4517 33.6427 4.59427
6158 1 60.3029 38.9588 5.82645
4784 1 51.128 40.922 4.30094
1283 1 50.7499 42.7959 6.75837
7174 1 56.7772 43.3044 5.69908
5636 1 55.5849 45.921 14.4446
2428 1 49.6225 44.9409 5.05581
201 1 54.477 36.2115 4.58814
1784 1 50.9868 33.675 8.34175
4221 1 57.3501 46.0961 12.2515
5094 1 59.1067 35.4493 10.04
2789 1 59.9229 44.9181 15.894
6466 1 48.0532 46.2311 14.6886
3453 1 49.8379 37.6415 17.9477
3623 1 46.9689 43.7514 14.5427
4025 1 56.2827 46.1527 18.2206
5836 1 56.9198 37.7605 4.30233
3146 1 57.1102 42.6596 18.2377
426 1 58.9633 37.8543 18.1574
4197 1 60.855 39.8936 13.3704
7582 1 59.2432 43.0861 4.31671
7128 1 52.9202 33.9252 30.9452
2987 1 47.5565 34.3871 31.4771
288 1 47.9402 42.9908 27.0866
6229 1 48.1121 39.3136 21.1597
1292 1 58.41 34.72 21.6709
3873 1 52.4797 40.1812 23.5575
4028 1 59.4366 43.1526 28.1093
7815 1 52.4215 33.216 21.296
6027 1 52.0076 43.5901 21.0283
7260 1 56.9513 40.3224 19.7803
7232 1 48.4458 34.9117 25.7775
1304 1 57.2159 36.9361 24.4343
7983 1 56.5867 44.2616 20.431
3004 1 57.6409 39.4809 32.206
2181 1 57.4889 32.7617 27.2702
6349 1 53.4132 33.4054 18.5928
6200 1 54.3053 40.9678 20.6137
2799 1 50.7184 39.8363 31.0418
1 1 59.1998 44.7257 18.9497
3473 1 54.5061 38.5337 22.1882
6270 1 55.2645 37.8635 26.5369
1442 1 47.8377 36.6118 19.6807
7564 1 47.2251 38.0392 24.35
1692 1 52.2788 46.5972 23.3791
4565 1 57.6091 36.7637 30.9338
6378 1 48.8896 33.6808 28.2521
3288 1 57.0593 37.2936 21.5432
1137 1 53.1891 37.7168 24.7034
3634 1 50.7937 40.1932 18.3366
4367 1 49.2116 33.2388 22.3015
1551 1 59.6274 38.7245 24.4653
5154 1 53.5888 44.0322 28.4839
1164 1 50.3195 35.2923 30.4494
5509 1 53.8626 40.9863 27.7465
5599 1 59.5527 40.1129 30.0522
961 1 58.368 37.9494 28.4396
5592 1 49.2765 41.5073 22.5898
4238 1 48.7743 45.9944 29.0839
7757 1 52.403 37.4174 30.229
1882 1 58.1064 39.957 26.4583
1043 1 58.3079 42.5856 25.3772
5530 1 52.5447 38.5218 27.4445
5621 1 56.3219 33.5893 29.8809
4765 1 47.0883 39.2165 30.037
2826 1 56.5339 45.3698 30.3391
1012 1 50.5762 43.9275 26.6734
185 1 60.6277 32.5498 23.5807
3644 1 55.6868 33.9163 21.7886
2941 1 58.1499 43.3329 31.6018
5235 1 47.3315 44.1192 32.3441
4957 1 49.2462 42.0067 32.3946
886 1 56.4346 33.0092 24.5743
670 1 47.5586 39.1669 27.0615
2741 1 55.191 35.3096 32.0897
5670 1 49.1335 40.8749 25.4947
2242 1 59.9672 42.0377 22.2048
2391 1 58.4667 45.0204 23.6753
3196 1 55.7329 46.0095 24.2879
276 1 47.8641 35.6341 23.0724
18 1 51.5142 40.6026 21.019
6410 1 48.8622 37.7121 31.5329
2186 1 56.1192 39.7058 24.3525
4606 1 58.7364 34.4866 24.3879
4209 1 56.5544 43.2207 28.2771
4507 1 57.2084 42.6975 22.4495
2287 1 57.9904 35.575 26.9151
6290 1 52.3252 37.946 20.5605
7451 1 47.3945 45.7022 26.4698
1413 1 55.1553 37.5912 30.1185
7994 1 49.8834 37.1336 21.8294
5899 1 54.4697 36.1455 20.5096
1199 1 53.2521 41.2039 30.4479
5739 1 55.4348 35.5888 28.0271
3548 1 55.0436 46.3843 28.0518
609 1 51.5317 46.0854 28.2489
619 1 46.9271 35.6917 29.0229
6425 1 48.382 41.6747 29.5865
75 1 58.3638 46.3503 21.0564
4953 1 59.1435 34.4575 30.2752
1485 1 58.0716 39.855 22.3223
5389 1 49.1712 44.2682 23.3539
6371 1 51.902 43.6777 23.977
3776 1 53.1102 32.5011 24.0031
3864 1 50.3527 40.0698 28.1367
666 1 54.5487 42.2476 23.0908
2285 1 56.0155 39.729 28.5578
3188 1 57.369 45.2635 26.3706
3987 1 51.1615 42.7622 29.3232
2505 1 60.572 34.8846 27.942
4421 1 49.3 37.2405 28.5845
4965 1 50.1601 38.47 24.3401
2756 1 50.0121 34.75 20.0179
3287 1 59.2849 45.7204 29.4863
5291 1 55.4459 42.1527 25.7103
293 1 49.8935 46.3205 25.1153
4994 1 50.9001 34.341 24.4051
7142 1 54.8846 35.4434 24.0692
5042 1 50.0749 44.5146 31.1891
5910 1 56.2467 41.5838 30.673
2556 1 54.0735 33.6841 26.3238
7233 1 54.3289 45.0394 21.9124
5325 1 52.5932 35.1457 28.3933
6526 1 53.8462 44.4792 25.6776
6055 1 58.3499 35.0861 18.8812
5495 1 50.8502 36.481 26.3474
4568 1 51.8895 41.6618 25.8933
4589 1 52.4217 35.7324 22.5831
7766 1 54.7064 39.4749 32.2579
1433 1 51.3024 32.9507 27.0197
2719 1 52.0721 35.8862 18.6105
4224 1 48.6195 45.6343 20.9231
7708 1 48.4774 32.8444 18.4648
7155 1 56.1235 37.947 18.7981
1840 1 54.3469 43.1647 18.9232
6355 1 59.8522 37.876 20.8681
1503 1 54.2749 43.7904 31.325
5920 1 49.1489 43.0037 20.0438
7940 1 52.4581 46.0725 31.0269
1205 1 48.0313 40.7516 18.7279
4529 1 59.934 46.659 26.9041
4865 1 51.2697 46.5162 20.5673
717 1 60.7902 44.2607 25.4838
4594 1 60.8236 41.4372 24.8819
250 1 60.7149 42.6255 30.6829
3310 1 60.7056 40.4996 27.5664
1188 1 60.7235 37.669 26.9234
1550 1 46.7629 44.1008 29.6312
4033 1 47.4994 44.7596 18.341
7433 1 55.2012 45.5595 39.3332
1870 1 58.9147 37.136 41.7719
7929 1 56.3969 40.8075 36.1354
7545 1 56.538 40.5195 42.1428
475 1 59.2 40.7358 41.1971
1276 1 60.536 40.3308 34.8591
1837 1 56.1143 43.4063 37.4551
5952 1 54.0713 39.3393 41.9878
723 1 47.3513 33.9854 40.6339
1897 1 52.9274 33.4066 37.3643
4243 1 52.9171 42.3786 39.5962
5227 1 60.3282 44.7543 32.7242
1691 1 51.4109 36.9914 38.6836
5619 1 59.513 37.1361 33.0988
236 1 48.2126 35.3939 43.1203
6375 1 56.8893 38.0786 43.7086
3674 1 47.0912 40.2993 43.3527
6235 1 47.1695 45.5355 42.0115
5993 1 60.7545 33.9084 41.6004
1591 1 56.1252 38.602 34.5579
6510 1 49.1503 35.0997 38.7222
2232 1 58.4328 44.9865 34.8349
3462 1 58.76 38.2631 35.875
1661 1 48.2369 38.3632 41.2646
7590 1 47.7892 38.7662 34.1609
1287 1 50.9748 43.3972 35.5403
4270 1 58.3672 34.7363 40.1341
6507 1 51.0015 36.7622 45.3205
2374 1 53.6123 34.5945 41.898
5547 1 47.5647 42.1063 41.2463
4414 1 60.4603 45.4922 43.7979
7323 1 50.7558 39.7881 43.1812
2532 1 49.9367 40.4832 40.5048
4626 1 56.4985 35.4472 42.3558
5224 1 50.1344 36.2226 41.1459
3863 1 52.3686 45.1939 33.7656
6118 1 50.3812 34.122 44.377
2090 1 53.456 42.7005 36.8629
5091 1 52.6313 39.826 36.5895
5828 1 59.9016 33.0172 38.3228
708 1 49.6969 46.0734 40.9895
4580 1 49.0703 41.3527 45.0923
1881 1 49.9372 38.8416 36.8705
7415 1 59.7124 39.0602 43.6726
1245 1 49.4164 41.0418 35.0913
5969 1 57.776 44.1524 42.0011
936 1 46.6981 41.9377 35.0492
5432 1 50.3976 43.4697 38.5797
4852 1 46.906 42.7356 45.8088
3171 1 56.0791 43.6762 33.685
1383 1 54.1574 37.9824 44.5528
7961 1 57.5534 38.9036 39.7156
7616 1 51.9276 43.7154 45.9839
1715 1 50.2885 43.1863 41.6014
5346 1 57.5785 37.1688 46.1982
2329 1 48.1637 44.3634 35.0663
5628 1 55.9504 40.0215 45.7308
5284 1 54.5542 45.2657 35.6429
4576 1 52.4683 45.1576 40.7233
6470 1 48.9141 41.2564 37.8861
5368 1 58.4329 33.6031 32.8002
7510 1 54.7136 35.1712 44.5699
2107 1 55.067 39.6331 38.2342
4633 1 60.4684 43.0651 42.4535
7774 1 59.4878 41.8056 44.6759
7363 1 52.5283 45.4132 37.8921
470 1 58.1666 41.638 34.0009
5384 1 51.9005 39.9212 33.6901
5015 1 51.0747 33.5391 41.8624
2148 1 56.2157 34.0759 38.3319
4236 1 59.1253 34.9672 43.6172
3838 1 53.9204 44.9772 44.1474
3520 1 55.6906 41.9144 39.8704
2219 1 59.8236 44.1452 46.1619
1700 1 59.8 42.7345 36.3977
4614 1 47.5925 45.3629 44.7904
6943 1 47.8707 37.6518 38.4023
6722 1 53.1379 37.213 33.0168
3665 1 57.75 46.4522 43.8097
4870 1 53.8542 37.4918 35.7552
193 1 54.9044 43.674 41.8375
1319 1 57.9668 46.51 40.1839
740 1 58.3666 45.1318 37.6759
5048 1 58.4174 36.8208 38.1302
2337 1 49.7299 46.2911 33.5791
4985 1 58.7991 40.4998 37.7728
6647 1 52.5396 39.6048 39.5837
3866 1 56.725 42.5381 44.1262
7808 1 51.5695 35.7708 36.1864
6938 1 56.7027 34.5886 46.2287
6703 1 48.6828 38.0302 44.0527
1945 1 52.1553 37.2378 42.7175
2272 1 47.7269 44.4074 39.4563
1861 1 49.0925 34.3666 36.0836
726 1 55.5805 36.921 37.851
2339 1 56.2025 44.7791 45.5856
6477 1 55.5984 32.8842 33.5588
1513 1 50.8496 32.7109 39.0636
4828 1 56.6484 32.6668 41.5288
4738 1 52.7131 41.7823 42.3186
4643 1 54.3147 41.7614 34.2708
382 1 52.395 39.9649 45.6162
4612 1 57.0567 35.8469 34.3824
5186 1 55.313 37.2672 40.7531
4037 1 54.9354 34.7025 35.8052
4095 1 50.4565 37.566 34.2176
7379 1 49.7591 43.7865 44.1219
2731 1 49.9223 34.8954 33.4005
2515 1 51.2943 46.1233 43.3743
615 1 58.2826 34.3968 36.4321
586 1 58.4164 42.8422 39.4876
561 1 49.0501 45.9304 37.2943
7908 1 53.9277 42.1016 44.9163
158 1 60.0587 35.6074 46.0049
4756 1 53.5869 35.4702 39.2692
3799 1 52.7971 34.4194 33.7676
6892 1 52.028 42.6404 32.6835
5226 1 52.9495 33.1465 45.1585
4373 1 54.2273 32.6191 39.8889
114 1 60.5149 34.0966 34.7035
3576 1 47.367 35.1965 45.8647
2524 1 54.8758 46.1816 32.6376
7663 1 60.3751 38.3044 46.1777
4722 1 46.8476 37.9845 46.2149
7666 1 57.5275 32.7046 44.2119
3712 1 49.751 39.0208 46.577
6991 1 60.8009 37.3124 39.4747
2981 1 58.3936 46.3701 46.6103
6870 1 53.2243 37.6595 59.1106
2869 1 54.5046 41.5394 50.3001
6140 1 53.2137 44.7109 50.9545
1534 1 47.8965 40.4196 49.2376
955 1 54.895 37.0529 49.8514
5565 1 49.9976 42.204 56.8409
7845 1 58.7476 37.3483 54.6066
157 1 49.1744 38.7324 52.0436
4741 1 47.4733 44.6999 57.1534
4021 1 52.0063 40.2786 49.7692
7670 1 50.1927 39.7811 58.2594
1264 1 59.748 37.6382 60.0868
5960 1 46.9376 38.9032 54.8511
7261 1 56.7723 38.8118 48.4809
1819 1 50.7902 41.5088 47.534
6103 1 59.3979 44.5686 51.8354
7418 1 52.5211 43.496 58.8721
275 1 53.0958 40.5238 58.681
7444 1 57.4243 36.249 52.3172
7952 1 48.1082 34.177 50.059
471 1 49.7641 43.1073 59.4139
6478 1 49.2755 33.4806 46.9817
1898 1 50.4792 44.8405 52.3871
4739 1 49.1697 32.7783 54.1418
907 1 57.5903 43.5511 58.5954
967 1 52.0364 38.7435 52.3364
4742 1 55.7165 41.0089 53.9855
4908 1 51.285 38.7609 55.9768
3815 1 59.7985 44.0823 49.0296
902 1 57.0595 46.0791 52.5268
4337 1 52.2227 45.9951 60.6845
5876 1 56.0282 37.4383 58.2591
1983 1 58.1805 33.5221 60.1417
3385 1 58.53 40.4083 46.8237
4717 1 59.9206 45.7739 60.8445
5635 1 50.8314 42.1353 51.5117
542 1 54.8724 41.94 47.6006
7655 1 57.0265 35.0652 49.7242
3810 1 54.7563 36.3963 52.9792
7253 1 49.372 37.239 54.5159
5339 1 47.2733 41.9451 56.9722
7931 1 53.4407 44.2349 48.2358
2187 1 57.581 34.8761 55.5979
531 1 53.8535 39.0315 47.9644
5785 1 49.8639 38.3861 49.3824
5522 1 59.2322 41.9811 56.7597
6122 1 58.0178 42.214 52.6183
4768 1 47.8305 45.6391 47.6711
4198 1 48.1922 34.4101 57.4402
464 1 50.7751 35.7175 48.0315
6003 1 57.6793 33.5447 53.0585
4122 1 47.9369 36.5033 48.495
7055 1 54.6795 34.2857 56.3674
634 1 50.198 32.8291 58.7755
329 1 55.9823 37.4132 55.3514
2438 1 60.36 45.3786 54.4532
3951 1 52.1717 33.2082 48.0417
6809 1 50.0013 44.8873 55.8432
1194 1 46.7688 43.5239 50.572
2400 1 52.1164 36.7449 50.2383
654 1 59.3659 38.1733 57.1617
7574 1 58.0979 43.7604 55.0304
3913 1 54.902 39.186 51.9266
6066 1 55.6274 34.7395 59.1203
4199 1 60.2423 36.3799 51.606
3593 1 53.1313 33.9946 50.7067
7138 1 60.1741 41.128 49.0076
344 1 55.3242 44.1034 53.8249
4923 1 53.1519 36.7514 56.293
2715 1 53.3199 42.5106 52.8565
5231 1 59.3951 39.8323 53.3944
3108 1 51.3829 40.776 53.9699
1011 1 57.4528 41.3682 50.0005
7030 1 56.0559 43.8578 51.0859
7406 1 48.6189 45.5835 50.5
1490 1 59.5647 34.2568 48.3045
1610 1 54.8773 33.6524 52.9512
3270 1 58.8786 37.085 49.0398
3529 1 57.5101 42.978 47.5524
6807 1 51.4341 35.5022 58.3429
5680 1 47.4362 39.7152 58.6255
4912 1 56.1398 40.3313 58.0988
4299 1 48.2627 41.5326 51.9638
929 1 55.1839 43.1613 60.1307
3737 1 56.9446 45.3547 48.9673
5769 1 52.543 44.6453 54.6038
226 1 47.4246 35.1436 59.9014
6903 1 54.6857 34.5993 48.2171
5020 1 50.2917 34.8871 55.7644
1315 1 50.4479 34.789 51.5121
6376 1 53.0949 33.2406 58.4983
3891 1 53.9775 45.2628 56.9552
1197 1 60.3557 33.7282 52.4116
2774 1 52.7935 42.125 56.2439
6557 1 58.4712 35.6496 58.2356
481 1 58.8714 40.187 59.0841
5648 1 55.5944 42.8575 56.4839
6762 1 57.7029 39.7803 55.6584
2473 1 48.3689 42.9327 48.1782
1122 1 48.0247 35.0356 52.864
534 1 47.8621 37.1523 57.003
2004 1 49.5188 37.1625 59.4774
248 1 54.2223 39.561 56.0375
6581 1 57.5533 38.8252 51.2827
1348 1 60.6919 46.2165 58.0999
7852 1 51.9366 36.1575 53.6451
5854 1 48.7046 41.0844 54.6953
5724 1 50.8559 44.0342 49.3206
5383 1 48.2968 43.8339 53.6989
7641 1 52.5313 33.322 54.6502
1939 1 51.2361 46.0522 57.9796
1374 1 50.5613 46.0537 47.0756
653 1 47.5099 46.6628 52.923
7360 1 58.018 45.8627 57.0162
1084 1 55.0189 46.0244 59.5358
7981 1 60.4187 33.8518 55.2623
4544 1 48.619 45.994 59.2613
4444 1 54.83 46.4821 47.5499
3054 1 55.2533 40.168 60.7288
1634 1 60.8385 41.7302 51.7771
6949 1 56.6975 32.5959 57.1428
5172 1 48.1234 41.4031 60.8347
7865 1 53.2955 36.5501 46.7948
7807 1 50.9808 58.2787 13.347
2739 1 56.3622 54.6876 13.081
7998 1 52.4462 60.2452 16.7755
256 1 60.2882 47.1318 17.5888
6243 1 47.076 50.3009 8.15388
4112 1 58.759 56.8392 5.71481
4903 1 48.6677 58.6499 15.102
6076 1 54.7952 57.3391 8.42664
7922 1 47.496 56.1976 12.9493
4380 1 58.3605 56.1335 10.0839
3825 1 56.4727 59.1591 16.7414
3011 1 49.4128 57.9953 7.06097
672 1 55.3865 52.5102 11.6086
3532 1 47.3209 54.0082 7.76436
3051 1 50.9627 53.9979 9.2272
6275 1 55.8964 55.3164 6.54126
1372 1 59.2364 47.1095 14.0553
1665 1 57.8048 59.5396 14.1371
7558 1 56.6043 52.6468 16.6707
2676 1 52.9819 55.6239 12.0073
7488 1 58.603 50.5554 11.4895
5519 1 55.4218 49.9968 17.3295
5784 1 47.5745 48.1345 12.3279
7686 1 58.8054 54.0784 11.907
5110 1 46.9866 51.9991 5.82629
1537 1 48.8804 54.9092 10.8834
2681 1 54.2671 47.9884 4.88879
2402 1 48.7123 52.4741 12.7968
6503 1 50.2664 59.9151 10.3405
2670 1 58.7529 50.7396 14.3381
7687 1 51.0909 51.2212 7.13929
1613 1 54.5769 47.8004 12.3488
4810 1 51.9701 47.2778 13.7902
3231 1 59.2478 56.331 14.875
7147 1 57.9778 48.3186 18.1869
5504 1 48.7806 47.4876 6.24252
1800 1 52.1801 56.5675 9.3588
2977 1 54.6053 60.2872 9.11219
7939 1 59.4183 53.1759 5.55989
7330 1 53.7813 54.3388 14.502
1358 1 54.0726 48.0803 15.7372
6632 1 47.7064 52.3294 10.0557
750 1 59.7924 59.519 8.26963
404 1 49.5775 55.2625 15.9191
2376 1 52.8074 57.0703 15.2044
5379 1 57.7342 52.6754 9.64558
2091 1 50.0398 59.9245 5.03183
7735 1 60.0503 48.6244 4.5575
7417 1 50.6981 57.9463 16.9563
4321 1 49.7697 48.5942 15.093
2120 1 56.634 50.9163 6.63823
4532 1 56.7119 59.2374 10.6708
2429 1 58.9468 50.7533 17.0756
7324 1 58.5228 54.8367 17.1653
2333 1 55.4791 55.4802 16.8278
7387 1 48.4127 52.6232 15.634
877 1 56.7693 48.406 10.654
3160 1 49.9495 53.836 6.54867
3336 1 53.1759 51.9527 17.4827
3254 1 55.4536 50.7388 9.39379
3322 1 59.42 47.644 9.41426
5671 1 60.3551 60.8255 5.68258
6332 1 57.5901 57.9339 8.04392
6816 1 56.5245 52.9236 4.79409
468 1 50.4702 51.1073 10.0402
3234 1 51.3062 52.9717 13.7445
1076 1 54.4465 57.9495 13.1997
7880 1 49.6231 50.757 4.97697
4803 1 56.0297 46.9833 7.09094
4804 1 57.0587 48.4196 15.3155
6928 1 49.3667 57.3945 9.8599
1095 1 46.9844 56.4659 15.7575
3640 1 48.2124 58.723 12.2311
7712 1 47.8484 55.7046 5.4754
5507 1 58.4148 48.8442 7.04602
5442 1 55.4382 54.4177 9.19757
6838 1 54.0866 58.0055 17.5348
914 1 58.5469 54.6544 7.72322
4543 1 53.879 50.3405 6.3786
2404 1 59.2258 58.2853 11.9426
5485 1 58.4407 53.5161 14.5844
1254 1 56.543 57.0258 14.786
1036 1 49.8178 49.8888 12.5287
1142 1 52.3658 50.2381 13.5681
5898 1 51.5145 56.2495 6.59155
3086 1 60.7849 52.9537 17.3614
3784 1 52.7304 58.8778 11.0217
4059 1 52.2079 54.7441 16.6919
6115 1 58.9569 58.3497 18.0522
6615 1 52.5721 52.896 11.2811
452 1 53.0159 58.6795 6.54562
4660 1 47.3225 50.0296 15.709
5558 1 54.5655 51.5343 14.8817
2407 1 46.687 56.3533 9.34583
770 1 51.0693 60.3835 7.55885
3483 1 53.4435 52.5052 8.36611
1967 1 51.0111 47.8173 10.8957
852 1 59.4854 51.2725 7.90491
3153 1 56.126 57.7528 4.97819
5815 1 55.6921 56.6122 11.0397
4452 1 50.2582 55.6298 13.2784
4696 1 50.8991 51.1118 15.9333
7963 1 56.2092 60.1656 6.78336
4096 1 53.4588 54.1976 6.23815
5329 1 51.7549 48.6694 17.2705
6771 1 56.2084 50.1404 13.0782
5627 1 60.3803 58.9345 15.5713
7569 1 54.0054 48.3927 8.52158
2726 1 47.3138 60.5224 5.83835
6381 1 51.5349 48.4693 6.88652
7742 1 49.395 48.8583 8.78735
6819 1 53.0926 49.9489 10.9044
1719 1 57.0505 48.9703 4.3513
6250 1 55.3757 60.512 12.7775
2320 1 47.0344 49.2173 4.48993
1134 1 60.5207 48.4691 11.9224
2821 1 48.445 47.1726 17.3793
3716 1 47.8155 46.7366 9.73492
6934 1 49.3472 51.3859 18.2822
1375 1 60.8382 56.0333 12.5826
600 1 53.8263 52.2484 4.20089
2595 1 51.4466 49.8595 21.5549
7779 1 47.4473 56.5437 29.8727
2392 1 47.1448 50.7918 30.9633
6705 1 56.251 49.9255 20.0297
2866 1 58.2731 56.0847 26.7008
5213 1 49.1636 54.8649 18.7173
5078 1 55.4596 48.4857 25.4397
407 1 51.8112 57.6637 23.0246
1509 1 50.685 58.5773 30.3575
2755 1 52.9421 52.2482 28.6942
7229 1 50.4626 55.0913 28.1003
7494 1 54.737 52.4274 24.7653
2252 1 53.3638 49.6466 19.4357
4099 1 60.3724 48.5683 29.0936
2153 1 48.934 59.584 18.5048
2195 1 50.6362 54.0105 30.6539
1855 1 55.8728 57.0542 27.859
6094 1 56.1139 55.6136 30.3315
1089 1 53.4508 52.2377 21.0468
5846 1 57.602 54.7802 24.2606
5198 1 58.4424 60.2075 27.5656
7694 1 49.8663 54.8316 24.1934
5214 1 53.3579 54.4921 30.6676
2075 1 48.5455 52.6626 25.2917
4082 1 47.2222 50.6299 26.6582
3082 1 53.6848 54.479 23.0123
7171 1 52.6894 58.8455 28.2921
5853 1 48.8353 57.2221 24.8733
3766 1 49.7488 47.8394 22.6625
1318 1 54.9226 51.1297 30.4773
7700 1 49.4776 50.4184 23.9598
2956 1 60.3556 59.163 20.413
887 1 50.6422 48.7955 26.1096
785 1 51.3316 52.5154 23.1823
6788 1 55.0137 53.5195 18.9395
5375 1 53.7076 49.117 23.2476
776 1 54.151 48.2929 29.9537
2071 1 47.7283 53.5793 30.458
1031 1 49.5475 56.3004 31.8689
1680 1 59.0772 47.0586 32.028
870 1 50.9908 52.5979 26.8608
2403 1 56.5334 59.065 29.4775
2462 1 57.031 59.397 25.3313
357 1 48.9842 51.5637 28.6703
2039 1 54.3174 58.6688 25.8885
6031 1 47.8638 60.2943 21.033
3091 1 57.625 52.3038 19.3514
7607 1 54.9195 57.9308 31.7328
2517 1 47.727 60.1303 27.8175
2933 1 59.439 57.9529 24.6859
2017 1 56.4452 57.2473 23.2582
7633 1 59.982 57.6842 28.2647
7152 1 48.46 54.4632 21.4797
6720 1 53.216 55.8259 19.3572
1467 1 55.8044 47.6014 21.8402
5237 1 60.7776 55.4588 29.6912
4076 1 52.2012 55.0539 25.612
1582 1 55.7967 59.1599 19.672
979 1 55.1062 55.8487 25.3018
7527 1 57.036 52.9473 31.1353
948 1 58.667 56.2683 31.4639
1070 1 49.6193 60.7345 23.3769
6390 1 49.6069 52.0208 20.9237
7954 1 48.7517 48.7917 28.2005
6513 1 57.499 53.2896 21.9835
1079 1 57.3241 48.2459 27.5904
6999 1 55.6338 55.2995 21.1525
7614 1 53.9748 49.8831 27.4342
5528 1 59.3878 51.398 22.6846
3298 1 49.8551 48.8888 19.3932
207 1 56.5269 50.8955 28.161
2780 1 53.1426 59.9349 30.7835
1682 1 52.4087 50.8067 25.1279
1462 1 49.0093 58.0773 22.2046
4156 1 58.5637 50.575 30.1498
1532 1 54.1415 57.7257 21.4001
6675 1 57.7266 59.5074 21.8163
5316 1 60.0412 52.7239 28.9073
7928 1 60.5642 54.9161 23.3374
7259 1 51.6159 48.9083 28.9679
1935 1 53.1255 56.0385 28.3177
4136 1 58.98 49.197 20.7616
1738 1 57.3988 52.4237 25.7343
209 1 59.1427 54.8327 20.0749
2448 1 55.0424 59.8592 23.1988
5974 1 57.0512 48.1582 30.4513
6731 1 47.4373 59.8178 24.9483
7226 1 51.4492 53.3993 19.3398
3080 1 58.8903 49.946 25.9223
7997 1 51.466 57.7798 25.8811
4274 1 60.1614 52.4723 25.1218
287 1 52.3902 56.6902 32.1079
5976 1 54.6268 53.8476 27.1915
1742 1 47.1236 58.8981 31.356
622 1 55.6531 51.2688 22.4148
3102 1 51.2997 55.2111 21.6765
2504 1 58.8961 58.9483 30.5909
5773 1 51.0676 51.0889 30.5369
7597 1 59.0458 56.963 21.9698
3630 1 50.4974 57.2597 19.7929
4649 1 57.508 49.2871 23.4465
4185 1 47.3085 47.412 24.1298
4517 1 52.9971 47.2797 26.2046
7635 1 47.8477 54.1681 27.5812
6000 1 51.0365 48.3147 31.8471
5585 1 49.3774 57.6935 27.9959
2254 1 57.3009 53.8545 28.3284
2708 1 57.0182 56.6214 19.096
6102 1 60.4678 51.6586 20.0149
2067 1 48.3678 48.1443 30.9533
3152 1 52.3719 59.4114 19.6991
7627 1 60.7643 54.622 26.8638
6212 1 47.3366 48.3453 20.8259
1572 1 50.5698 60.7441 27.5573
1180 1 53.9677 46.9221 19.7785
1714 1 52.2508 60.4875 22.2935
628 1 59.7855 53.7281 31.8311
6586 1 59.788 47.6317 24.3039
2671 1 47.2979 50.8016 22.0162
3046 1 46.8346 56.7326 21.3164
7957 1 51.8464 60.4111 25.2251
6293 1 60.8473 59.913 23.0363
58 1 46.9122 56.7559 26.841
6346 1 47.2939 57.1412 18.3949
6843 1 54.7192 60.7892 27.7477
3112 1 50.842 57.9191 36.532
3876 1 57.2897 51.991 40.7378
6954 1 55.0828 48.5622 39.0822
7888 1 51.0037 53.6021 33.4965
4553 1 56.8089 59.3962 35.8043
3549 1 53.1619 55.2012 34.6153
5365 1 48.6566 56.4936 41.4908
737 1 49.5985 55.7908 34.7832
180 1 49.2924 47.6007 44.8754
1540 1 53.5331 48.7524 32.9469
7950 1 56.3385 49.7458 32.7235
2377 1 57.8979 58.5662 46.4064
1456 1 50.6543 60.4394 45.32
311 1 51.9609 57.8987 46.1914
4596 1 51.4829 58.5206 40.2071
2346 1 53.0163 47.2124 45.7269
232 1 54.9641 54.4472 42.5643
3994 1 58.5398 48.5377 38.1403
7293 1 55.2657 46.6845 42.125
6099 1 48.7166 59.3354 40.683
3320 1 48.5153 52.1192 45.9993
3107 1 55.575 57.2426 45.2289
6992 1 56.4994 58.8912 42.0866
403 1 58.2519 54.9874 33.8932
1265 1 55.6623 52.0437 43.9449
6143 1 49.2122 51.566 39.7636
7278 1 51.005 47.6411 38.714
771 1 59.4397 50.1942 40.475
2554 1 57.4061 54.2173 37.2506
6409 1 55.6257 50.2346 35.5293
6314 1 56.1537 56.695 36.8414
1976 1 57.5521 55.6552 43.488
3890 1 53.0202 51.7234 32.6363
6157 1 59.7182 55.6545 36.3224
2694 1 47.293 51.1996 37.4419
7294 1 51.7762 58.7482 33.9023
3125 1 54.5877 60.653 40.9279
2931 1 52.1163 49.9249 45.3115
7037 1 49.9785 50.0075 37.118
5215 1 56.7272 50.8536 38.2085
4154 1 49.3321 51.1424 32.8148
7650 1 49.9732 56.4299 38.8467
3490 1 52.5827 52.8916 42.1144
2653 1 51.4323 55.0556 36.7856
7086 1 54.2594 57.2386 42.4719
4412 1 60.2689 47.1007 35.3767
2365 1 57.0396 52.6984 34.8639
5503 1 47.3868 54.8001 33.1244
1533 1 52.1281 55.0089 40.2169
3240 1 56.3439 47.0011 36.9891
5596 1 51.335 56.8883 42.6402
4045 1 48.2484 48.635 33.9038
7221 1 52.9308 51.5798 35.5439
1338 1 55.7754 54.1472 39.8175
5768 1 57.4625 58.35 33.1148
3474 1 52.8005 49.7848 37.7293
2332 1 52.5991 59.3498 43.5587
2028 1 53.9521 48.0137 35.7421
7420 1 50.9915 49.0625 42.8368
3472 1 56.7168 49.1715 44.1149
2519 1 55.9125 56.1187 34.0667
1109 1 49.062 58.6204 43.6363
5885 1 48.5716 53.977 38.2593
1751 1 54.6458 53.5503 36.509
3297 1 56.9031 57.8946 39.351
2451 1 58.7254 58.2458 43.7028
102 1 53.1445 52.5949 45.0618
3738 1 47.3882 56.0622 36.3911
2121 1 60.1645 59.3473 34.0601
690 1 59.0959 51.8782 36.8882
3282 1 50.1339 52.5583 36.0063
1979 1 58.5951 49.4549 35.3801
2816 1 48.5757 59.8341 36.1063
912 1 59.127 50.9178 44.9449
2059 1 56.9535 49.0348 41.3012
4794 1 60.4429 55.1685 43.0416
5313 1 54.6531 50.8414 41.5887
4055 1 53.2161 55.5088 44.6764
2702 1 51.8414 50.6051 40.6243
3522 1 50.4726 51.8289 43.8904
5672 1 50.3576 54.7593 44.3694
2668 1 53.9385 55.6368 38.2429
5381 1 47.6287 52.4146 34.7896
2989 1 47.9855 60.4331 46.4182
40 1 57.0027 47.3017 34.1819
1119 1 53.5165 60.1819 37.642
1604 1 54.3696 59.844 34.1093
7110 1 48.8726 58.4553 33.5682
23 1 50.8452 60.32 38.0567
4723 1 48.8202 48.8007 40.2548
2064 1 54.0903 58.1466 39.654
1267 1 54.2956 51.9425 38.7897
7846 1 58.291 52.8911 43.1656
3598 1 53.6148 57.8372 36.1636
4720 1 60.6283 52.599 41.4788
3032 1 51.5416 52.8513 38.5965
4119 1 47.1597 53.1387 42.4388
3870 1 59.3883 58.4298 36.6998
389 1 47.5519 48.2436 36.6675
3758 1 47.5611 54.6164 44.7981
3440 1 59.3943 48.7331 42.9798
700 1 53.9904 48.9283 43.3728
26 1 47.7235 58.1185 38.2408
7283 1 49.1164 56.9821 45.8561
4204 1 58.8424 51.216 33.064
1921 1 51.2689 47.0454 35.9088
7820 1 49.7733 53.8081 41.5969
272 1 60.2567 57.3841 41.0811
581 1 52.9877 47.9281 40.8601
3186 1 50.9787 49.5257 34.5792
2005 1 48.4907 50.4486 42.3961
3514 1 57.8786 55.7759 40.6916
7875 1 55.0028 53.6322 32.9524
2124 1 60.589 46.8977 41.3583
6887 1 55.2783 60.1035 44.2644
5414 1 59.2752 53.5308 39.2952
6335 1 59.8067 53.6761 45.5815
2761 1 57.1491 54.9339 46.279
5561 1 59.3561 59.474 39.4417
6077 1 60.6413 60.3313 45.1269
479 1 60.6536 47.7479 45.4782
1411 1 60.7347 56.4612 33.6262
895 1 47.1734 60.6744 43.6052
2927 1 59.4901 56.3434 46.5532
7320 1 58.8149 60.6989 42.1352
872 1 56.2312 60.5793 38.392
2925 1 56.8657 52.1008 46.5437
4685 1 60.8435 49.2054 32.5304
4253 1 51.3886 51.3846 51.8329
5489 1 58.8382 50.3371 47.8381
6257 1 53.9657 60.0262 47.0132
2797 1 51.3449 53.9953 56.5544
4447 1 51.9786 55.6977 48.1578
1712 1 55.1986 53.1673 55.2169
4499 1 60.7075 58.03 54.2587
2491 1 57.5254 56.2845 54.2639
3049 1 49.7381 47.4418 54.7338
656 1 56.0303 47.7293 57.4559
1952 1 50.7115 60.0085 51.7723
5027 1 58.1502 47.4567 50.2057
611 1 56.1626 58.2694 51.7178
2699 1 48.5583 53.8172 48.3987
3126 1 58.3343 47.5217 54.6752
7631 1 55.6141 50.1042 58.9254
2327 1 54.6968 47.1517 51.3121
3318 1 57.0657 59.7272 60.035
5639 1 53.5151 60.6023 51.8565
5766 1 57.9347 52.2119 54.3303
5029 1 57.7992 54.9095 51.6328
6126 1 53.6386 58.0873 50.5053
3759 1 54.846 58.9989 58.4988
1920 1 47.5237 50.8929 52.5916
364 1 58.3686 59.9071 53.6688
7857 1 56.6708 49.7313 49.6034
3992 1 47.5124 48.3788 56.1011
2503 1 48.2197 51.1006 55.4646
7210 1 60.1673 47.8377 48.3168
5975 1 56.8101 58.5141 49.0204
1247 1 57.0702 49.7944 55.6487
7817 1 53.9569 48.833 49.0945
2288 1 55.0359 60.6403 56.2744
1083 1 51.3305 57.0284 51.8522
3585 1 56.538 48.7039 46.8505
5473 1 50.7517 56.5366 60.5331
2446 1 49.8188 49.0675 52.5779
1662 1 49.0865 58.5171 54.959
4188 1 54.3023 54.4457 47.0395
2359 1 48.2907 59.232 49.2328
1542 1 52.3893 58.3434 57.0343
7088 1 53.7471 55.6628 57.1481
1519 1 52.9013 49.7401 59.8055
7537 1 54.4643 50.7103 56.3878
6145 1 52.5222 54.5594 50.6838
4042 1 55.9974 55.389 59.8889
7841 1 56.7049 52.7458 58.6468
5115 1 48.9629 58.9077 57.8379
6321 1 49.2656 56.5152 48.5717
7625 1 48.5964 48.3976 49.9476
4524 1 59.1176 57.1273 58.194
2143 1 51.3071 59.2097 59.4136
5241 1 56.7472 58.6715 55.3972
1695 1 53.6879 52.4944 48.9224
1214 1 56.3814 56.7219 57.5504
43 1 48.5193 53.3 57.054
6049 1 50.8814 49.7886 56.1746
3903 1 54.4215 50.5024 46.8847
5930 1 48.1408 58.9076 52.2295
5152 1 48.645 51.1225 58.9855
5518 1 59.8486 48.5514 52.3172
5722 1 51.18 48.206 48.9861
2213 1 54.9795 55.6415 51.5151
2760 1 49.8421 53.6604 51.0278
3005 1 47.1993 48.4878 47.618
2718 1 50.6972 52.219 54.4314
6261 1 52.9666 50.1195 54.092
1560 1 53.1885 55.0645 59.9516
4884 1 59.5692 58.615 60.5928
7785 1 58.8387 55.2122 60.2051
7132 1 48.7266 54.6108 59.6853
4193 1 51.3527 51.5701 58.2777
2043 1 54.6273 55.8557 54.3389
1211 1 59.3481 60.7509 47.6533
3094 1 56.4294 55.5654 49.0335
2838 1 53.0571 48.2539 57.3388
5745 1 49.279 54.4868 53.6548
6770 1 52.675 47.3677 54.4445
4264 1 50.2767 56.3373 57.6708
5419 1 51.1281 51.1493 48.8946
6337 1 55.3334 46.8202 54.9083
6137 1 54.433 57.325 47.8854
486 1 55.4816 49.1266 53.2904
1771 1 60.6663 60.4541 58.8709
3036 1 48.4048 51.3016 49.8248
722 1 48.5372 56.1898 51.3494
1779 1 55.8769 52.8108 52.2548
6650 1 58.6277 48.2747 58.6789
5084 1 53.0484 53.3761 53.3728
3642 1 58.6884 51.2597 60.4249
3059 1 59.8146 55.5854 55.7723
4937 1 60.0165 53.7384 53.2305
6688 1 58.2948 59.6548 57.5529
6080 1 59.0616 52.388 50.7419
7061 1 57.6957 50.3085 52.1302
2846 1 58.9539 57.6468 52.1753
5764 1 59.6034 58.4088 49.4344
5285 1 56.5083 52.6355 49.3722
5994 1 51.6978 58.6374 54.1782
5938 1 51.1917 58.5842 49.1149
3760 1 51.7795 47.3656 51.5851
1429 1 58.6317 50.9146 57.6603
5251 1 57.3535 54.3087 56.3014
1386 1 54.3251 58.8345 53.9712
4323 1 53.9302 52.9857 57.9868
3503 1 54.2431 50.7641 51.2536
7046 1 51.665 55.7442 54.3292
2918 1 49.5974 48.3476 58.1596
5699 1 48.0028 55.8618 55.7808
7237 1 59.9406 53.6253 57.8903
6570 1 48.1068 58.0248 60.3158
7265 1 50.928 53.0406 60.7717
399 1 59.4673 55.508 49.2332
292 1 60.1654 52.9199 48.1438
5603 1 60.6039 51.9538 55.5787
5175 1 50.9506 53.486 46.955
973 1 53.3878 57.7889 60.6331
7876 1 60.716 50.0438 50.1492
788 1 49.7613 49.7616 46.8185
841 1 46.6837 56.2669 58.5593
3445 1 50.686 48.342 60.8314
