# LAMMPS data file written by OVITO Basic 3.7.6
8000 atoms
1 atom types
3.1416537263 61.8583462737 xlo xhi
3.1416537263 61.8583462737 ylo yhi
3.1416537263 61.8583462737 zlo zhi

Masses

1 18.0153

Atoms  # atomic

1 1 29.5356877767 48.8691569817 45.7901123412
2 1 31.3146274108 50.5937836752 40.9735820516
3 1 31.1681879796 9.7877961557 55.7489918475
4 1 60.3685276337 20.6020017223 53.4275099743
5 1 26.7774711443 52.7756372536 24.5083645608
6 1 18.8238841219 40.9804519046 6.7586372172
7 1 25.4861736418 17.3723487655 33.7861891502
8 1 21.9621151885 28.6941014224 4.8152967156
9 1 32.2340133827 53.3164767087 5.7602420638
10 1 23.5494035381 27.1565461114 24.958839026
11 1 46.3469227367 56.1813815714 6.393660128
12 1 35.272426072 29.8408384279 22.5627282366
13 1 32.6173159517 48.1713090908 43.6467769132
14 1 27.2172591715 15.6715023324 45.4831414726
15 1 21.1224077684 3.8450151146 61.059623105
16 1 40.8259682865 28.3251257265 5.0799445923
17 1 4.2714392226 17.7183662346 43.4825463241
18 1 29.0187460155 3.0909524494 54.4930417939
19 1 54.3174788832 37.3099540201 56.0190299165
20 1 33.9321001312 28.0667722793 49.042899675
21 1 4.6396339865 26.4035632462 15.1561459219
22 1 56.7649667787 24.9607766769 15.9723079484
23 1 48.3089410181 32.0404831641 38.1795482367
24 1 60.0516923607 34.8848959012 41.4077332763
25 1 59.4776192577 4.1805692692 4.9327653308
26 1 52.5623195096 47.8081463474 9.0883041974
27 1 37.0661035959 37.7655368376 26.31384414
28 1 42.9484592887 56.5338578768 41.5171224745
29 1 28.0904938231 56.6110703275 60.548553013
30 1 23.3016778123 18.6845494105 18.5368182121
31 1 41.799491049 18.5231372227 45.9009694568
32 1 33.2385972755 50.6921928519 47.4749291172
33 1 31.052574812 17.5030521231 25.244554452
34 1 41.4787217576 55.7104149805 12.6543450859
35 1 40.3777837723 12.3149038863 36.8972931049
36 1 38.6029543067 17.826581099 22.5168704997
37 1 48.0569289737 20.4234442603 10.6287953431
38 1 14.2467417878 53.8458664087 42.5187705327
39 1 24.5245116513 4.4141618872 8.1633401397
40 1 12.1313555054 19.2560389791 45.3563134167
41 1 49.1613899605 52.1474860767 6.9352922584
42 1 8.9491104061 22.1559977073 19.8151393255
43 1 35.8761511048 29.8178802011 26.9426999171
44 1 56.2627041906 25.89789509 24.7028342465
45 1 34.3001950768 46.1619064385 18.6379870733
46 1 13.7838781004 34.1999069659 46.0175808082
47 1 35.9087388691 61.0080698489 40.7000796977
48 1 22.94098117 23.4767709895 54.7624339793
49 1 58.2539046683 48.6364627292 25.457108879
50 1 47.3797493586 19.3890910044 24.1541854714
51 1 13.4053315836 39.1938791005 21.7853192272
52 1 37.2670908345 25.9958345331 44.574970389
53 1 20.6492099431 14.7203506299 17.2986005996
54 1 11.105105153 26.8197471629 6.2738311019
55 1 53.8335946199 46.3899620723 35.6722867482
56 1 19.3678942784 61.0360777113 44.2948917655
57 1 11.7437079012 40.6271535655 47.4694097481
58 1 16.6890626143 47.17876212 46.2704148863
59 1 55.1781481626 41.4293997358 53.5227484496
60 1 15.229659221 57.8878648069 33.6832587882
61 1 60.6989851793 44.5652821347 55.2373933054
62 1 14.1967738824 8.8238089842 11.7454106853
63 1 56.9215641977 6.985665309 28.4827213293
64 1 61.6538947502 39.1090334797 25.1937645129
65 1 13.0669472844 32.4311253196 13.148387337
66 1 39.0015819324 21.7506763786 9.968408702
67 1 36.2542866048 27.0549662333 53.746870065
68 1 23.5812867022 38.5844585485 23.6236801542
69 1 16.4750989866 53.4659694079 47.5581306705
70 1 59.3140932689 7.9587007228 41.1913622642
71 1 35.1913970363 53.5505214452 22.4595042911
72 1 55.4246408379 12.8068323364 45.0156391665
73 1 8.8389755058 5.6568184816 26.6004403163
74 1 49.167026763 15.1084679676 28.6016813484
75 1 44.9053692179 23.7599615976 15.8582801314
76 1 43.0245561223 22.9295314149 9.0820215113
77 1 42.009168358 8.2011830481 19.6176163718
78 1 28.7743084245 7.2322460593 56.966188884
79 1 54.4301562162 52.6240894701 5.4100674528
80 1 30.3344109455 55.7064222454 25.8442867497
81 1 56.8137603502 5.0122912191 16.8232889734
82 1 38.1579992105 24.8835642262 56.6441278254
83 1 55.7412999608 28.4022207438 45.4224284125
84 1 21.2070185223 21.9574178531 10.8663630811
85 1 21.2794162043 12.3911768699 37.9744508296
86 1 33.1609150913 39.357639956 13.6801257047
87 1 27.5761355963 54.4926894938 48.481802961
88 1 44.5430872249 17.2555025473 5.4153989285
89 1 21.7058755422 17.452262184 51.2283349716
90 1 27.5351513449 12.9075901808 15.2469806453
91 1 30.5993406622 10.3463680519 3.1295353643
92 1 53.8342405035 47.6357541381 27.8780568294
93 1 49.9569424279 46.6931163559 12.0177387053
94 1 42.3200145284 51.0005729212 6.803485027
95 1 56.5740788112 26.7534560171 53.4992617726
96 1 44.6193602085 12.1141515144 54.0352277421
97 1 39.1653427879 59.0095297847 46.0573907257
98 1 18.1393649202 57.0188577572 55.95132957
99 1 11.5203496027 19.5034711215 42.5350350565
100 1 39.4851726122 29.8930962843 15.9474707874
101 1 8.053639743 55.501383555 16.3006516931
102 1 35.6220252594 53.8653603506 51.2841158295
103 1 22.2290999895 18.5668224419 43.3884821827
104 1 53.4950928874 53.1968708059 51.2919251496
105 1 35.1180011706 34.030685458 17.4081072312
106 1 7.5984973007 7.5608129275 50.8930039405
107 1 60.0166384952 38.1551808093 14.6065576797
108 1 9.1354537015 4.5549292859 5.1407281124
109 1 62.0045508381 13.304984756 54.61276513
110 1 28.5833030236 39.7690678207 13.8595639171
111 1 37.9354629458 46.188916117 9.5156442858
112 1 6.3291187396 28.3843708693 24.7287870246
113 1 34.0474197154 43.1641257004 60.8230535507
114 1 46.5500237762 39.2400304208 43.6039137276
115 1 59.8219339428 9.257584422 13.1870229207
116 1 17.8338619689 23.0311700097 58.5591140361
117 1 55.5345584863 45.7380893516 26.6812344852
118 1 52.6660719053 10.0068094189 46.3996503266
119 1 48.1401892438 49.2369583439 59.6656888239
120 1 25.1294110179 11.7583283576 55.9897890037
121 1 53.6821642698 39.769185254 35.1245187235
122 1 48.4451050282 32.1276774525 53.8680026018
123 1 54.4656210985 53.1044507319 39.2831284731
124 1 56.9903214447 29.7671489788 39.3011544978
125 1 34.9104963791 31.5883059148 11.8721800245
126 1 60.8757811406 9.659969916 36.9102107772
127 1 12.6530533186 59.9226330705 61.2300776634
128 1 33.6674052812 43.7053174557 49.648679792
129 1 4.1825186634 36.9500206948 55.9563204889
130 1 46.5278875831 7.2826249815 60.4764489146
131 1 43.9282060206 45.1775798046 5.4232845803
132 1 19.0347357649 31.9866986737 9.6428246418
133 1 35.5103461102 54.0907737333 15.3341162171
134 1 6.2125778482 11.6606237812 26.8962550133
135 1 8.4895289818 15.1038880656 36.0372109924
136 1 13.2599490528 5.7017132647 20.3421803578
137 1 14.8769480489 56.5314504924 7.20351011
138 1 48.2739458694 3.5211056545 5.9780751215
139 1 7.1159048047 10.1480230645 5.7211484899
140 1 16.1526856279 25.4270459324 5.8826135228
141 1 8.5839454234 8.4541228162 26.4237617884
142 1 17.2977198492 53.1456111334 15.333940067
143 1 47.1580938442 3.9557313101 55.1602395713
144 1 21.2016753033 47.2695968434 4.1467014809
145 1 47.4642426792 3.4284636314 38.7752877993
146 1 57.3198982399 23.5480530542 3.4933297231
147 1 42.3437360722 16.7027436036 8.6182124852
148 1 9.7863869551 57.7703139885 46.1219790875
149 1 16.4247787811 31.5890105151 55.5589259137
150 1 15.5420320254 40.04744366 27.6433074926
151 1 43.8699003449 3.3658005899 51.7256066408
152 1 30.44297811 14.5666303288 43.1849114096
153 1 7.423592017 43.5891171211 27.4742621348
154 1 25.9475106952 10.1823723296 42.3450278394
155 1 27.3133196805 23.156588865 14.5378004327
156 1 3.3856867593 60.8234645675 56.1582471946
157 1 56.479192636 33.4901395864 27.5016241135
158 1 34.1118319271 57.012986088 17.1494602005
159 1 3.3260088745 55.5619204651 36.7651805466
160 1 42.9935537086 26.5547587295 27.1669976827
161 1 12.8137609062 52.4468237753 12.6761876955
162 1 50.9113235485 41.4237629333 18.0785344267
163 1 26.1857830335 52.0451428816 34.9161331816
164 1 9.8065854973 61.2730582824 18.1121203749
165 1 14.6232919371 56.4223548777 15.7049708472
166 1 31.2576135024 45.553542787 43.7447163564
167 1 50.6753998779 16.0518103501 14.0680081757
168 1 31.1665439122 20.7285949115 15.7543515856
169 1 5.8785150976 27.4586434946 34.1806478908
170 1 58.9309081334 25.668899989 49.9931706272
171 1 40.8265554534 6.1187779318 36.4279705813
172 1 38.5381310781 50.5537388909 27.40298007
173 1 36.6809220928 5.9259229552 25.0329982087
174 1 45.282917551 57.2988189473 14.6741405928
175 1 58.2665874739 28.9183404713 23.1216524329
176 1 23.4866941105 27.4152518588 10.3318063122
177 1 42.2022288431 60.0875095432 55.0752765172
178 1 21.8424505691 50.792833263 50.1845283282
179 1 11.7327278797 12.504030353 16.2372376651
180 1 53.7115813328 4.2657730618 6.7520668193
181 1 22.4929728058 49.4500999378 22.3950920793
182 1 43.7808271223 59.2127482576 40.9597836288
183 1 18.5801511312 31.0976692319 20.5874986993
184 1 10.9283091918 41.7890394777 3.78917554
185 1 25.8199780389 18.8463726152 24.1917641546
186 1 32.7285253674 41.2606479614 25.3000417264
187 1 9.9002386219 35.2121240288 6.5547611174
188 1 57.3968171072 45.9768901402 42.1879019702
189 1 25.5230477247 51.5768772586 20.9086790075
190 1 54.7531567419 30.9350827102 44.812538127
191 1 3.6708919372 6.1653461407 60.2167449835
192 1 56.0492102965 43.29177579 44.1545001536
193 1 59.9433600629 54.7195707938 35.2579230489
194 1 15.4070423492 45.6134925301 18.6220161329
195 1 57.6644477918 29.6514183777 49.3883299772
196 1 17.9093129188 36.5236787902 35.1760719795
197 1 60.7591110725 38.7907890061 46.5642919325
198 1 14.7584577633 28.8573925444 23.6192764023
199 1 49.2509329167 17.2906738461 57.3207789903
200 1 44.8491773432 22.2918681338 33.2634344365
201 1 60.6833665391 19.5489178415 19.5429287389
202 1 43.8811152331 38.4074864372 39.8455756711
203 1 36.5515105024 36.0124912649 54.3232918358
204 1 59.5624061617 35.0133093078 23.8389942658
205 1 17.9549357889 7.1890423169 6.4464405629
206 1 37.3850526699 27.3211290006 17.0844021052
207 1 11.3255863335 46.4703452244 40.6926813944
208 1 51.1418452835 32.7800786234 9.114550559
209 1 22.7594291566 38.6150499453 54.9607789668
210 1 40.2463170977 55.991433071 10.1169032174
211 1 48.8843058884 48.1969682855 49.0618651667
212 1 5.1834327629 5.789477105 30.6959296215
213 1 21.0697388952 44.9014351995 9.0882454807
214 1 8.0898092256 60.1358920978 53.7128143834
215 1 24.6192216763 33.2544507825 30.6456681326
216 1 10.3116664866 17.1668990582 45.5518400029
217 1 56.4081454381 17.8911694608 14.6275782556
218 1 11.7389518491 34.4646018159 16.8545849706
219 1 40.8062981945 25.563092509 45.9540493468
220 1 6.6121742993 41.4699729704 42.8956729821
221 1 50.0928128544 25.840587598 27.84147633
222 1 27.9718273874 28.980462732 56.514540085
223 1 50.1421348762 53.5600335494 38.5006111116
224 1 4.1718322254 32.4700544868 14.1128677288
225 1 34.8011071809 27.4469588727 21.1334465066
226 1 49.0931024471 21.4125269463 23.5225112929
227 1 36.1993277805 22.8826167776 10.2294631171
228 1 46.2335408034 32.5603607599 59.060261007
229 1 41.3587635547 54.0766230104 31.4906600551
230 1 33.3906147925 21.7749850894 6.4954396429
231 1 59.3556059705 48.937855512 9.3155377976
232 1 16.9211109832 8.2578622714 13.0261978998
233 1 59.6511270841 29.561992855 11.8480474638
234 1 19.9251744073 48.338181931 13.4361578472
235 1 5.9327575782 13.9536280586 58.0594349826
236 1 3.4151044095 38.8753410434 12.8845145207
237 1 52.1430236081 19.4174511669 55.0583073931
238 1 52.7187407785 56.6552252803 61.3894934837
239 1 36.5530958531 5.1417497829 37.9156754204
240 1 55.7185178841 13.5117262305 20.946786141
241 1 37.3500575211 3.6553977764 32.7029836061
242 1 5.4759828119 4.5534672402 37.5970199299
243 1 36.2183519889 9.4750123345 42.7468261665
244 1 22.6262009812 33.2155803321 32.7667499342
245 1 27.7547517751 14.9450594122 8.9858553122
246 1 6.784648712 15.0647827483 13.1689381794
247 1 19.3045976838 16.1176317624 38.1059762209
248 1 35.1367905122 52.8439834837 47.7626996274
249 1 11.4153641564 40.2263534222 31.3287781337
250 1 3.3165942401 15.7600471048 8.4587320766
251 1 22.9594182114 5.179187546 47.7584133088
252 1 6.5920462171 6.8983359721 20.4291397795
253 1 15.9955597586 40.2157257009 23.6835711806
254 1 61.6458505634 60.2520337157 9.4387254185
255 1 24.0736848859 32.2471072052 34.9174836655
256 1 17.064379713 59.3376973793 37.164454056
257 1 28.6728459797 56.0353531571 28.2211971807
258 1 55.8827484731 60.4397509817 44.9499939043
259 1 41.6640316392 27.5360320953 54.8993613064
260 1 44.1717628613 26.3059761032 54.3416701605
261 1 17.5182597464 4.4399209002 53.1623453907
262 1 21.661427006 10.1075672633 3.6484650965
263 1 24.7704758764 19.9501877184 60.3607183136
264 1 14.0636631404 35.5486881104 6.9510576904
265 1 16.8218210561 13.0516809444 20.6134514774
266 1 30.4042838096 15.9080718867 18.2691288107
267 1 10.0532543227 7.2914324854 17.9214672742
268 1 48.2415929718 52.9652921705 20.2981428384
269 1 48.4793368599 20.1140660073 57.8898024578
270 1 50.1753098075 25.362575004 36.4649620976
271 1 34.2775891502 17.0526950912 60.2426977616
272 1 37.0545951242 24.4145352861 35.0077899387
273 1 7.0468070009 34.6654716211 59.3488535509
274 1 22.7032372818 42.8446481763 44.7810072631
275 1 35.4860961162 36.8746871782 30.6615803563
276 1 16.8983289065 5.6474531691 33.8247660172
277 1 24.8910799628 3.8092860072 37.7686488223
278 1 30.6970452386 31.231132274 59.5438516869
279 1 56.4741430005 26.6380777162 6.2487062291
280 1 50.7509682612 32.5611827936 58.7015020156
281 1 37.7963631011 32.4094001434 36.9993427165
282 1 58.7197041903 13.9041886034 57.9248563232
283 1 39.3777797815 49.0522943458 39.6023711305
284 1 14.7332095855 27.7262154625 29.9471743581
285 1 18.6631178177 19.249169126 58.003595408
286 1 48.2469949075 21.7123930951 28.534333302
287 1 29.1833876214 29.5724444263 23.3925125356
288 1 4.6150727941 39.0458543186 6.6626530399
289 1 48.5697018497 44.8474745591 44.4957615707
290 1 11.9042393386 7.04476366 44.9366064984
291 1 41.2819621208 18.799810278 32.2726489664
292 1 26.2965227157 46.7465485461 12.7103020939
293 1 25.4248734148 24.8035920909 12.9494551826
294 1 39.9146852182 50.1629205853 57.2082190907
295 1 32.2658378301 38.2585809049 37.1587585368
296 1 56.8441755969 46.0465868543 19.2531618611
297 1 54.5729552125 31.1109392044 36.2658537932
298 1 52.3401942617 53.8890231777 29.2249003231
299 1 13.8707788054 20.9086790075 23.9829675959
300 1 46.8336841179 48.5583695281 40.6861051249
301 1 32.1777627913 36.7807991868 46.4098083144
302 1 40.5718424412 7.8114392579 49.4014825164
303 1 53.7570280528 34.2819341854 30.3233722073
304 1 56.649940778 7.6814992173 25.9704689219
305 1 5.0663810363 38.1446705213 44.0092350563
306 1 40.453469589 6.1062184313 11.9001291701
307 1 33.6334083162 58.9827549729 47.1327869497
308 1 34.9009842749 18.4000083184 56.331578871
309 1 16.7168356099 31.1142860559 58.3459137255
310 1 48.0746026982 54.0678155065 31.1838066198
311 1 41.5396109677 4.8418895057 22.5805193944
312 1 46.8477174074 51.5380068081 50.4899725628
313 1 56.5852349828 23.84850637 54.2599365245
314 1 50.1635077523 15.1487476187 31.3275450832
315 1 53.3384954684 14.0437581816 61.0836382322
316 1 58.7347943802 44.4305273253 6.786034426
317 1 25.2040986508 53.0688684162 44.2984147671
318 1 29.5599377708 54.9294829696 33.2046003106
319 1 30.5411524199 40.4271645107 59.0961369062
320 1 58.5089699807 52.3746609602 26.2831353098
321 1 21.172316957 7.5615292711 47.7326366808
322 1 23.2668000969 36.3309706052 36.3555728994
323 1 24.899065433 26.3841280209 15.3462118557
324 1 33.8349827217 28.3632328599 39.7603190335
325 1 8.3359319858 51.9561870924 23.9365814088
326 1 11.3862993936 45.0604987196 51.5080612949
327 1 37.3569273741 39.4290394541 55.5289216838
328 1 52.2094321874 54.4587512455 13.0462202919
329 1 13.4976929409 59.4263008684 42.1044068334
330 1 15.5798455754 33.3223859958 5.5457323709
331 1 26.0818544877 41.9253796378 39.2664529325
332 1 34.0154191179 38.1487806898 40.5092504469
333 1 9.4238113786 56.4236466449 22.7579612393
334 1 21.8068682534 60.4144440873 48.1743036421
335 1 31.9136551082 37.5245635313 20.910499225
336 1 33.6989948618 33.3331898672 28.3355185811
337 1 21.6853834165 19.6726339127 53.2623399181
338 1 3.9068085619 11.8612587196 36.6205026162
339 1 41.4692683701 49.4506871047 19.3309027621
340 1 11.4827709195 16.3534967164 10.7218025841
341 1 29.3091587769 38.3559331811 20.0717312719
342 1 30.5334605332 7.5495451942 3.8529007664
343 1 12.7384861063 17.927808677 36.9449123425
344 1 29.4166690409 18.9427854243 30.9420112799
345 1 37.9428612491 41.7703088528 16.085631165
346 1 20.8450301128 52.4434182072 27.4638105635
347 1 47.7106766378 42.037058787 60.001607022
348 1 40.7832225343 14.4874215105 28.5716771185
349 1 31.6285268492 5.4627069677 34.3542144339
350 1 15.0489292414 36.1661528493 11.4835929532
351 1 53.0545415432 5.3014180849 14.1153925465
352 1 6.9939854643 33.1845779184 16.7490123574
353 1 57.4727965073 8.7470956253 32.5569551918
354 1 36.8891314846 45.3199090673 43.8463549512
355 1 23.9626516203 41.6007937614 20.4172790076
356 1 28.8402472702 59.5278220298 25.5252202424
357 1 25.5568685396 7.6495808233 45.1003673539
358 1 29.5036871793 19.8087979227 12.9889715167
359 1 44.3062240872 40.10780442 14.8286829276
360 1 56.5714952767 15.2001247247 59.1328935557
361 1 61.2489257217 16.7772550865 40.1290598627
362 1 6.6849418964 29.7148911224 50.1336209557
363 1 56.9035381731 22.3960902631 23.2376179007
364 1 54.4745460358 27.613068396 55.2221269653
365 1 38.1695076823 14.5844802033 50.0712051116
366 1 12.6110708835 33.657893177 38.6438798414
367 1 54.9037063416 30.4276530532 48.8537144916
368 1 21.6791007304 50.8413919677 40.50866328
369 1 12.5650369965 19.882076355 19.6037592323
370 1 13.4979865244 55.989730287 18.3890282969
371 1 34.7855472574 22.4534564717 16.5590051403
372 1 25.7424132881 21.0574083897 28.19706462
373 1 34.7224268129 16.3037049611 42.3046307549
374 1 40.2291718235 47.1996652625 27.4905266586
375 1 54.6048970932 58.1121038558 53.5873955281
376 1 14.7019723051 25.1080968585 31.0380130722
377 1 54.7245617126 44.7849412815 42.1158565884
378 1 36.9285303853 45.4504362749 22.8877838465
379 1 4.8619295129 46.3710552973 16.2038278671
380 1 2.9554020289 40.4585192246 37.4849884806
381 1 35.7001184605 42.001535188 33.4223805232
382 1 48.0017352827 23.9459760796 44.9520489885
383 1 27.1756877532 10.7035416927 54.2418517832
384 1 42.1189685731 20.0239946009 20.9063303398
385 1 54.029532223 4.0713327344 48.0857001531
386 1 34.8463190342 45.2869690028 58.8744226751
387 1 3.2273125732 34.5155091884 43.7687314836
388 1 55.9193876893 32.2350702832 24.8167446301
389 1 35.882786091 52.4498183267 56.3766145742
390 1 46.9160636375 36.1673271831 41.1559560986
391 1 50.3373091622 9.2822454329 22.8175586822
392 1 40.8623726359 58.922570363 18.1910356096
393 1 46.74772288 40.8001916585 9.4574560434
394 1 36.3041370767 47.8742613432 19.7891278307
395 1 32.7578837137 18.187336458 13.0973625312
396 1 20.1285690303 7.9401932213 61.7298154337
397 1 12.9386513112 30.7631015177 10.6956149392
398 1 38.4626801282 7.0273541607 22.9370471516
399 1 36.9503142782 49.1353197491 30.8955076594
400 1 22.8386966915 19.9379746463 35.5554992468
401 1 34.281816752 42.6876397404 13.490235921
402 1 10.7856863456 23.3135385842 13.4740888305
403 1 4.0488618562 7.7906594204 27.7549866418
404 1 57.0859709368 4.6393638898 13.8430058098
405 1 28.0023600675 42.0367652035 12.2573615276
406 1 46.4865510315 23.6548000013 52.0100302995
407 1 36.7057592538 13.0702354192 16.018400552
408 1 4.7161829386 31.2215614532 7.1060345287
409 1 9.1770838365 27.8070096314 37.0067997365
410 1 54.6851628119 38.6728271708 21.4456431609
411 1 43.7625662309 5.237258355 5.1940839709
412 1 47.3552644978 48.8038640196 19.6186145555
413 1 25.5650888766 29.1793948864 49.71972699
414 1 34.8181350218 46.1270287231 48.6087484503
415 1 58.4938797907 48.7067466102 55.7760015261
416 1 39.3450158671 54.7218020281 61.7125527261
417 1 61.1094148602 20.1797112695 13.3630555649
418 1 9.4961503438 61.0080111322 6.7579267452
419 1 57.1924243004 38.5189307196 29.9201059628
420 1 55.5748381374 23.6326050915 9.0590632845
421 1 61.6848971639 31.7312223445 44.4388650957
422 1 47.8303999739 12.5449558877 10.255826912
423 1 26.4253471391 19.5454535566 7.5379545191
424 1 30.0876834034 27.5170078869 52.1460181594
425 1 17.7164873005 36.169440984 19.3951975404
426 1 55.9231455576 28.6218211739 36.9556574973
427 1 55.8094113241 53.2063829101 36.7340019829
428 1 26.2349289052 14.5003391829 17.3142192398
429 1 41.7762979554 39.6482875841 38.6973707483
430 1 11.0469756274 21.8141491233 17.9229939082
431 1 10.2015726881 27.7194630429 28.5865911584
432 1 39.1714493239 39.4570473165 42.4085005841
433 1 18.7552443083 40.9711159505 9.6708325042
434 1 24.3171242932 14.6088476307 23.9228417027
435 1 24.4970909559 42.1502058535 54.5896894699
436 1 5.6220053546 6.3517657679 24.9490333384
437 1 53.7681842244 4.1912674506 18.4948357769
438 1 54.5282130928 47.8249393215 45.3114538636
439 1 43.1377619055 40.8922594324 42.6707880497
440 1 21.8408065017 55.972350146 10.3232923918
441 1 52.1552953968 14.5055649685 41.3939935702
442 1 12.8077718035 18.4884356574 32.3478650496
443 1 22.4462343186 59.4206640659 56.7643796117
444 1 10.9307752928 37.7745792082 39.308552801
445 1 51.0341001527 33.1260373759 30.4005259413
446 1 29.3514935122 27.4834806555 28.3433279012
447 1 46.2898501115 59.7281046681 57.3393334652
448 1 19.8091502229 47.3001295235 29.9394237547
449 1 10.7375973744 51.5045382933 56.8330194253
450 1 50.2859907729 16.1744108041 8.1745080546
451 1 31.2259652051 6.0217427257 9.1468447399
452 1 9.8872622329 52.5980192587 39.6340194278
453 1 53.2312787878 36.2225208741 21.2715481675
454 1 55.6531074886 23.2553503419 11.7862187866
455 1 48.9650413407 24.4107774178 16.21052157
456 1 37.5439400399 26.3023943849 36.9878929615
457 1 22.1311018297 40.446599736 29.027259936
458 1 3.3847696046 56.7515206561 57.7628569685
459 1 15.3946531271 6.6209583165 18.7139664735
460 1 14.914174432 11.0941838482 18.0475907298
461 1 44.0337786338 33.6897176244 18.2604974569
462 1 22.1320412967 6.9309648382 7.1770288816
463 1 6.9890180321 61.1378337394 14.5969281421
464 1 18.232019861 61.2055340859 10.9780422303
465 1 55.4708508749 53.4528168688 7.9271933456
466 1 46.1687762915 45.5427389155 18.4473339726
467 1 23.7555578457 49.1599220432 48.9411436468
468 1 26.2156111133 61.3114002826 47.4030598855
469 1 44.5550067135 46.089039023 55.7973156855
470 1 12.033063762 14.7342077693 23.3918079353
471 1 51.2818845952 46.7961641514 36.8527858519
472 1 38.3959192487 21.8760952339 32.006133899
473 1 57.5827728725 44.3871944062 31.7427895329
474 1 28.6566988893 25.9729937397 10.8745247014
475 1 21.6116352507 52.8143902707 38.1059762209
476 1 53.6909717737 46.5520788604 61.4126278606
477 1 22.7775726146 25.4641548821 26.9441091178
478 1 58.9767658702 11.7148780051 54.6654340032
479 1 48.9471327494 61.2808676025 13.8068950439
480 1 18.2529817203 41.4723216381 44.5140224621
481 1 50.9870093652 33.2757062252 6.2203167083
482 1 54.7230937953 61.6864237979 14.0582612047
483 1 55.2571808307 36.7826194043 11.6278598668
484 1 41.7288548678 55.5666765172 6.9158276748
485 1 46.9285115764 48.0974434916 10.3009800486
486 1 6.0463743783 39.9913692186 17.9576367568
487 1 22.1361514652 32.926635488 3.2675528841
488 1 22.823136768 11.9393519207 54.2140787876
489 1 34.3146980999 44.7003892443 56.165997798
490 1 19.5161539271 59.4193722987 27.567034509
491 1 34.2316139799 18.7567122256 24.2818942777
492 1 53.7646612229 22.5180448335 47.2026010972
493 1 3.3519193766 24.8463378431 41.8448203356
494 1 17.3125164557 31.243169196 45.1574986957
495 1 25.7971959622 49.6572524291 61.22232706
496 1 53.7438755137 27.673018139 32.261845095
497 1 59.1867367628 42.1330605793 45.8423114809
498 1 6.7910605748 27.7595078272 38.4430687529
499 1 9.7767574175 16.7244687799 48.3758780476
500 1 51.505947494 22.7624237079 36.2861110521
501 1 41.5252840948 59.1637198193 34.7132670089
502 1 3.7900445471 13.1362329816 59.7387323894
503 1 29.3560146975 16.8221146396 50.958414336
504 1 43.7983834133 60.7807188154 7.7710128151
505 1 41.4899953625 21.0844180683 51.6792791704
506 1 46.6466714521 34.1591575813 50.0818915496
507 1 36.5886781688 9.5792344638 10.5360229689
508 1 48.1107721808 45.4374598858 24.9457452036
509 1 11.2537171019 52.4942668629 61.1394190901
510 1 21.1983871685 58.6406128054 44.7020920283
511 1 33.5975911338 19.0366734157 41.6837017312
512 1 31.9980897121 48.671634028 34.5913711551
513 1 3.67067997 21.5593186776 15.5839557438
514 1 59.1461048115 23.240612452 26.5230517155
515 1 23.2226451441 21.2391365532 26.6686103963
516 1 35.0929291429 26.1332903104 3.9112886455
517 1 12.0020613484 23.9509082818 40.2968134533
518 1 14.2739863331 19.6839662344 10.0036974342
519 1 15.0802252385 34.0185311026 51.7055255319
520 1 40.3681542347 10.3080260517 23.2525319406
521 1 21.265324198 47.6986397158 56.4057380537
522 1 48.4460444952 13.3756209371 47.6928267632
523 1 13.600623303 27.619938249 43.8714269789
524 1 55.158771654 25.6668449048 51.3413646048
525 1 6.0653692283 32.180874776 23.1104375447
526 1 19.5317725673 28.8673156655 11.5164155843
527 1 60.6502503245 32.7834254749 22.4165236721
528 1 13.1671179619 7.8285082005 51.1257569097
529 1 15.7858237328 38.0456741777 20.41528264
530 1 54.3407894102 35.2381942402 3.5949642078
531 1 8.0185036742 54.3239377194 34.0724917431
532 1 51.3181127945 11.2887122506 40.101110717
533 1 32.6920035846 17.2560897142 16.9604511672
534 1 56.3264705187 4.0599005944 57.6751929465
535 1 41.9681841066 23.8331225965 24.7496901672
536 1 33.621606261 23.5943805246 8.9306381346
537 1 7.7100414016 61.1243876168 48.1927994003
538 1 32.4426337914 55.4607516038 3.7396245232
539 1 28.0509187723 14.5318700468 25.1494334101
540 1 28.720347784 35.3420053527 47.1668426314
541 1 50.5983048606 56.2161418534 47.8817183632
542 1 50.5038297023 45.4102740572 34.4401169551
543 1 48.3385342312 45.1608455472 30.2542039434
544 1 55.5662067836 37.8469181734 8.8157413106
545 1 16.987049829 12.6233426722 5.3717724259
546 1 30.6107317006 26.7733609758 33.1455313179
547 1 46.0489942387 9.7262023452 50.8470287702
548 1 33.9201219259 5.46415727 20.97485272
549 1 44.3913045747 51.2069620955 15.6227674776
550 1 46.0824040367 4.4376955375 33.9228228938
551 1 28.1604841206 21.9526030843 34.9286398371
552 1 56.0912514484 35.5984798657 49.6480339084
553 1 34.2396581668 46.325667294 36.2659125099
554 1 54.1767349712 8.0564229142 52.2138359393
555 1 12.0829729507 25.7567401611 14.4220698317
556 1 52.3333244086 60.6061540884 48.8703313156
557 1 42.8381306234 54.7418831369 9.4244572622
558 1 3.4311387639 26.8841593747 52.3495302158
559 1 47.8685071073 55.6580396908 3.966793535
560 1 4.1753552269 46.2927272294 50.3220428221
561 1 54.5084842841 18.6191977317 46.2758755387
562 1 5.0553305548 50.3276209079 24.0166122607
563 1 6.3586003909 8.4056698015 14.2621255612
564 1 35.1546403867 25.7640797476 7.682321251
565 1 43.9333730895 55.1021100457 15.8600416322
566 1 38.9161491447 46.7685085892 30.9305615249
567 1 48.5486812738 12.789158612 51.7421647481
568 1 9.6352501885 44.8391955054 28.7020868926
569 1 61.3963633367 17.8105514419 17.3140430898
570 1 29.9170526948 41.2506661237 61.7948148124
571 1 33.7699833431 7.7499570092 37.702240243
572 1 49.9325750005 46.6354565638 41.2235977284
573 1 11.2319332089 36.182241223 55.5455385078
574 1 8.0432175301 18.3353025232 11.6817030738
575 1 49.065623035 9.261224857 34.3603796867
576 1 36.2127151865 51.4079493341 11.826439721
577 1 47.9411983727 19.4483361472 38.9528470776
578 1 16.7419076376 4.9008997817 38.896420336
579 1 15.9863999546 46.1889748337 28.5008647873
580 1 54.9203231656 42.7229871893 29.6131938109
581 1 13.6491820077 46.8278124486 43.7700232508
582 1 47.6361064382 57.0994170594 21.7577810984
583 1 10.3212373075 15.048224641 3.412995893
584 1 27.3874201465 16.7694457664 53.9839093528
585 1 14.7420758061 3.8457079716 47.1477597063
586 1 56.3742071898 51.2684384726 17.1213936215
587 1 49.1817646529 60.4631789421 29.9596222969
588 1 23.7210911471 25.8113466851 31.5772084599
589 1 20.1303305311 19.4380020093 49.3985466817
590 1 35.2130634958 34.5873197034 49.0527053626
591 1 58.5090874141 14.3555438191 48.386505769
592 1 30.9835239816 27.5459552164 12.0274856762
593 1 56.349135162 12.7113589943 29.516546135
594 1 9.8321859753 13.2976451694 5.6535362185
595 1 24.5529305305 26.2637000845 18.7743272334
596 1 4.8432047596 21.6618967395 54.7733552841
597 1 10.1104443813 29.1623670455 32.5576010754
598 1 7.5267044008 42.518887966 45.4915379596
599 1 17.0875728066 27.8785852797 24.8985956995
600 1 33.8920553469 28.2705192024 35.0805399208
601 1 42.2030508768 45.6258817522 15.9293860461
602 1 59.7636869838 15.0478136242 29.234647294
603 1 44.2553167147 18.9994470326 3.3581615482
604 1 22.980497504 14.1349452052 57.7643248858
605 1 11.129178997 17.3722313321 55.9674766605
606 1 60.4270681762 31.3847938584 58.1076413871
607 1 26.6897484056 5.8959363403 47.2026010972
608 1 3.4497449094 19.8520721251 28.4994555867
609 1 22.0663960345 27.0833263958 43.4560650958
610 1 16.6933489328 38.2294574254 32.9964496355
611 1 32.6774418449 54.4684982164 27.0007707261
612 1 16.0859247484 10.0755079492 54.3848269296
613 1 52.683510763 36.1453084234 58.0182745811
614 1 45.2887892203 30.308340734 8.8648108506
615 1 8.0258373891 40.5360839754 37.3618008596
616 1 22.7709376283 60.9598047276 45.4752734358
617 1 59.1847991119 18.0895731649 49.2902731007
618 1 38.168215915 30.9586868206 40.7221571741
619 1 6.4116333076 11.2472582657 31.6494299917
620 1 3.7362718 29.2284820413 12.5514734405
621 1 52.3502348161 48.3948435393 25.5016748486
622 1 37.3270405776 37.1739661601 61.1886823952
623 1 38.7586122586 47.7397414006 45.6811928766
624 1 26.6663204453 48.1287982054 32.6869539491
625 1 26.7422998455 35.2710755881 21.3295602597
626 1 60.0077722747 25.1379249383 57.9743544951
627 1 46.64173925 16.9595704168 38.2148956856
628 1 17.735863809 26.9351841805 41.1753326072
629 1 11.5850553979 5.3904619492 26.4605184379
630 1 55.6448284349 58.4951128413 56.0945395832
631 1 51.9543081583 38.6946110637 8.0112580343
632 1 27.1933027609 60.9877538733 51.6919032593
633 1 51.6737598013 38.007801911 36.234381646
634 1 7.6193358549 21.7272484183 36.9008748231
635 1 49.3674855514 60.2993593699 3.9943492788
636 1 19.2518113772 33.3041251044 61.7342191856
637 1 51.7311847266 18.1936191441 28.0163933571
638 1 60.4261287091 13.6240512633 5.0440099765
639 1 27.9677172189 10.4362633082 46.8232325466
640 1 29.5827785642 31.375516621 5.4645506718
641 1 36.5636061411 10.9235531397 38.6438798414
642 1 37.5569164289 47.7688061634 11.8007805263
643 1 47.5220199046 8.81070929 46.2242048492
644 1 34.4735854699 60.5435620942 18.9763126558
645 1 22.5394764263 56.9124043937 7.7462402425
646 1 16.1444652909 54.9188552483 53.0155536594
647 1 8.3450976615 33.4843853505 14.1613677168
648 1 55.0020568016 43.3085687641 51.460676924
649 1 31.3874361096 48.557430061 13.5377377253
650 1 16.7319257998 58.1446329035 46.849713775
651 1 55.3604634929 17.9123661868 25.8225028567
652 1 56.6353203215 44.8215804977 29.1139257742
653 1 40.1470858873 4.3649984005 29.6501853272
654 1 9.6940843144 29.625583033 14.7017374383
655 1 44.128840959 31.1755862829 12.327175675
656 1 48.0409580334 16.8000371632 23.6385941941
657 1 6.7814369089 45.5790258315 4.257335473
658 1 24.5045479758 22.4492875866 14.5269378446
659 1 58.2136250172 58.7980322581 31.169832047
660 1 47.5401046459 7.3388109846 6.0395162686
661 1 36.9268863179 23.1625779676 45.5157879537
662 1 59.5943480424 44.4831961985 33.9357405662
663 1 23.1630477012 25.4808891395 34.4978354639
664 1 54.2032749162 42.4898232032 46.0167587745
665 1 53.4978525719 32.9840604133 48.4112254966
666 1 52.458919414 51.4728899961 42.0997094979
667 1 3.4189344993 30.1536809658 61.8212960407
668 1 11.2666347742 48.8948748931 16.5899488373
669 1 26.3632835951 19.1053132293 10.3524158713
670 1 10.2812512399 6.9292796691 13.2146197662
671 1 28.0819211859 28.8065438887 44.5021616902
672 1 26.9870897367 27.2621187246 12.6716077935
673 1 6.9794237245 5.508042126 35.4883273505
674 1 39.552050925 22.182596369 24.9704649312
675 1 59.4492590952 6.1183727867 29.08186646
676 1 27.4274649308 46.0462932708 43.0380022449
677 1 25.4447196569 27.4738511179 44.2652398358
678 1 24.5195207324 21.4975487171 46.9044964491
679 1 16.5098592686 10.6654345592 33.2303769386
680 1 24.7485158333 60.7678598597 30.0940835229
681 1 50.781559658 5.6269904017 29.6544716458
682 1 16.3955965849 54.0956472188 29.8804721954
683 1 58.3056927911 60.7123725852 6.6989223409
684 1 56.5092555826 57.5811288051 32.9307456565
685 1 57.9183387704 47.6536627293 51.3718972849
686 1 25.7071245559 6.0743000372 11.7462327189
687 1 19.8101484066 9.5613258726 51.4811690497
688 1 7.0985833804 41.2753271346 25.4405507717
689 1 41.9344807251 33.2734749909 51.0264082659
690 1 26.9065891512 4.7930078592 23.189059196
691 1 60.8558761818 8.4421857126 22.8165604985
692 1 40.22124507 16.5445608339 36.9391581066
693 1 6.4626874718 12.8431779691 3.7689182811
694 1 5.7834880024 49.4915539227 53.2902303471
695 1 18.4664756144 37.4634394544 45.6294634704
696 1 7.2705939312 18.3916118314 14.3720432097
697 1 42.326766948 48.3840983846 21.9407423124
698 1 16.5120317863 43.2884876553 12.2098597233
699 1 52.5937916568 17.4437482636 10.9345918779
700 1 45.2381167146 24.2320438057 45.1359496696
701 1 42.611895207 39.688978252 10.3824788178
702 1 37.5007245542 54.226233143 58.2997036885
703 1 18.865690407 15.1492173522 13.5816578113
704 1 48.0545215893 19.5635970146 20.1790653859
705 1 26.5965062979 42.6309781321 27.9765834395
706 1 25.0174970019 39.8005399679 56.2796145981
707 1 43.4599403975 60.2635421874 28.6935729722
708 1 24.7799879805 11.7825783516 40.2409738787
709 1 29.7601616923 44.0911448424 60.8144809136
710 1 44.0129342079 59.4520774964 45.7551171925
711 1 20.9851281412 6.9805041117 58.2637103559
712 1 34.7803214718 26.1792067639 16.7176576436
713 1 9.6086515268 12.2432695214 49.3739443876
714 1 31.0232164657 27.0150975991 3.7647259092
715 1 8.8702597596 32.6272977894 55.554874462
716 1 5.4516212561 39.1380395259 3.9376876705
717 1 58.0849180271 16.6799028102 17.6344013643
718 1 33.7985196557 20.0677972535 27.9170447133
719 1 54.8634266905 35.1886373517 7.7869661405
720 1 16.534226696 21.7229620998 24.3895806918
721 1 8.9267628329 34.1016152226 25.9686487045
722 1 59.0749988969 24.0810244725 32.8665683116
723 1 49.491319056 20.4939042914 55.2041009407
724 1 34.4711193688 41.4487762444 27.6686731038
725 1 5.3033322491 29.6291060346 22.2208796526
726 1 45.8812406481 5.6284113457 25.085079915
727 1 38.8990625872 12.4567046988 17.8615762478
728 1 24.182897934 29.065073486 16.1277310335
729 1 22.5936132168 59.1217373841 4.5055133174
730 1 5.0984109921 11.2204834539 57.8240397621
731 1 17.5788553731 48.9004529789 11.8567375343
732 1 38.8226134535 9.5452962155 41.6120086496
733 1 6.0530798246 60.2397032102 30.2197372449
734 1 19.1549288345 3.5376514313 4.3543119625
735 1 24.8734649551 5.3223329708 14.3536061682
736 1 34.2044868679 37.0595860431 15.1345968958
737 1 36.343242394 20.697944798 37.0737954827
738 1 17.3217349765 47.2511598019 24.0604736301
739 1 13.0556149628 38.5392466953 46.3627762437
740 1 23.1421445586 42.3241246969 15.4947650879
741 1 21.8045195857 4.162783983 28.1091070146
742 1 47.8399120781 7.8966547938 49.6399310048
743 1 45.364475037 36.7004747514 43.4612321647
744 1 50.2444780713 54.3677990887 26.0247818625
745 1 28.8869270408 52.4280931504 21.5284336973
746 1 6.586562078 40.31959553 46.91406727
747 1 9.8282519569 9.3186497823 23.8492109703
748 1 43.40521644 60.3045851555 31.5603567691
749 1 28.4825451792 41.6603912043 9.4972072443
750 1 9.4815886041 10.1039268284 55.254068846
751 1 10.0318814466 19.6173227883 6.3867021999
752 1 19.7335818396 60.517433166 36.821254988
753 1 17.0550437589 37.368024829 23.0766754464
754 1 53.7710613424 38.537954928 24.2033900597
755 1 5.7745806801 20.961113014 25.3725568417
756 1 58.1812721196 44.6228832101 45.4086887065
757 1 52.5083588691 59.2129244077 31.1410608677
758 1 28.4910003829 9.1430281549 31.8070843112
759 1 22.9993455624 50.8416855512 43.0041814299
760 1 45.0056573288 32.4255472338 24.3558185936
761 1 39.9744588112 50.0005689304 48.9559402533
762 1 20.0427252258 19.5293064662 35.3010211013
763 1 28.1998830213 31.1498683715 9.0699258726
764 1 39.844049037 31.668865217 44.4306447587
765 1 22.9755653019 19.6122144361 24.5098324781
766 1 12.1088670121 46.6849547357 15.2630690191
767 1 33.6096867724 45.1338358686 15.1348317626
768 1 4.6993371195 54.6407142757 59.1831550445
769 1 59.3256017407 27.7259805957 61.4169141791
770 1 42.5621621684 20.8189011846 55.6451220184
771 1 22.7752826636 24.1989863078 12.0830316674
772 1 59.3206695385 6.4119679927 16.0314943744
773 1 49.8842511625 28.123727471 36.6149832471
774 1 47.2697729934 32.5519642729 56.3799027089
775 1 34.3784057113 27.9340138374 14.4475528763
776 1 46.799099986 22.6033014711 40.142740852
777 1 13.8674319539 30.6614042062 50.2320301325
778 1 38.1638708798 4.7638726363 51.6869710571
779 1 9.1178386938 20.8641717546 28.783174645
780 1 33.0712547018 38.206029465 28.2534326449
781 1 26.8081212578 4.3969696396 43.7541110272
782 1 3.5862712014 38.4704894483 18.2846300176
783 1 49.9370374691 38.8872018153 25.9948363493
784 1 61.4156224119 49.7093341354 57.8573321268
785 1 4.3754264851 37.0279964625 27.4486029401
786 1 15.1353014961 47.1579176941 51.4632604585
787 1 8.5906978431 8.7242548319 19.877496453
788 1 33.8612878 32.8024496833 24.3191206607
789 1 18.0864611802 20.2401307462 54.6741827904
790 1 6.0395867286 57.920511288 28.6135421203
791 1 4.0939269177 34.3178100846 52.8657673767
792 1 8.1592299712 8.7077906714 39.0773851825
793 1 22.35868773 16.9058446432 58.1903732069
794 1 27.6385514405 46.9504129027 24.9273081621
795 1 12.1981751015 38.2412007639 4.0756836413
796 1 35.4846869156 8.5781207275 6.2619938166
797 1 31.7209469233 49.1444795531 4.3912212754
798 1 22.7229660905 34.8439116498 60.1016602661
799 1 54.6446482941 46.4378748934 58.4949366912
800 1 6.1498977789 53.9157392728 23.5744168492
801 1 57.0714091971 6.7317919454 56.963135616
802 1 20.3073613591 27.0783941936 8.4250991551
803 1 3.9869451039 46.7163681662 55.5782437056
804 1 12.2433282381 61.2636636116 50.4553884309
805 1 38.3242848838 46.1036007628 47.8674502069
806 1 27.2013469478 37.6913776549 54.6095944286
807 1 34.1680825186 4.3689206756 43.1441033083
808 1 44.7090205981 48.6313543769 25.770127567
809 1 45.6877691461 48.2841625739 36.8097465163
810 1 22.1951617412 47.1679582486 52.3464769478
811 1 10.4103692468 47.8894689666 30.4979369342
812 1 50.69542227 17.1208064546 54.620985467
813 1 9.8044716964 10.4757209256 52.4411282562
814 1 40.0856682269 32.892638523 38.4255124618
815 1 27.1778602708 32.9359127255 23.0005786129
816 1 9.8548506186 44.0435256047 6.3379027568
817 1 19.0091940036 25.8562649549 15.2139818641
818 1 40.165288062 10.157476452 18.9223520153
819 1 31.5975831522 28.1219659703 8.2503935081
820 1 54.5888674362 14.2209064431 51.3765946203
821 1 41.0704058776 4.4134983885 61.2283161627
822 1 40.5615083033 46.7767289261 9.4748949011
823 1 49.0551714637 39.785038761 32.4461567929
824 1 21.0963375569 9.3902841472 28.0276082453
825 1 21.7109251778 57.5366215521 58.9667253158
826 1 56.5648602905 13.1696427797 9.0658744209
827 1 11.7316709792 22.0299916851 44.9011416161
828 1 36.7996472452 45.6584107999 37.121473437
829 1 13.6862909574 22.5219201352 20.3664890685
830 1 28.6379095477 10.3851797857 11.4615154768
831 1 31.353556578 53.0366916687 16.861572257
832 1 52.6771106435 15.5501936456 22.8456252613
833 1 4.6618641263 58.0154561798 20.4811627691
834 1 15.4010532466 33.2376578085 19.1412478451
835 1 26.7839886972 30.958804254 59.1836834948
836 1 59.942009579 10.2104976254 39.5454746554
837 1 25.4943939788 28.3525464219 58.9879220418
838 1 19.4904360157 52.3081349475 34.5637743096
839 1 3.2534409142 8.2173947269 44.347501922
840 1 27.0957743346 54.6201047166 34.5051750505
841 1 31.9080770224 55.1021687624 45.9639724679
842 1 35.755781885 3.2901905178 21.1363236245
843 1 6.2859384839 51.6087017059 21.7704051873
844 1 6.2225068409 46.9757197972 29.0972502335
845 1 29.6249371494 38.1369786346 38.2372667455
846 1 34.9285224037 13.0746391711 11.6643816495
847 1 58.9713052178 7.3666133385 21.0130185702
848 1 45.996795099 55.392346657 36.662367618
849 1 17.1678385253 49.0126018616 34.4904958773
850 1 45.3544344825 32.0883372685 41.4126067618
851 1 4.3791138934 8.6781152549 20.9399750046
852 1 55.7539827664 32.9834145297 54.6854563954
853 1 53.5681951696 50.5124023394 17.7565320848
854 1 14.8064880178 26.7344905254 8.2696467116
855 1 10.6422414657 48.2410645216 4.4134103135
856 1 24.962479461 52.227458212 17.2637816009
857 1 28.3283551446 50.1360870568 56.2713355444
858 1 61.4588966143 52.4879254601 58.9198693952
859 1 17.1610861057 50.3277383413 43.8435365499
860 1 46.1652532899 27.5838274831 41.5147738068
861 1 35.014601075 6.1914633256 11.4796589348
862 1 44.2930128314 19.0858192874 17.380451669
863 1 29.372161788 7.2507124591 33.8276431352
864 1 22.0845982092 55.3747316492 45.662403535
865 1 38.916677595 8.4770164546 45.8545832697
866 1 5.5446050104 51.0404415554 32.851771705
867 1 27.0680600557 6.0871178912 30.7680924366
868 1 56.2876000683 58.0597872827 24.9631253446
869 1 31.2456940138 9.3416080091 23.7642479162
870 1 57.8856922893 32.6957027362 5.2463535706
871 1 32.5739243159 7.7992496726 20.4850967875
872 1 53.8546151959 37.5579146127 6.2064713122
873 1 24.7513929513 4.4520811272 21.2810602716
874 1 10.2849503915 25.8431124158 16.8185329213
875 1 45.5223642232 34.8643450588 35.4983679049
876 1 25.2172511899 9.5528706688 47.2219776057
877 1 22.8022923422 32.8096718365 5.9440311832
878 1 57.2010556542 52.810514969 4.5379131884
879 1 54.5487052185 36.9699256535 59.9484684152
880 1 19.3211557911 36.3668465044 55.1943539697
881 1 20.3889188451 47.2387118631 39.4188814663
882 1 57.2989950974 58.2486788826 41.9970727194
883 1 23.7355354535 29.7057313183 8.5988770783
884 1 49.8655792543 43.5454906185 14.9704250234
885 1 42.7284478417 22.7150980537 53.7023628121
886 1 32.9929266339 28.9110596014 46.3186212909
887 1 46.4022338611 23.2310416311 31.2354773093
888 1 25.2954031077 39.9841470655 60.4334682956
889 1 4.36376535 55.9122242528 8.7177842524
890 1 37.9975852065 4.8906067455 21.1656819708
891 1 30.151156148 45.1965452963 55.0012347679
892 1 34.9504237301 38.8783943114 61.570869347
893 1 58.0345978216 44.2367622399 36.2384918145
894 1 35.2745398729 39.7235036672 29.6531211618
895 1 42.5369727073 35.8129132269 52.2815950025
896 1 35.9096196195 5.4630886262 15.4840786498
897 1 40.3530640447 21.7413404245 57.0502711878
898 1 12.5695581818 8.5241483437 40.1644073116
899 1 13.287604615 61.2505697891 58.8080140959
900 1 16.9265716356 56.8364837102 13.8048986764
901 1 40.3470162254 11.3430251912 13.9266770967
902 1 9.1140221087 46.4589541861 52.8479762188
903 1 8.3005140768 30.7191814317 46.0364875832
904 1 61.1415916078 46.7432604114 40.1840186869
905 1 14.4898876116 6.3025553079 45.8630971901
906 1 18.2305519437 56.1357587013 60.5546595491
907 1 46.3698809635 35.7829677137 5.6983840282
908 1 16.662757536 12.8341943152 41.5578131424
909 1 20.6649460167 3.2930253597 30.8353817663
910 1 45.9596274326 27.0747537587 56.3156079306
911 1 21.3969670227 24.9386992005 51.3619154471
912 1 51.221582552 33.0973249133 19.9837149498
913 1 27.4257621467 24.7337779435 30.1415266104
914 1 50.9393314109 26.2179010643 46.2188616302
915 1 6.2535914579 12.5302179978 22.9158504255
916 1 4.3732246091 18.5176765703 25.7932619438
917 1 37.7337711069 4.6287948851 54.4666192823
918 1 26.5303913021 5.709322948 6.5898091111
919 1 20.0214697831 25.8355966792 57.0655375278
920 1 58.0065312426 59.1416423429 51.5967235006
921 1 36.3784136928 40.4713781802 26.0648853636
922 1 10.7146978643 8.5660955489 37.7562596001
923 1 10.7777008754 41.5494753721 19.5148621598
924 1 18.5297134923 54.4370847859 37.6559127726
925 1 58.6136618435 30.0626700923 18.9412000736
926 1 35.0487154734 18.4027092863 20.4927299575
927 1 41.5280437793 12.4921695811 59.3115684511
928 1 50.7667043348 12.448836662 20.1259854959
929 1 33.2732988408 59.6714430598 60.9942714262
930 1 6.9231907481 35.2199333489 12.6878136006
931 1 37.0558868914 12.0638900256 56.1305329157
932 1 39.3616914078 34.1744826381 51.763948641
933 1 28.6165953883 12.1114505466 37.3822929853
934 1 37.4216331693 17.3665945296 28.5271698655
935 1 19.2133519436 60.38279579 13.4344550631
936 1 52.3054926964 40.1177862577 58.6270492494
937 1 41.8852174201 5.4809678591 31.8370885411
938 1 21.6499772509 53.0679289491 19.7795570098
939 1 12.3329299109 25.0775054617 37.5674267169
940 1 41.274681251 27.2026974317 7.9153501887
941 1 54.0429196289 32.4247839168 28.377735883
942 1 29.3765655399 52.2292784295 39.5629722298
943 1 25.2993958428 34.2864553707 53.6465232375
944 1 55.8495735419 8.7997410119 30.2505635085
945 1 40.0203165481 52.3113643656 60.3588980961
946 1 57.6975052897 43.8157048376 52.2861161878
947 1 11.9909051768 35.0618680125 32.5199049588
948 1 23.2932813252 15.2013577752 43.8759481642
949 1 21.4790529589 37.7636579034 32.2152827578
950 1 27.4094389062 29.7985036926 6.8372529969
951 1 49.6651204659 31.2335983751 31.8310407218
952 1 53.1800191152 16.2671244616 16.6717999067
953 1 60.2891426654 5.0356487194 50.7231365489
954 1 25.8470464342 20.1615090948 53.6064784532
955 1 46.776552776 40.1094484874 22.7922517877
956 1 7.1692724065 41.0274252586 8.8318296844
957 1 46.7927585832 49.5801574118 6.4886989666
958 1 28.6396123318 52.894538556 53.3939240261
959 1 20.9090313077 40.8075899617 43.6476576636
960 1 20.7704011966 49.7374007144 30.6948140043
961 1 56.3473736613 16.5051032165 61.384091548
962 1 12.2217792119 42.8617347338 44.0302556322
963 1 10.0615920931 44.2278960193 32.2560321425
964 1 31.9679680488 36.5537417368 16.8272817085
965 1 57.9758811291 24.9613051271 22.779979999
966 1 23.7671837508 33.0437752897 21.3107709181
967 1 25.0417469959 59.3325890271 45.762280629
968 1 20.5102862486 58.2187920861 35.0788958534
969 1 27.6972094164 39.5358451179 3.5067511847
970 1 36.80311153 11.9851509409 4.9795860214
971 1 34.6931859 9.492686059 16.2937231234
972 1 15.5441458263 33.3642509976 12.011103719
973 1 22.8726936565 47.1115902237 19.4837423128
974 1 18.2177517048 30.799329717 6.2992671731
975 1 35.2384878237 32.4990605329 46.8359740689
976 1 13.6929846604 36.3277411872 17.8105514419
977 1 54.1251229984 4.085506944 55.8966643293
978 1 50.8946480079 23.6921438177 31.644615223
979 1 54.7060659545 16.560590491 56.247731434
980 1 46.7564129505 31.8040310432 13.6986801795
981 1 47.3375320566 3.6803441504 10.41013438
982 1 30.2896688257 35.8907128445 55.4215288532
983 1 33.7577115544 58.7932174893 50.5493938557
984 1 25.2076803691 16.990103097 36.6210310664
985 1 33.6090996055 31.1753514161 26.5753682886
986 1 13.6999719468 55.51265716 53.781630347
987 1 39.3357973464 17.4765708947 52.2472457374
988 1 43.6413162608 33.7982847889 58.6529433108
989 1 7.2090236074 57.5601082291 5.3624658302
990 1 35.8494350097 14.4179596632 8.2993279996
991 1 54.4007391532 36.6216182334 32.0854014339
992 1 48.6288882758 36.1975662798 48.9952217206
993 1 5.1147929493 10.6957910893 38.8603682868
994 1 61.0384850957 61.3333016089 28.863205497
995 1 12.1128597472 40.2583540197 55.6814676511
996 1 18.2017807644 59.8910434899 31.7726763294
997 1 50.820899842 44.4010515456 47.8097904148
998 1 23.4737177214 40.6376638535 11.7302030619
999 1 52.927008887 12.2126194079 18.2730628291
1000 1 38.2511826016 51.4459977509 42.7406609138
1001 1 53.421638305 52.2775435507 61.4344704702
1002 1 47.6602389989 35.8816704739 31.1393580836
1003 1 53.1955790387 50.6829156145 49.7723371465
1004 1 16.9029675252 56.2154959698 28.0927837741
1005 1 33.7861891502 15.3442154882 3.5813900828
1006 1 42.9110567556 31.3354718367 17.8180671786
1007 1 58.8139444818 29.8782409611 7.4139037627
1008 1 53.9870800542 34.7496713582 38.2056771649
1009 1 22.5963729014 3.3485731123 9.9315346191
1010 1 49.9886494418 35.2221058665 8.0880359815
1011 1 56.8461132478 15.5961688159 54.5067815
1012 1 32.2447585375 26.0247818625 45.9092485104
1013 1 41.846464403 20.4479878378 61.3048827297
1014 1 4.2768352866 29.8573378185 34.7368124026
1015 1 22.5835726624 53.5276806518 24.2102011961
1016 1 23.3218176378 19.9806029651 31.1600263594
1017 1 35.0465429558 53.0558333104 38.2813629816
1018 1 48.4904930315 59.5945241925 46.5915364778
1019 1 23.8854978863 44.7447790638 52.997292768
1020 1 53.2352128062 8.7025120407 9.7408228017
1021 1 16.5668731771 54.3714982404 25.844404183
1022 1 61.5354631814 58.135355666 41.3915861858
1023 1 44.8054334072 39.8195641763 51.9000539343
1024 1 58.4019881669 18.9023296232 22.8503813134
1025 1 38.5511074672 42.5966875837 48.4256110862
1026 1 52.6057111454 23.8810941343 17.3163330408
1027 1 10.4460102792 56.2086848335 42.3949957448
1028 1 15.1655993094 16.3014150101 15.9075434365
1029 1 31.513794432 58.839310093 54.5194643056
1030 1 40.6673744999 8.0904962109 32.1804050424
1031 1 10.9389369131 23.925660104 6.652177982
1032 1 43.5466062357 21.4973138503 18.9465432927
1033 1 24.1954045895 8.7391512568 52.486222676
1034 1 51.1994463589 55.0446851204 52.0632863396
1035 1 46.370350697 22.6035363379 55.9966588567
1036 1 53.9485619039 48.9303397754 31.7058567333
1037 1 52.8977679741 26.3660432796 20.0679146869
1038 1 60.5038108933 31.5155559327 32.4497385112
1039 1 6.0213140939 18.2421191322 28.2342322864
1040 1 39.9505024006 12.7665526853 50.5221493103
1041 1 34.433658119 44.8425423569 42.6578116606
1042 1 61.9616876526 3.187033568 24.6324916489
1043 1 32.8934018401 13.6274568315 27.6185877651
1044 1 57.8972007611 19.7718064064 6.0058422454
1045 1 23.7756976712 26.1692836429 47.8043297624
1046 1 55.9178610553 30.1462239458 55.5011486883
1047 1 11.5252230882 24.8397615736 57.5161294264
1048 1 29.4116781221 17.2667174356 20.6770416554
1049 1 33.3309586329 11.8589687686 31.821646051
1050 1 30.1827457286 7.5075862457 54.3450757287
1051 1 45.4388103697 52.0817820978 52.8587213736
1052 1 18.5097498168 54.1298790505 18.7878320727
1053 1 58.3348162706 34.4055915399 9.2378556133
1054 1 32.3041211136 10.1737996925 37.808223873
1055 1 36.7597198942 23.6817509631 6.3691165505
1056 1 26.1955300045 7.0389389641 21.4848659115
1057 1 19.1222823534 10.7105876958 54.0409232613
1058 1 20.298788722 50.4516892793 47.7326366808
1059 1 47.4802136195 11.5267497222 54.0337598248
1060 1 46.4779196777 61.4753960049 25.3770193104
1061 1 42.0167428114 10.4415478105 40.0532566126
1062 1 8.1953466088 13.5066765949 56.2651702917
1063 1 37.5792874888 35.5234986493 17.7890611325
1064 1 38.5359585605 18.9510057613 9.7994807775
1065 1 18.3110525292 5.5215645803 10.4870532473
1066 1 58.4634058273 56.5279862075 55.4953944524
1067 1 54.337383842 33.5834404109 51.2635062704
1068 1 4.7587349257 27.3241235519 41.3777877631
1069 1 54.4448353893 31.0856910266 12.3810775988
1070 1 42.2761531591 48.9705607098 34.8621725412
1071 1 25.1850744424 27.9882680613 56.1380486523
1072 1 45.6318121381 57.4355701242 54.6592100338
1073 1 53.8914305621 18.482975005 5.4359321559
1074 1 42.4689787774 46.3597816923 52.1761985394
1075 1 5.8154944715 30.5596481781 15.8017946732
1076 1 42.635969051 32.0643221413 25.9086989614
1077 1 45.7966886108 54.3005097591 32.9423715616
1078 1 8.5222576662 42.4157814539 23.4284471515
1079 1 54.3286937715 47.9328018857 51.9133826236
1080 1 15.2689406883 49.4573808077 46.9511762197
1081 1 52.1958686314 56.1127417578 17.6039861176
1082 1 15.0028953544 47.2735895785 26.0442758045
1083 1 51.478820382 14.9814637616 10.5661446321
1084 1 54.972757172 3.6179876101 50.7842019092
1085 1 25.2272330277 5.9592035765 28.4397407103
1086 1 34.4636036322 61.5843154696 23.4864592437
1087 1 8.395523557 30.5336366833 59.1597858009
1088 1 15.382440055 44.5433808084 40.0369333721
1089 1 37.8830289393 46.8127809753 59.7636869838
1090 1 19.228559567 13.2082783634 46.8887603755
1091 1 53.1154307534 38.3832951599 48.3595548071
1092 1 21.8583040761 43.1172697798 29.6450769749
1093 1 18.9340953538 17.0813488372 27.4828934886
1094 1 28.0843285703 23.5590330757 48.4126346972
1095 1 16.1388872051 41.7213391312 7.0457618438
1096 1 17.9931016391 45.8483593003 39.4034976929
1097 1 5.3283925335 3.8459839401 45.8202340045
1098 1 31.054101446 53.542535975 10.5591573457
1099 1 22.5403571767 34.2881581548 57.1550217673
1100 1 57.9050100812 54.8485126506 16.9758349407
1101 1 53.645466337 27.5330962607 17.512035777
1102 1 19.4611951028 46.0283846796 57.8897437411
1103 1 29.1147478079 53.1656335255 50.6525003678
1104 1 36.1543507941 34.5287791609 32.4058771418
1105 1 30.6315174097 38.4468266212 24.0777950544
1106 1 51.86746617 21.2417788043 30.4535471146
1107 1 25.9774562084 31.5631164537 29.1372363011
1108 1 33.0555773449 15.6821300538 19.4465159297
1109 1 60.831391321 34.2125897715 12.8711271148
1110 1 55.0156203576 41.1968229166 36.9814341253
1111 1 4.8726805393 57.2617687143 43.2112752046
1112 1 13.273277742 45.0171658005 47.6105059603
1113 1 61.2676563467 53.503371941 38.6919688126
1114 1 19.4431690782 14.3065153808 60.7049155653
1115 1 30.6632244237 60.4315893615 29.3174378305
1116 1 42.2814963781 53.7283155902 38.7371219491
1117 1 10.4020901932 41.1732188062 50.8095088037
1118 1 24.5777676914 34.0441315806 40.4440162015
1119 1 28.3930022231 58.2538459516 34.2118851712
1120 1 51.0771394883 3.6894223382 17.5564843133
1121 1 3.6689114232 23.827485794 58.0654828019
1122 1 49.5322445907 6.8617554727 45.5971105728
1123 1 32.7995725654 12.2598863454 55.3476045373
1124 1 53.9440994353 37.8836161063 41.6381375778
1125 1 8.7187941795 53.4378441122 12.9545048182
1126 1 37.4508153655 49.6049945727 36.2707272787
1127 1 50.2694326656 18.9293393017 11.0259550515
1128 1 43.0280204071 9.7269069455 31.6961097623
1129 1 41.439675157 36.9716871543 28.9841618836
1130 1 32.9826512127 26.7524578333 5.9217305833
1131 1 50.9017527277 8.5057230456 43.6355620249
1132 1 42.8420059251 6.6262663055 61.6539534669
1133 1 38.1981614282 29.6810703075 35.994700107
1134 1 33.3825706057 7.0496430171 32.4187948142
1135 1 48.4072914782 25.9202661498 52.0501925172
1136 1 44.1595497892 46.0531044072 11.862902787
1137 1 34.1109511767 16.247571803 28.0250247109
1138 1 16.7232357293 8.0591121388 58.28796035
1139 1 19.5477435076 24.864129001 54.3212954682
1140 1 50.1774823251 10.864660297 50.6113399663
1141 1 59.2430460709 9.420112227 10.3311017119
1142 1 59.5097372885 60.451729187 25.3363873591
1143 1 49.2125909164 9.3333876721 3.5308537998
1144 1 36.1680905001 45.9443610926 50.9787303116
1145 1 17.2397664737 27.0837374126 28.4324598405
1146 1 7.0311707457 13.5137813147 49.1538742239
1147 1 25.96606517 59.391423153 49.4458136192
1148 1 12.8929110077 60.3192643286 20.2144128348
1149 1 45.6332800554 5.9508012178 22.170559447
1150 1 31.1242091769 9.1320481334 28.7460656954
1151 1 7.5199813395 10.3429037671 59.1161005816
1152 1 53.9800927678 56.4909359745 12.635790611
1153 1 53.1712116113 5.9238385126 53.896421481
1154 1 29.4862483216 48.2620263808 33.5543169314
1155 1 25.1375139215 29.3074559928 22.6622530304
1156 1 54.5289764098 11.8981915193 3.9086052927
1157 1 29.8118323818 35.7959441027 36.3891001309
1158 1 34.8560072884 19.1645583721 53.5833440763
1159 1 15.7219399713 36.3265081366 45.5364562294
1160 1 15.5066845765 45.3565482835 59.192432282
1161 1 44.198361523 54.4652687984 49.9434375886
1162 1 53.6647254122 42.6494738903 4.1554561398
1163 1 60.3378775202 4.210362119 18.8075608814
1164 1 7.2876511304 19.7098015791 19.3119372704
1165 1 15.1990678242 46.8166562771 5.073151071
1166 1 18.7031038853 57.3031052659 38.3158883968
1167 1 10.7503976133 29.5402676787 45.2203842735
1168 1 43.8407768654 13.4196584565 34.1350250207
1169 1 59.8735459155 21.5356558505 49.790187021
1170 1 7.0946728487 36.722904528 47.5705198927
1171 1 54.0590080026 33.0787117217 32.8504799378
1172 1 52.2422548185 11.8586751852 31.3446903574
1173 1 6.020122145 13.5365633914 10.2339255857
1174 1 49.2592119703 37.2010345554 19.9675678594
1175 1 23.412887228 45.3052886109 15.5446155598
1176 1 41.3854209331 29.7357355482 19.4462810629
1177 1 4.2911621596 43.1553769133 33.4459259169
1178 1 5.2736744477 54.4803002716 35.0325096662
1179 1 6.1846932909 8.8064288432 8.8604129703
1180 1 9.24537135 59.1132234637 58.9893312424
1181 1 38.3073744764 51.252702399 30.1120508308
1182 1 54.9102826112 53.6786412683 59.5823111205
1183 1 41.704370007 38.7475735204 43.6914603162
1184 1 18.2489302685 26.4505953169 37.3783589669
1185 1 7.7378085255 51.2620970698 45.5191348051
1186 1 10.9395827967 43.7771279706 35.035797801
1187 1 18.6963514657 45.4489683575 7.6396929322
1188 1 45.9899839627 30.3875495522 35.9256492766
1189 1 4.4631081221 5.0859747966 21.3187563883
1190 1 50.0605773902 39.8133989235 41.2153773915
1191 1 38.8240813708 55.0149157573 44.8976186145
1192 1 16.5083913513 60.8402575416 14.2931279749
1193 1 60.3268974987 61.3192683194 59.2480957065
1194 1 26.5765426224 51.8551356645 59.5234769945
1195 1 31.9798288207 20.3528667959 24.5381926406
1196 1 49.2531054343 28.3930609398 21.7897229792
1197 1 47.4660041799 25.7855113404 23.6418823289
1198 1 32.1175781814 34.3207459192 51.3605649632
1199 1 58.5241776041 18.6373411897 52.2120744385
1200 1 21.6187399705 44.9386028659 38.4424228692
1201 1 26.4877629833 40.4617486426 15.4906549194
1202 1 47.2767602799 30.2025919707 41.2555983259
1203 1 19.3249136594 38.5759446281 27.03993476
1204 1 35.2487632449 34.3353663756 44.7832972141
1205 1 45.0843376968 36.2281576766 51.1413755499
1206 1 40.4537631725 36.7389929018 9.168393766
1207 1 7.141464181 12.9459908978 6.5857165577
1208 1 24.145671551 24.9146840732 58.6845916081
1209 1 37.556329262 37.3251616435 43.5632230597
1210 1 17.005369437 33.107306751 37.8016476035
1211 1 44.1752271461 36.1558774281 29.2020595297
1212 1 61.0621479227 37.6609036914 34.1585116977
1213 1 39.4460085783 42.0303063674 41.2698664822
1214 1 18.1561578943 4.0758891497 26.7161122006
1215 1 14.7851151417 53.0424459045 45.1291385332
1216 1 8.7248126405 20.8528981496 58.0512146456
1217 1 57.1441591791 47.4849696716 12.1065183444
1218 1 11.3669816018 18.9165390628 9.8236133382
1219 1 22.5330763068 31.3920160116 50.1861723956
1220 1 27.4196556107 33.7558326202 25.7355434351
1221 1 22.7175054381 39.0527828883 20.9709187016
1222 1 9.5703682432 18.0632680867 51.4617925412
1223 1 55.0395180515 25.7985464462 3.8955760586
1224 1 16.3839706798 8.4099091467 45.5266505418
1225 1 50.8324670304 35.3452934874 47.5032892797
1226 1 49.1623881443 15.3903080918 38.3120718118
1227 1 24.2777841092 27.6157106471 53.3938065927
1228 1 14.8484117363 10.1441477628 59.318086004
1229 1 53.1171335375 56.3249438847 49.2134129501
1230 1 32.7281730672 33.2801686939 59.6879424504
1231 1 39.3250521916 4.5345428502 38.1453751216
1232 1 11.5006795107 11.5996171377 60.2849150635
1233 1 36.490856159 59.966259573 15.3617717792
1234 1 7.8613601899 47.860932654 49.6561955286
1235 1 30.3801512489 4.6162060262 31.8858821126
1236 1 60.4674652606 36.5385928301 54.8152790026
1237 1 48.9110219835 55.2555367633 23.6325463748
1238 1 36.632950555 57.9181626203 50.2598618447
1239 1 59.1869716296 15.9100095376 8.6969280832
1240 1 8.1392075791 44.9041948841 37.3757167157
1241 1 3.4117880907 24.1271170761 55.2270004508
1242 1 16.6848350124 13.3972873967 17.6510181883
1243 1 50.7653538509 21.7979433161 14.3258331726
1244 1 37.1237046713 21.5304300649 34.4365352369
1245 1 12.0132762367 16.9591006833 41.4613416166
1246 1 32.4162112797 7.6561629645 42.8180495146
1247 1 15.7432541307 26.6340262644 16.745254489
1248 1 24.1210105401 55.1853115991 60.3091650575
1249 1 31.81189908 53.9650025778 39.8276083631
1250 1 3.59864457 9.4542266254 29.9973184135
1251 1 33.855944581 50.334490761 56.1797962207
1252 1 6.4205406299 47.0394861253 52.0796682968
1253 1 40.8519797813 37.5593238133 49.1092495376
1254 1 55.2033963404 55.0464466212 10.4163583494
1255 1 31.0528683955 22.1807761515 35.3728903329
1256 1 39.3618088412 31.9980309954 12.5331538325
1257 1 30.4523140641 41.0335317947 40.6180524782
1258 1 16.4108042083 7.5334274621 10.337560548
1259 1 5.7687970859 3.7990986611 18.0009109592
1260 1 34.3796974785 13.6540554932 36.0312218898
1261 1 48.572520251 25.9677092374 56.6487664441
1262 1 29.174873701 34.5683542117 61.7539479943
1263 1 15.0240920804 37.754380666 43.2662927455
1264 1 47.0989661348 24.7586738211 6.6231132191
1265 1 50.7006480557 44.3362870338 38.2237031895
1266 1 47.3577305989 34.3567979684 7.937040135
1267 1 29.3816738922 32.4500320946 46.8912264766
1268 1 26.4656267902 42.1777439823 58.8335558571
1269 1 47.9816541739 24.7628427063 34.5424601502
1270 1 3.8319095489 15.3991155957 48.5419288542
1271 1 26.7702489911 54.1477876417 61.2139892897
1272 1 24.0075698901 61.0474687496 54.9997081339
1273 1 40.6474695412 28.503213455 41.8478736036
1274 1 43.0495694333 27.0060552284 39.3137785866
1275 1 40.2186028188 61.5190812242 13.3480828083
1276 1 50.8947067245 61.7624031981 28.1984738207
1277 1 6.4238874813 60.3725790855 20.8844877302
1278 1 36.4502242078 34.3250322377 61.3277235231
1279 1 38.543121997 36.5899699361 37.1220606039
1280 1 41.501738701 33.8405608075 23.656561502
1281 1 5.5852780634 41.7730685373 37.0870067385
1282 1 9.9665297678 18.354444165 18.9121940275
1283 1 23.4063109584 56.7937966747 50.7550784297
1284 1 47.8257026385 30.6968103719 11.3885893446
1285 1 36.4031921371 27.0007120094 29.4816097029
1286 1 30.646372733 41.159713967 23.2160688745
1287 1 7.0760537855 32.0307949098 25.6398352262
1288 1 26.2525439129 28.523646864 40.2862444486
1289 1 9.2109046514 17.3226157269 29.6649819337
1290 1 59.9948546023 5.7936459902 46.2087036424
1291 1 6.8607631606 56.0294814878 58.1833272038
1292 1 50.8467939034 22.276366927 51.9788517357
1293 1 11.8553870504 39.3728475794 15.4652305915
1294 1 30.7570536984 47.4691161646 28.1106923653
1295 1 35.8292364674 56.3339275387 21.3884531023
1296 1 45.5288230594 33.9311019474 43.6869978476
1297 1 49.6505000095 11.0133896793 8.6559438318
1298 1 57.4002226753 12.4365648732 52.5092983362
1299 1 46.278106773 60.9632690125 20.0026217248
1300 1 27.0229069192 16.5678126442 19.0822962858
1301 1 9.2935777545 8.3002322367 58.5635177881
1302 1 13.990971875 36.7268972631 52.0531283518
1303 1 5.2991633639 44.8080756584 53.6681309803
1304 1 44.1787501477 52.5519853717 8.1655831174
1305 1 38.9988809645 60.7404391643 36.9860140273
1306 1 14.7188239959 23.3438951142 37.8796233712
1307 1 20.2687257754 14.457534714 41.9685951235
1308 1 32.1556265982 13.0678280348 57.9633157569
1309 1 14.784880275 53.9995867098 13.9546262423
1310 1 5.4201491089 59.918522902 47.1875696239
1311 1 9.500319229 27.9007214727 10.0992882097
1312 1 7.5828786605 11.8301975893 51.4075383173
1313 1 18.4173297427 28.5887049593 34.4326012185
1314 1 14.4847205427 21.4257969188 40.0638256173
1315 1 55.3840088866 18.5195555044 32.1923832477
1316 1 5.8330566342 23.5896244725 61.5063397019
1317 1 36.5378295131 16.7385607861 18.8176601525
1318 1 34.1627392995 21.4096498283 33.7122061176
1319 1 14.2640044954 18.2695985443 17.9394932988
1320 1 47.8266421056 51.1975674247 54.368327539
1321 1 50.5525058404 11.6031988559 16.7088501397
1322 1 8.5898347077 29.0007199909 40.3496584766
1323 1 48.7756800072 52.5142892551 22.9927105761
1324 1 30.4350513565 13.0324218692 24.261578302
1325 1 17.651840222 39.6781156639 17.6630551103
1326 1 30.1853292631 23.8805069674 12.2327005167
1327 1 27.1867264914 36.4724778343 25.1123831771
1328 1 59.0651344925 27.2126792695 27.1199656119
1329 1 11.0997032173 43.7266903317 39.849979423
1330 1 37.166744007 54.0462664803 20.077250641
1331 1 31.9465951727 28.5304580003 42.7070749657
1332 1 14.0417618141 11.24185633 28.477612977
1333 1 32.8335695303 12.0158597711 50.7211988981
1334 1 37.1171871185 53.7925516518 9.9165031458
1335 1 19.183288997 19.7918875153 52.0298765416
1336 1 48.229145033 14.5627550271 40.8132854809
1337 1 49.3929098793 9.8680031577 12.7368420389
1338 1 10.8988921288 33.2543920658 47.9551142289
1339 1 13.9838671552 21.6821539984 8.0309927147
1340 1 51.4939692887 10.5707832508 54.9522063296
1341 1 25.4987977307 4.0448280194 53.3192951099
1342 1 13.9056565208 27.6778329078 46.8146011928
1343 1 54.6584467168 26.1179065369 22.2506490157
1344 1 29.7164764731 58.7972689411 59.6316918589
1345 1 35.6836190699 5.3518909538 29.2787435301
1346 1 61.5771520331 36.9889498619 23.732188602
1347 1 58.3613562156 6.5662519741 34.1976170149
1348 1 5.998907804 23.0302305426 33.8297569361
1349 1 41.8530993892 38.8873192487 7.76322111
1350 1 36.9046914081 60.2559090174 11.6140027273
1351 1 41.4773712736 17.8683873841 22.846623445
1352 1 52.4440640908 58.4655783449 36.7937168592
1353 1 47.677208123 38.6625517496 40.2289956734
1354 1 3.0301601218 48.5383471359 53.8368827547
1355 1 41.613652717 29.9540442111 22.1645116277
1356 1 10.4603958689 41.0021770809 40.8007788254
1357 1 18.649319395 29.382848226 40.2309333242
1358 1 39.8385883846 51.5129347804 33.3707685505
1359 1 40.8565596833 34.8160799375 58.2637690726
1360 1 14.4813149745 25.3060895458 33.9168337912
1361 1 12.0237865246 58.8280952047 44.5015745233
1362 1 56.53344686 5.0407981734 38.2949265376
1363 1 20.3271488845 35.662598494 7.3701950568
1364 1 44.0043615708 8.5047307335 47.9292788841
1365 1 41.4585232153 59.2257833633 37.7405822432
1366 1 8.8965296079 24.4009717302 8.7457627564
1367 1 4.5238975139 28.3061015181 44.1810988154
1368 1 42.7659090916 26.6623277102 44.156731388
1369 1 52.7863236917 7.7125662193 32.8312208626
1370 1 8.7859249741 31.444273868 48.8176037257
1371 1 41.7524589782 52.7808630392 43.5896455713
1372 1 40.6927988278 43.1443968917 26.3538302076
1373 1 19.3673658281 26.890207194 50.8620015268
1374 1 59.9584502529 59.4857808779 34.9310472215
1375 1 23.885556603 17.3683560304 13.1654738945
1376 1 12.8331374147 47.6002892558 20.6361161207
1377 1 51.5686569216 28.8667284985 47.3307209203
1378 1 39.2668639493 28.9061273992 30.9002637115
1379 1 5.6989183501 20.5411712289 21.5144591245
1380 1 61.6687500735 50.8819652023 14.8721332801
1381 1 28.5383260371 31.1607896764 29.4641121285
1382 1 59.2694098659 51.490093987 52.8450403842
1383 1 25.0777403285 19.1691969908 43.5129028542
1384 1 49.788484237 5.1297480909 38.9910129277
1385 1 34.2937949573 27.9177493136 51.957596293
1386 1 26.826617016 6.8673335585 9.2168937541
1387 1 28.6923399217 41.1659966531 21.2008532696
1388 1 23.8462751357 59.8348516151 32.6232463376
1389 1 53.7977774375 48.9376793619 42.80002349
1390 1 23.0095622669 61.5789135339 35.9804319507
1391 1 21.4602049006 58.6538827779 11.0624181175
1392 1 60.4331747122 28.6082576179 24.8820963089
1393 1 25.5124787201 23.5460566867 31.9504117577
1394 1 50.8247751437 17.6355756981 23.4140615618
1395 1 30.7926947308 61.5721611142 24.9800944687
1396 1 59.0509837696 51.0042720728 16.2003048655
1397 1 52.0736204775 5.8818502058 43.1240221994
1398 1 12.4780188582 46.8165388437 56.0497387467
1399 1 57.269284451 60.8584597163 55.6815263678
1400 1 42.8486409114 49.7669939275 13.7870488018
1401 1 51.7755745461 25.4170640947 54.0142658829
1402 1 61.4471532758 3.4034861375 46.6144359879
1403 1 7.6816812391 45.933968238 15.8938624471
1404 1 41.7469983258 20.8395694604 12.6572809205
1405 1 40.260585254 48.4906104649 23.943040245
1406 1 9.8391732617 46.469464474 23.5132340555
1407 1 36.413526275 7.2902875099 54.1537180277
1408 1 18.9592848149 30.8626263116 47.7004012166
1409 1 34.8442639499 41.0572533385 19.6824396003
1410 1 37.2519419278 27.0811538782 26.7445897965
1411 1 37.4383674267 32.1849849445 26.4355638436
1412 1 52.2138359393 17.3561429583 45.2195622398
1413 1 40.9892006918 43.5803683339 55.2885355446
1414 1 25.5172347722 48.7011098077 24.2584076006
1415 1 22.3000297541 31.9807682878 29.3523155459
1416 1 52.1605211825 30.9378423948 32.9775428605
1417 1 7.8863969876 11.3643393506 38.2992128561
1418 1 31.1140511891 61.8176556058 21.2261014474
1419 1 52.47248297 10.3628087258 21.4465239112
1420 1 25.8159265872 27.0529111491 32.7671609511
1421 1 28.4637558376 7.0905098352 24.3882302079
1422 1 29.4959365759 37.2894031777 3.8804623819
1423 1 3.7847776598 53.172033645 41.1686976209
1424 1 13.5861202799 10.7385368414 38.9461533746
1425 1 45.1222099635 34.340827028 31.088861728
1426 1 54.5201101892 42.0931332284 19.563714448
1427 1 44.7487717989 27.8228631384 5.6032571146
1428 1 29.2670589083 53.7003077278 56.8178705187
1429 1 24.1732096798 32.8730271477 14.4548924629
1430 1 31.7623421915 9.9833814586 46.1006062114
1431 1 60.341928972 26.1697533764 31.4248973594
1432 1 43.2147394894 51.7183844876 18.9383816724
1433 1 3.757292376 3.7880892812 49.3019577225
1434 1 3.4934812122 24.2291666878 16.5716292292
1435 1 43.2798563015 55.7304960894 33.0521717767
1436 1 48.1479398472 41.5503561225 46.0838719541
1437 1 22.3595684804 50.0160114206 28.3629392765
1438 1 57.3395683319 20.4721791151 49.2550430852
1439 1 33.9357992828 3.5950135298 34.490378444
1440 1 14.2625952948 5.8606182497 14.648129098
1441 1 43.0266699232 49.2313802581 40.6526953268
1442 1 10.7886221802 11.4574053083 37.9278884925
1443 1 34.3346617753 21.9173730688 54.4269855148
1444 1 17.2646036346 49.5173305508 7.5430393846
1445 1 12.9108783156 44.2160352474 31.0878048275
1446 1 47.7244163438 27.0890806317 13.5772540593
1447 1 25.556222656 50.3023140134 10.6922680877
1448 1 43.5880602206 53.8434003076 13.3564792954
1449 1 30.9888084839 36.9267101678 51.3656145988
1450 1 57.0785726336 56.7627355443 53.0782043703
1451 1 40.8512164643 15.8339714207 3.8770861721
1452 1 3.5684107579 10.5561040777 24.3464826395
1453 1 18.194030161 20.4011319171 40.2834847641
1454 1 45.8107219003 17.7955199686 56.6666750353
1455 1 61.673799709 45.438575503 46.7891181482
1456 1 42.8502262621 15.2069945777 44.0560322602
1457 1 16.8628640242 52.0598807715 24.3349741677
1458 1 39.0030498497 16.105301257 31.8766635919
1459 1 10.9856166837 39.2544747272 11.165465913
1460 1 54.9540852638 10.4021489098 15.6352154164
1461 1 24.4676151762 31.8585788506 23.8411080667
1462 1 6.6949061191 48.8866545561 21.188170464
1463 1 28.5549428611 7.9739259612 48.2915608771
1464 1 48.9901133684 29.3129166452 46.5728645696
1465 1 11.1802625195 21.6003616457 8.3218752096
1466 1 50.4853926608 35.4755271115 31.6941721115
1467 1 18.5408696638 55.8129343257 34.8937034051
1468 1 21.0773720652 4.4337673908 40.5189974179
1469 1 31.1986619431 48.0498242539 16.330655923
1470 1 29.8552827343 17.1210413214 33.1054865335
1471 1 44.9619721096 15.1596689235 60.4180258055
1472 1 60.6217727286 48.4781625261 60.5890675309
1473 1 21.2222848624 28.1831487639 23.7144561609
1474 1 59.3035242643 27.1507331588 13.5216493515
1475 1 32.0456502331 41.2755620014 33.9944572587
1476 1 38.8071709634 27.1889577257 55.2261197004
1477 1 54.3201798511 43.696275085 15.0594395293
1478 1 5.7733711163 47.057101133 45.0395955771
1479 1 6.0845872018 53.9347047645 53.8084638755
1480 1 4.6695090397 49.9251766972 18.0555761999
1481 1 47.5098068326 9.7680086303 7.5443252802
1482 1 37.2017978724 45.0868037979 19.9799570815
1483 1 39.840819619 56.1015855863 59.0872706856
1484 1 32.1534540806 29.4400970013 52.9234858854
1485 1 10.0604177592 34.4596108971 19.2928543453
1486 1 21.8876624224 30.8689089977 26.7715407584
1487 1 40.2956391194 7.0705637747 28.4743835589
1488 1 34.8939382718 10.5486470578 12.8653141622
1489 1 34.0181788025 27.9236796995 28.143397563
1490 1 44.7871137991 51.6345957673 21.6107545003
1491 1 60.9339106662 10.600552614 17.3777507012
1492 1 42.4072675335 38.5496395498 60.3406372047
1493 1 35.4084726486 4.7163297304 47.6772668397
1494 1 26.0952418936 17.9970356575 51.5808699937
1495 1 11.9426987722 44.0333089002 12.3378621131
1496 1 25.730963533 35.525671167 49.7873099031
1497 1 7.2990128104 38.637832022 42.5267560028
1498 1 6.2903246208 54.6106513291 27.3087984952
1499 1 59.8788304178 4.3565901701 33.1421844664
1500 1 56.7117694552 16.6653997872 48.9237635058
1501 1 34.5609559084 13.1593673585 60.6703901501
1502 1 50.3349017778 43.7202314956 12.1881932638
1503 1 6.932761569 59.1951919665 9.7396484678
1504 1 19.608221701 53.247660745 24.0446788398
1505 1 52.5577396076 16.472926469 38.3598084828
1506 1 28.5784295381 29.2774517629 41.8061847519
1507 1 53.234097189 33.8904112795 54.036402076
1508 1 6.3260713432 24.5081884107 7.552228547
1509 1 54.8472208834 11.4300433296 47.338412807
1510 1 37.7600761852 9.0331105064 35.6756335997
1511 1 16.9003252741 16.3182079842 46.2222084817
1512 1 37.8864345075 31.2916104674 8.209421
1513 1 52.4881603269 27.8602656716 13.7236934906
1514 1 13.1237850428 12.8138783395 32.0770049469
1515 1 24.6080655048 3.3922847541 27.5887009685
1516 1 58.0431704587 51.0954590964 10.7084151782
1517 1 40.9907860425 46.6480219361 44.003363387
1518 1 39.4210539839 17.2323681704 16.3059949121
1519 1 38.3169452973 38.5743005607 9.2123725688
1520 1 52.0214800545 21.8701061313 20.9692159175
1521 1 39.9287185077 33.9908755405 55.6532836387
1522 1 4.8364112383 15.9099508209 22.1181254406
1523 1 9.1764966696 10.44031476 32.701867989
1524 1 55.9780456651 50.4324889208 14.3460317149
1525 1 45.1405295716 33.1896862706 15.6889411901
1526 1 39.3747852302 47.8377395604 14.0391195629
1527 1 46.8450751562 16.9343222391 19.8299946487
1528 1 60.6829555223 29.1532659582 43.5902327383
1529 1 41.2779693857 57.4545356159 28.4825451792
1530 1 28.1941287854 40.3493061764 27.0699977066
1531 1 31.9313288327 61.3146297007 16.5055729501
1532 1 9.7970146765 15.9026112343 42.9714175155
1533 1 37.2827094747 32.819125224 10.6945580387
1534 1 28.8881013746 53.7441690972 6.8260498519
1535 1 14.1224385496 3.4410219576 21.9517223339
1536 1 17.642856568 12.86783898 44.4265933069
1537 1 47.2902651191 32.3282536743 17.4000043276
1538 1 8.140505218 59.4952342654 32.0347289282
1539 1 56.3181914651 22.0406194064 18.6907733799
1540 1 37.221937698 37.5415913722 19.7159668318
1541 1 39.1380982425 19.8196605108 61.8859431192
1542 1 15.8228152491 44.1952495383 5.634423935
1543 1 60.9497641732 40.4579907743 34.854950388
1544 1 30.1778722431 15.1623698914 58.4777327003
1545 1 43.8794711658 60.7385602301 37.7690598391
1546 1 41.7404220562 12.9936688521 48.1513454153
1547 1 21.4027799753 18.0110102303 47.4572553927
1548 1 43.5433768176 24.7980727218 33.266957438
1549 1 20.5536778844 54.7899721081 12.8894467228
1550 1 20.2846967158 24.1133773701 9.0423877438
1551 1 25.8848599842 20.6381712049 31.9794765206
1552 1 36.4175777267 41.503089185 61.576975883
1553 1 11.2033968963 39.5801762207 53.1136692526
1554 1 49.0609844163 6.6771443196 9.2222956898
1555 1 20.28657565 6.5276398771 29.0344820891
1556 1 17.2589081155 31.3294240174 17.9575193234
1557 1 45.8377902956 60.4785039988 5.8110789762
1558 1 59.3759219462 40.7433539001 8.6879091993
1559 1 15.0156368767 26.1654083412 51.7076980496
1560 1 48.0622134761 43.0177449859 10.772240223
1561 1 26.2105027611 60.5109156131 43.338572994
1562 1 5.4196793754 45.5524271698 32.3564964034
1563 1 45.5291753596 30.002191899 60.0619090652
1564 1 55.3594653092 17.8291646335 17.3180945415
1565 1 55.86043613 51.5631962692 20.7887795213
1566 1 8.3065325378 36.4933809768 35.6252546775
1567 1 7.7160716059 35.0000393353 53.1946395716
1568 1 46.0514016231 51.45915029 19.1804705958
1569 1 9.7373585168 5.175230041 35.5389998562
1570 1 15.1932548716 15.19701274 39.1730933913
1571 1 37.5360132864 20.3476997269 59.2228475287
1572 1 30.8084895211 7.4428863221 46.5090395248
1573 1 24.8354165383 24.4684959266 61.2943724418
1574 1 39.2161327269 44.249151462 60.6267049308
1575 1 54.6592100338 6.8114646255 49.0174166304
1576 1 61.6764419602 53.0063938553 52.3209351865
1577 1 43.8356097964 11.566324773 51.2999693365
1578 1 41.4089076101 37.6165725886 34.737105986
1579 1 17.4197331363 21.4533350476 50.4090609605
1580 1 35.5324823033 57.8940300597 5.8125292785
1581 1 54.6725974397 39.84310957 57.1765707934
1582 1 37.9719847286 47.6226603156 5.5557905404
1583 1 33.0445973234 60.9562230094 44.9598583086
1584 1 5.092944468 35.91067652 24.9305375802
1585 1 11.350893228 43.0266112065 23.5549816239
1586 1 52.8170325219 24.2817181276 11.5750148435
1587 1 11.6438308071 8.8978037601 60.0257395826
1588 1 43.9536890651 3.6530585034 57.7127129131
1589 1 40.7014301816 60.4537255546 57.2864297252
1590 1 48.5964179449 34.9105550958 56.3756163904
1591 1 14.2473876714 16.4809706559 26.5816509747
1592 1 19.0737823654 16.9116575957 8.7792665012
1593 1 48.2941444116 21.6684142924 51.3327332509
1594 1 40.0272451178 3.786175117 44.8902203113
1595 1 22.214303383 20.19585836 45.7611062951
1596 1 45.9281552854 26.0821480712 36.0943423343
1597 1 30.6185410207 38.7953689081 34.6428069778
1598 1 60.3661202493 10.2308723177 52.7459266072
1599 1 49.7065157342 53.6512792896 59.0072985504
1600 1 22.0635776332 20.0641568186 4.5669133628
1601 1 31.7040952325 43.7482980746 57.0496840208
1602 1 44.4806126641 10.5289769657 24.6929111255
1603 1 34.0702017921 31.0644355839 38.8175051012
1604 1 32.5543716573 47.317216081 50.2058424876
1605 1 41.0567836049 4.1793186037 51.4038978823
1606 1 19.2455286911 11.6012024884 12.4006302574
1607 1 27.5355036451 27.0070534122 15.4292959757
1608 1 39.8601374108 24.0206049958 50.1441312437
1609 1 12.8224509766 8.8465264725 43.0744065942
1610 1 60.7648065917 52.1882941781 7.80469271
1611 1 21.6531479523 23.842575984 31.6012235872
1612 1 54.2255872594 55.0312977145 42.7272147912
1613 1 59.4748008564 60.2704707571 3.2737216598
1614 1 39.4776568755 58.9081847733 12.299109096
1615 1 17.3855600213 7.474417186 20.6257819828
1616 1 26.066529431 39.2591133459 49.0310389031
1617 1 27.3173711323 54.0810267623 37.5104128084
1618 1 27.5832990328 41.3793731138 47.5150326182
1619 1 22.3781229552 10.9798037311 41.2353997836
1620 1 35.9533635555 34.2504033215 40.5422492281
1621 1 22.9817305546 7.1250293787 16.7631043636
1622 1 33.4051765323 5.9143851251 7.45315
1623 1 55.5585148969 44.9494067373 8.2173947269
1624 1 19.782962578 14.1394076738 10.8055325876
1625 1 25.0591271369 38.8799209454 17.418852386
1626 1 30.2220271959 59.3159722031 20.0396132411
1627 1 49.356094513 29.4566551086 28.4292304224
1628 1 24.7481635332 43.026317623 29.968018784
1629 1 36.9850158435 42.1190860065 50.8437993521
1630 1 20.0927518479 19.992463737 32.3852675827
1631 1 13.2150894997 36.38716248 49.2995503381
1632 1 60.9576909267 36.7777459188 4.1945732004
1633 1 8.2291791671 57.0638347437 8.1350504372
1634 1 28.4737376753 11.1806735363 41.2698077655
1635 1 6.0964538453 32.9893449157 54.6850453786
1636 1 7.806360264 59.416260314 44.6765502671
1637 1 50.7793284237 4.5561505931 54.6252717855
1638 1 41.3939935702 56.8234486044 47.6159666127
1639 1 3.8213111859 58.4720958978 59.9925059346
1640 1 40.6314398841 31.2526813002 56.1052260212
1641 1 54.2836580683 20.2807039807 22.0914680622
1642 1 14.0235009227 36.2527599708 61.3078772811
1643 1 44.2592507331 5.102656209 49.3667809511
1644 1 54.7681882152 41.3145498852 32.0291508424
1645 1 52.713867293 58.1094028879 9.0437969445
1646 1 3.5721210657 30.7333908713 48.4980674848
1647 1 30.8474186882 43.792335594 22.3687282844
1648 1 31.6886527424 21.6650087242 12.9074727475
1649 1 53.6148749402 15.7987414052 25.4786579052
1650 1 48.7534263807 6.45870648 27.9515114118
1651 1 25.3663328723 6.3427762422 51.6056484379
1652 1 60.171767997 55.5907503611 18.5601874557
1653 1 17.7763196102 57.3088595017 30.5991057955
1654 1 20.5689442244 40.8521559314 21.7428670585
1655 1 20.6281306505 22.3514068601 46.4163258673
1656 1 36.0563526342 56.7357258658 58.8485873304
1657 1 39.2631647977 58.8404257101 30.0759987816
1658 1 31.8012713587 18.0467099794 27.8803467804
1659 1 6.1857501914 56.7878662888 18.2102359681
1660 1 25.8213285229 22.0461387755 3.3028463137
1661 1 28.8667284985 35.641577918 59.2952452106
1662 1 5.2842023507 6.2720813444 44.25220473
1663 1 3.8189742615 16.3366450256 31.125911961
1664 1 34.9552972155 21.213007625 12.4070303769
1665 1 57.4797837937 51.3438307058 37.9936511881
1666 1 58.57537856 17.8080266242 11.5034391953
1667 1 32.032673844 38.2971577719 5.0041237272
1668 1 36.8367561948 43.464050566 41.5444257365
1669 1 33.7164924362 51.3395443873 60.8889923964
1670 1 44.8478268592 61.2003083003 55.3405585342
1671 1 28.2678182346 21.2909833927 61.0766509458
1672 1 34.2551593736 42.0600170138 40.9709985171
1673 1 41.6575140864 37.0651641289 25.9478629953
1674 1 27.6505883625 51.1136025544 12.401276141
1675 1 23.6722975756 56.7169952409 29.8313263237
1676 1 24.8350055215 49.2885703166 13.3155537607
1677 1 46.9633892917 61.1542156967 48.7416830422
1678 1 28.562223731 45.5894774028 27.9737063216
1679 1 31.7389729479 57.349491453 18.6968799159
1680 1 44.8688474352 3.4304370994 46.924753708
1681 1 40.9840923395 51.3053712722 4.257282628
1682 1 53.3578132602 45.446208673 52.204147685
1683 1 53.504135258 36.2461837012 52.1215920153
1684 1 15.5484321449 11.3376819722 35.6900191894
1685 1 42.0151574607 37.4455308632 14.4029869066
1686 1 14.2024106849 33.667640148 15.4607094062
1687 1 59.5002251843 37.4390133103 6.7274292951
1688 1 18.1262123811 17.4098100153 35.8798502564
1689 1 40.6784719548 24.0941770116 38.7401752172
1690 1 45.7978629447 51.7155660864 34.2751817658
1691 1 17.1154632356 37.3643256774 15.7609278552
1692 1 12.0833839676 24.4674977428 18.8471946489
1693 1 45.6597612838 20.0015648243 21.9399789954
1694 1 29.4702186645 21.3781776811 57.4066815115
1695 1 37.5861573418 34.0190595529 57.174750576
1696 1 37.5168716446 45.4881323915 25.6811717778
1697 1 24.0220729131 34.8706864616 44.6644546284
1698 1 34.7409225711 14.0971316552 54.3058529781
1699 1 19.6911296708 46.8413760046 27.2012882311
1700 1 46.6270013601 56.3012810576 39.2165437438
1701 1 23.6869767488 4.4310722946 16.7935196103
1702 1 10.3658619939 46.3906079559 35.9698042294
1703 1 43.251496139 32.2187470427 22.0500727939
1704 1 53.650046239 14.8556338895 45.2016536485
1705 1 25.0233686712 30.855873892 55.7885081816
1706 1 45.5291753596 59.3914818697 26.8282023667
1707 1 14.5771993334 11.399980383 20.9535972773
1708 1 3.5853945612 59.2554352931 27.4960460277
1709 1 18.2928503545 61.4031744731 29.3269499347
1710 1 55.8619040473 18.0329702733 20.0738450729
1711 1 44.9673740453 51.0847726583 10.3117252033
1712 1 12.6305061087 16.4587757461 52.1999787999
1713 1 31.538044426 22.0077380586 55.4169489512
1714 1 43.4628175154 47.1262106802 7.4122890537
1715 1 44.1989486899 36.5221521562 61.2512743894
1716 1 35.1505302183 48.9655697909 10.4558746835
1717 1 24.7097628163 25.3476022474 37.9331142781
1718 1 29.4686920305 12.0251370085 48.7428573761
1719 1 17.369001914 23.08477835 32.5728086987
1720 1 20.3857481437 22.4436507841 35.5003642725
1721 1 12.1290655544 12.7069552424 41.8667216619
1722 1 34.7184340778 49.0244039168 35.7186142187
1723 1 20.9432044227 53.227227336 9.6432943754
1724 1 44.3744528839 11.0664695693 17.0100667724
1725 1 45.0297311728 21.3913889369 4.9427589118
1726 1 13.8457067777 32.7100883259 30.514788625
1727 1 12.4181278318 36.9063354755 10.2704473685
1728 1 22.5765266593 8.5635883461 42.4123171691
1729 1 45.4867231909 5.1275520866 37.4152917665
1730 1 6.1098060212 22.9617081624 52.6297262726
1731 1 4.6008985845 61.6262979047 33.9370323334
1732 1 61.2690068306 32.0693717768 35.1283940252
1733 1 14.782766474 51.1134264043 58.1422255191
1734 1 18.4276638806 47.850246216 44.369285815
1735 1 27.4781961532 51.2101915136 29.0458144108
1736 1 53.9574868412 33.0392541043 18.8302842414
1737 1 35.7098654315 46.1195129864 13.3180785784
1738 1 5.7511174898 12.4132543463 53.3908120414
1739 1 49.3746489879 51.006151007 13.4292879941
1740 1 14.6346829754 13.8617364347 22.5008408426
1741 1 31.2286661729 50.9263550218 31.1180439242
1742 1 33.4856184011 57.0159219226 60.2005391763
1743 1 47.5752759448 57.3203679735 49.5951301684
1744 1 34.190923312 56.7673154464 36.6432846929
1745 1 46.6747380312 14.3996400552 29.7226417258
1746 1 58.0167479471 9.9394613726 44.3520818241
1747 1 39.4155933315 44.6481313879 38.2540597196
1748 1 7.5804360461 19.1786503783 41.940234961
1749 1 54.6674303708 24.1629342586 19.2671951507
1750 1 39.778168908 54.4366150524 17.0369003009
1751 1 19.6905425039 15.6975138272 57.2739817864
1752 1 53.1108508514 15.6451972542 4.7322771841
1753 1 5.8991129134 18.5495597343 7.5547651081
1754 1 50.0259932583 45.7569961266 26.9821575345
1755 1 6.2715117925 7.8300407061 58.0957218986
1756 1 5.2077414736 6.4024382735 7.8428292018
1757 1 41.7822283413 55.6836401687 4.0663535589
1758 1 32.3719388935 34.9944612495 24.8691199198
1759 1 24.0866025583 13.1239024762 26.239743674
1760 1 48.3094107517 16.9107181286 11.4225863096
1761 1 24.0924742275 49.528369289 20.1712560658
1762 1 13.9102364228 52.4677269179 16.1072976245
1763 1 16.5875414529 48.2043665887 18.8998635221
1764 1 48.3350699463 28.8499355245 15.6955174597
1765 1 17.5773287391 48.5826195221 26.6084845032
1766 1 9.622743533 56.2765613301 48.7019318414
1767 1 53.4971479716 30.4843146615 42.289716715
1768 1 47.9127207768 29.0991291676 38.7410559675
1769 1 35.7669380566 31.6483143746 14.6501841823
1770 1 6.1736956544 21.0788986992 17.1451151653
1771 1 51.9511961736 36.7907223079 4.3210430845
1772 1 10.9357662117 30.4813201102 50.5421129858
1773 1 56.6407222572 44.0391805695 60.1223285418
1774 1 8.9149842643 45.3163273491 60.8636267852
1775 1 10.6281494595 52.8219060073 49.9408540541
1776 1 55.6019065327 23.0895931188 29.5244141718
1777 1 37.910978085 15.4854878504 4.1693132792
1778 1 20.1411931192 50.4383018734 9.6327840874
1779 1 14.3708101591 48.5079906059 57.1902517828
1780 1 29.8600387864 32.4325932369 44.1031817644
1781 1 58.8263337039 30.46570147 55.9704712118
1782 1 56.8746495603 23.01678442 33.9447829368
1783 1 17.7923492672 38.9655298832 43.2669386291
1784 1 3.5614123153 23.4146487287 35.4184544864
1785 1 49.552619283 12.5979183443 32.1787022584
1786 1 43.721288396 16.937199357 47.3984799835
1787 1 27.5354449284 40.0921857798 40.9029458704
1788 1 5.6247650391 45.7035052197 24.2729106237
1789 1 21.4204536998 57.742893293 30.8293926636
1790 1 48.4365911077 53.0637013472 43.0640724563
1791 1 9.8094626153 4.5287005393 22.2021490276
1792 1 13.5997425526 35.8186087461 13.8755348575
1793 1 41.9764044436 7.3372667356 54.7356004508
1794 1 5.7318290563 28.2096299922 31.3362938704
1795 1 44.9929158065 16.7757284525 42.6557565764
1796 1 43.0050621803 33.5202612497 8.1090330708
1797 1 26.6712526475 53.3817109541 8.3865222881
1798 1 7.7317724495 4.1398316279 20.0638045184
1799 1 47.6522535287 13.7178218213 17.7095587308
1800 1 28.7054337441 26.3789022353 55.8277896489
1801 1 27.6433662093 29.2672937751 25.7980767126
1802 1 8.7795600847 24.0073350233 43.4753828876
1803 1 60.8936897318 21.0616947083 10.8058261711
1804 1 28.541790322 37.0028070014 22.5890333148
1805 1 19.6934783385 6.0478892689 13.0716446198
1806 1 58.092198897 35.2939163815 16.2811577512
1807 1 48.7229524173 61.0617956226 16.7515958918
1808 1 50.8734512818 8.3972615711 8.0858693356
1809 1 20.0555254648 52.7584332627 59.1835660614
1810 1 42.3284697321 37.1715000591 55.7812860284
1811 1 27.9256173504 28.6313332781 37.9581275891
1812 1 53.0149664924 30.9272146734 10.1503717322
1813 1 35.5524459788 44.4424468139 7.4481238511
1814 1 34.5800975502 30.7052068589 44.6904074065
1815 1 50.7767448892 24.2311043386 61.8080260682
1816 1 54.90764036 4.2850145219 45.2217934741
1817 1 51.4243312913 3.4550288246 3.5716566166
1818 1 35.037911602 38.6145214951 18.2348382623
1819 1 48.5988253292 11.1745082836 18.8152527681
1820 1 17.4089292649 43.6067321289 48.731407621
1821 1 18.4913127753 19.9604044229 12.6179994532
1822 1 33.688836874 26.2680451198 26.0037025699
1823 1 29.6261701999 52.2823583195 34.1120080772
1824 1 50.1135398469 37.4840490135 45.5123236688
1825 1 17.5644110668 16.9069602603 40.2147862338
1826 1 49.733290546 6.5200125787 33.9494215555
1827 1 34.076719345 52.2817124359 29.5621102884
1828 1 42.7316185431 50.2134169409 57.2895417099
1829 1 49.8509000811 60.6432630381 42.4709164282
1830 1 45.8793029972 14.3246001221 39.3377349972
1831 1 37.699950292 8.2290617337 12.9022469618
1832 1 18.5460367328 16.8996793904 59.5926452584
1833 1 58.3200783808 24.3005661859 9.4637387296
1834 1 24.3144233253 10.4276319544 16.7311037661
1835 1 38.4023193682 56.1959433112 18.6976432329
1836 1 51.3620915972 61.3032386623 52.7412879885
1837 1 16.4903653267 14.8120661036 52.4563358795
1838 1 48.2722430853 19.603817949 16.119040963
1839 1 59.7084932928 49.7934751558 32.791234795
1840 1 17.0538694251 35.686848488 49.4719425474
1841 1 38.3138333126 8.7665249789 5.4457965602
1842 1 6.9541872901 50.9968150529 51.1012720489
1843 1 47.3606077168 56.3826623935 16.4477957246
1844 1 25.6807607609 45.4073382225 30.6155464694
1845 1 59.3967076553 43.8791188656 11.0035839916
1846 1 39.0745667812 44.6882348889 53.3374972846
1847 1 51.2605704358 47.6678721689 43.3478502314
1848 1 26.7322592911 56.5134244678 58.003595408
1849 1 28.4815469954 55.0047577695 40.142740852
1850 1 25.4423709892 16.5729797131 9.5091267329
1851 1 33.2922056158 50.7292430849 9.1493695577
1852 1 58.8608591191 55.0211984434 8.6494145356
1853 1 61.4412816065 60.3430445891 51.87509934
1854 1 28.2153842281 13.2058122623 11.2225972548
1855 1 59.447380161 42.2211943348 54.0199026854
1856 1 21.911031666 36.4330202169 13.5082619456
1857 1 53.994184774 40.1438564692 9.7343639655
1858 1 42.4393268476 44.5676308024 22.5988977192
1859 1 47.8480149816 20.9901190601 4.9202410602
1860 1 56.6701393202 40.0884866281 22.9819067047
1861 1 14.0371819121 23.9373447258 60.0007849883
1862 1 15.9747153327 8.9380716679 40.8688314721
1863 1 61.6082131634 17.2596127158 50.6314797919
1864 1 24.0026964046 43.1851462764 34.1736018877
1865 1 45.4859011572 15.5447329932 17.781310529
1866 1 42.1941259396 54.474311169 58.4526606726
1867 1 15.7948661035 56.4415552361 44.2303034037
1868 1 15.2001834414 61.1112350777 43.7985595634
1869 1 17.0620310453 37.8856711905 28.7615669022
1870 1 10.9459829162 19.4261412374 60.9070771377
1871 1 28.7495299802 9.3212333167 52.3645029724
1872 1 4.9880001234 22.0597610482 48.2395966042
1873 1 38.2394392631 23.1234139337 22.6534455266
1874 1 54.838883113 55.356059741 28.9941437214
1875 1 25.0758026776 13.6215851622 6.6434174514
1876 1 40.0284194516 59.7507105947 22.0549462794
1877 1 48.7123834126 11.2992812553 23.58381152
1878 1 15.8912789126 22.7193256556 30.0089443187
1879 1 24.0995789473 39.2503645587 7.0305307337
1880 1 45.7488345064 6.5177226277 52.8160930548
1881 1 7.0937451249 46.5783839387 12.0486236856
1882 1 4.390234835 14.542908785 5.2092270059
1883 1 32.289735524 60.6951098776 27.1685830334
1884 1 49.3156387119 14.3348755433 12.1485594963
1885 1 23.0043364812 3.2889539442 6.0232106431
1886 1 56.9469885256 29.232357343 5.3215344238
1887 1 4.2857249939 39.4157694816 59.9044308958
1888 1 26.4233507716 31.8517089976 38.1216535779
1889 1 57.9729452944 57.5475428569 12.1486769297
1890 1 18.9780154399 46.9645636256 17.8200635461
1891 1 42.8315543539 56.022376768 52.1029788238
1892 1 57.2250707815 54.1520152436 29.5858905489
1893 1 18.3062964771 49.815024182 22.9167311759
1894 1 35.0661543311 34.5407573662 9.479122503
1895 1 8.5044665084 46.3160377564 56.9765230219
1896 1 53.7633107389 47.0408953259 40.7358968801
1897 1 14.832616946 20.3114128109 50.810213404
1898 1 22.1952204579 21.7233731166 33.2798751104
1899 1 27.5952772381 48.6029354977 30.0002542482
1900 1 25.9060567102 55.642714634 5.7118771242
1901 1 59.4165538974 18.7988708109 58.5771987774
1902 1 32.702807456 24.7897936682 22.643815989
1903 1 43.270579064 36.3347871903 8.2387558596
1904 1 8.365983189 12.2090376896 19.4257889372
1905 1 55.010570722 20.8786747776 27.7623262284
1906 1 33.8986903332 59.7520610786 12.0472144849
1907 1 15.4682838595 11.2994574054 3.368618404
1908 1 43.4597055307 27.1774492539 29.897734903
1909 1 15.4206059052 24.0340511184 54.8537384362
1910 1 53.1958726222 52.0791985633 19.9980418228
1911 1 4.7354772438 5.7905105188 33.5674694705
1912 1 9.4591001108 46.9660902596 17.8982741806
1913 1 34.4408802721 38.317180164 46.9249885748
1914 1 25.278727567 42.5902874642 12.7413632242
1915 1 8.0312628115 19.0013259668 36.4078307558
1916 1 53.0942340274 8.8602192052 14.2082236375
1917 1 37.091880224 16.064434439 25.3022729608
1918 1 57.3094466687 26.2834876099 37.5986639973
1919 1 52.7852080745 12.2357537847 34.0867598994
1920 1 56.5049105474 41.3373319619 26.584645526
1921 1 56.1166757762 10.6881579192 20.0393196577
1922 1 17.9547596388 33.2164023658 50.857950075
1923 1 17.0381333515 48.8205395603 41.3803125809
1924 1 31.0826377586 50.3176977869 55.4472467645
1925 1 4.603640654 27.4775502696 18.5210821385
1926 1 54.1809038563 49.2729516764 35.6477431708
1927 1 12.5507688402 40.3508915271 42.5854139787
1928 1 54.987847362 24.3482441402 32.2768765683
1929 1 16.1570893798 25.8282570926 47.0983789679
1930 1 59.107821528 61.1243289002 50.1071984441
1931 1 31.0251541166 39.3976847403 26.85850018
1932 1 29.5686865579 24.035460319 40.1701615475
1933 1 31.7922877047 28.0408782179 56.0018259256
1934 1 39.5824074551 41.0035862815 23.0519557189
1935 1 17.4684092745 7.598990521 16.8411975647
1936 1 56.9923765289 7.2459505353 59.7237596328
1937 1 12.2566569273 7.7068178551 34.0174742022
1938 1 57.9913823359 18.9859421934 34.3155201336
1939 1 30.7536481302 21.4772914581 51.783618733
1940 1 6.8818013515 28.9193973718 42.5852965453
1941 1 14.6440776462 20.5569073025 16.4704603679
1942 1 35.134735428 10.5825265894 18.7043956526
1943 1 46.3557302406 19.7763863084 46.2432877743
1944 1 4.4279426949 20.254105319 58.2064615807
1945 1 49.2560999856 47.016234315 54.6184019325
1946 1 55.6781207996 47.3732318057 49.5773390106
1947 1 16.566697027 14.7146551107 30.081635584
1948 1 20.1868159893 27.3342815397 47.474576817
1949 1 59.7017408731 34.2376030825 47.1352530508
1950 1 37.3025557168 53.6421782022 28.8486437572
1951 1 16.8787175312 39.7378305402 46.6731526805
1952 1 15.9204023921 39.9766313288 37.2985629817
1953 1 40.641774022 8.5312413202 43.5142533381
1954 1 13.9237412621 28.014690573 10.9041179144
1955 1 38.3529386298 6.0089542301 49.2587422368
1956 1 56.9645448166 20.5616633546 20.972562769
1957 1 15.9969689592 41.9291962228 61.0589772214
1958 1 4.6598912455 28.488886582 47.2082966163
1959 1 38.3020899741 33.115703238 14.8709002296
1960 1 22.4786459328 26.7206921026 13.5955149507
1961 1 6.7583612488 56.1726915009 48.9932840698
1962 1 56.8690714746 59.6864158164 47.5238988388
1963 1 46.9827070836 4.1063220115 18.0733673578
1964 1 12.5731399001 28.6984464577 52.2319793973
1965 1 29.6703838694 59.0069462502 56.7093033541
1966 1 11.6255111991 24.2642792699 43.2022328339
1967 1 6.7750778911 33.2802861272 6.6443451752
1968 1 46.8561726111 22.813213647 36.3159391319
1969 1 15.2832675613 3.7396362665 60.2261396543
1970 1 19.1362569263 55.3930512573 15.2808014602
1971 1 34.5649486435 23.5400088673 4.2639528443
1972 1 34.2414196676 49.7319987787 49.764410393
1973 1 15.259839601 6.9511105354 31.0471141596
1974 1 49.1810013359 57.440208743 35.9444973349
1975 1 10.2340430191 57.4147844151 27.0436926283
1976 1 47.1929128429 34.2208101085 12.2414493039
1977 1 44.7613958878 26.1118000009 24.9181483581
1978 1 47.3857384612 38.4612709276 30.2943661611
1979 1 61.676852977 59.9663182897 15.3088680393
1980 1 46.3291902955 50.6655941902 58.321370148
1981 1 28.0961306255 50.1003873078 53.4869312671
1982 1 51.8665854196 59.6827753814 5.3388734631
1983 1 33.1472928186 4.4414416625 58.6815383401
1984 1 32.3109909667 6.1624925095 11.8979566525
1985 1 32.7749115545 8.1025918496 5.5588907817
1986 1 51.6835067722 32.1849849445 39.4852900456
1987 1 53.8832689418 8.5314527003 25.6885113643
1988 1 40.9436365384 30.3147408534 28.9074778832
1989 1 26.5736067878 38.1670415812 12.7334951874
1990 1 47.5424533136 40.6994338141 55.8060644727
1991 1 36.124757581 44.6282264291 46.5596533138
1992 1 45.9338508046 23.2884665565 47.929689901
1993 1 9.2659809091 38.5805245301 31.3143925441
1994 1 17.6877748378 21.3982000733 35.0451924718
1995 1 44.1324226772 14.3266552063 46.5895401103
1996 1 28.8753598523 49.0448373258 26.3370372335
1997 1 55.0911887409 7.3385526312 17.2010721733
1998 1 14.7329747188 10.442604711 44.5638142174
1999 1 8.4662301982 15.001251287 40.6295022333
2000 1 42.2950599341 10.335094447 49.3082991253
2001 1 55.7412412441 40.9774573533 49.9150774261
2002 1 36.9553051971 17.85159441 39.8017730184
2003 1 34.4088796747 36.9475545937 26.130882926
2004 1 50.4210391658 34.3088264306 14.6030346781
2005 1 36.1226437801 52.8712280291 60.4971171904
2006 1 6.3667209095 57.5953382447 51.3901581763
2007 1 28.9259149246 32.8051506512 35.8295887676
2008 1 28.6811837501 4.7193477684 9.7857410715
2009 1 41.7263887667 44.6843595872 39.7526858634
2010 1 45.8215257718 55.5084295582 12.354302787
2011 1 36.9048675582 48.4761661585 33.666113514
2012 1 34.7197845617 19.5257834646 39.0948240401
2013 1 60.0280295336 33.2348981239 15.374043568
2014 1 16.9639741688 50.8870148378 31.2646595055
2015 1 36.0255850873 36.8176145531 11.3739101715
2016 1 51.3011436704 55.9023598485 37.2218789813
2017 1 32.9693225235 20.993759495 10.4312723893
2018 1 54.7906179918 6.2871715344 31.3611310313
2019 1 58.2668223406 13.5656281542 36.9675769858
2020 1 44.382849371 21.6876146508 27.1865503413
2021 1 13.0361797375 59.7861167603 5.386275449
2022 1 20.3556264804 18.6263611682 11.0765688404
2023 1 56.2102701842 39.1268246376 59.5141410404
2024 1 56.1068700886 32.3910805353 46.9933935216
2025 1 41.0077551666 8.068694703 4.7484653762
2026 1 38.6729446042 25.8762873471 22.3957966797
2027 1 51.4949674725 7.5637252754 51.1919893389
2028 1 14.980817878 14.4650504507 12.2904190255
2029 1 53.5064252091 60.5071577448 24.1014578815
2030 1 59.2876707573 26.6416007178 52.7495083254
2031 1 37.8169726602 34.1742477713 7.2675171765
2032 1 25.9058805601 41.0207902724 8.2226028975
2033 1 54.586225185 27.6239897008 58.1645965789
2034 1 28.3460875857 50.3771777964 17.5782094895
2035 1 11.4537648734 40.0621228332 23.5183424078
2036 1 56.3560637318 48.2489912751 40.805828461
2037 1 37.368788146 26.8875062261 19.9540043034
2038 1 11.2787304129 5.5938565721 3.3431195059
2039 1 24.339319203 28.8271534478 12.5036193361
2040 1 16.7146043755 18.6048708587 5.9325579414
2041 1 51.1619263923 47.86703919 46.1391830784
2042 1 20.8959962019 59.8383159 32.8678600788
2043 1 8.0649250913 49.7065744508 41.0886080523
2044 1 33.7143199186 7.730768394 61.5137380051
2045 1 37.2202936306 4.540725718 45.6473720617
2046 1 37.1469564816 6.3914171504 18.9582866312
2047 1 30.9797073965 12.3025733808 10.3928716724
2048 1 61.4550800293 45.1050059726 52.4155864949
2049 1 49.6922475779 61.2394723342 34.0592217706
2050 1 59.7185338472 59.1503324134 53.7957810699
2051 1 61.934677974 33.9360928663 39.5452397887
2052 1 4.2660901319 39.687451618 52.7377649869
2053 1 19.9090860336 37.7695295727 36.6887901296
2054 1 4.2047253165 19.8132603913 52.4257444827
2055 1 36.5152235865 9.6769977569 60.0861003425
2056 1 32.1901520134 58.6703821685 14.0912012692
2057 1 33.429485243 61.7839522242 8.0980882793
2058 1 26.919624257 12.711241561 26.9901430047
2059 1 36.6312477709 24.4653252252 25.6138824481
2060 1 24.2278749205 33.6222521446 51.0835983245
2061 1 61.5691078462 22.937340735 22.1372670824
2062 1 37.6015411153 3.8142123377 9.8221454209
2063 1 5.2937144549 61.6706877243 10.5265695814
2064 1 19.5610721969 10.3176555893 25.7068896891
2065 1 53.1857733511 38.9240171815 61.4092222924
2066 1 40.5216983857 34.4880297763 61.8888789538
2067 1 54.3227046688 12.1042283934 27.508024233
2068 1 14.1160971469 51.3514638759 51.3169384607
2069 1 43.8050771163 44.4528396685 61.3303657743
2070 1 15.8598067654 15.5690417039 42.0078765908
2071 1 8.1243698709 12.0845583014 9.0975814348
2072 1 50.0216482231 54.9532045134 19.0804760684
2073 1 52.2111936882 49.9661609486 21.7927762472
2074 1 57.1395205604 9.3128368297 13.9395947691
2075 1 40.1813764357 14.6255231714 44.1248482239
2076 1 20.4027172678 61.3196793363 6.5717243698
2077 1 40.1622935107 57.6947456052 32.5746289162
2078 1 37.5633752651 6.3433340508 8.6393857245
2079 1 24.4259850412 58.7877568369 24.1942889724
2080 1 10.2168390282 20.0367948399 12.0840298512
2081 1 45.8233459892 53.3145390578 17.1232725557
2082 1 39.579178037 59.1199171667 43.0042988633
2083 1 25.442782006 38.3544065471 20.3563310807
2084 1 41.6940358691 45.6470197615 30.7626905009
2085 1 49.3737095208 6.9261559411 12.0004759977
2086 1 32.5754509499 3.4563123715 12.4918172809
2087 1 60.2958363683 58.6090819415 56.6239292832
2088 1 37.5516319266 37.0817222362 5.2674563499
2089 1 59.0417652489 34.8495484523 59.1253778191
2090 1 9.2790747315 12.0324178784 14.9438850784
2091 1 47.9208236804 57.8534568251 55.9266685592
2092 1 56.9286102008 3.499115666 48.6329984443
2093 1 45.6311075378 33.4587261559 4.3120770455
2094 1 39.3087876678 50.0407898648 54.5294461433
2095 1 21.1968018178 30.5635821965 58.4862466207
2096 1 23.2928115917 40.7990173246 35.5597268486
2097 1 44.0030698036 53.942631518 30.7152474133
2098 1 44.5243566 38.7872660046 30.3175592547
2099 1 61.121686649 3.2703248992 35.5791033572
2100 1 40.3087916586 25.5160604383 5.8330155326
2101 1 15.5584139826 47.877549478 21.7079893432
2102 1 28.7589833677 6.2971651155 20.4125816722
2103 1 11.8372435924 5.8752269628 31.8221745012
2104 1 29.357834915 12.6693765592 31.7279342097
2105 1 4.860719949 33.5968278168 26.5003870722
2106 1 31.3781588722 60.5295288047 48.218634745
2107 1 21.3475862843 12.5284564971 25.1789679064
2108 1 39.1753833423 56.8499298328 56.3376266903
2109 1 48.1903920159 18.3102892122 4.3911332004
2110 1 29.7370273155 36.9257119841 26.3542412244
2111 1 53.2797200591 11.0086923439 6.0966299954
2112 1 23.7023018055 21.8878385724 49.58356298
2113 1 12.8566828084 5.4069672114 5.6769054621
2114 1 51.5402380424 28.3196063574 34.1377259885
2115 1 35.3124708563 40.8546807492 53.0149077757
2116 1 34.3973124863 48.4276661705 13.3712171852
2117 1 23.8287188446 19.1495268988 38.1085597554
2118 1 23.3485337329 51.5975455343 45.7773121023
2119 1 36.7624208621 8.2934739454 56.6593941655
2120 1 5.4062038944 36.8951793039 53.1463744504
2121 1 39.1856000468 19.7220733678 30.5043957704
2122 1 16.692174599 14.5001630328 33.7639355238
2123 1 56.5768972124 59.4693989207 37.4856343642
2124 1 7.3371082005 35.6472734372 32.1276774525
2125 1 16.3129821985 13.6752522192 9.3400226584
2126 1 13.2182014844 51.0790771391 6.5352143304
2127 1 29.2457447489 22.4699558623 18.734106299
2128 1 51.3757138699 46.3025916338 56.3972241332
2129 1 16.7875305077 58.2440402639 5.9642590837
2130 1 21.421745467 10.128059389 32.2099395388
2131 1 51.9463226881 54.3527676154 35.0234672956
2132 1 51.1059693843 22.1046206013 46.0822278867
2133 1 53.7738797436 29.461528594 51.4380709974
2134 1 9.4588652441 12.2618239962 40.6578036791
2135 1 38.3018551073 41.9200364188 38.6522176117
2136 1 37.2685587518 13.093193646 61.2149874734
2137 1 34.5980061414 4.6879813112 31.9063155216
2138 1 57.1227275864 19.8761459691 12.6706683264
2139 1 17.5326453361 19.6617713246 43.9514578308
2140 1 13.9981353115 5.300102831 41.6695510083
2141 1 31.485140686 48.8491933063 10.6232172573
2142 1 49.3194552969 56.1650583309 39.4818257607
2143 1 51.0759651544 31.9982658622 54.5548704712
2144 1 36.6645401356 38.4226940605 52.7695307176
2145 1 38.2261692906 58.5921128174 16.9782423251
2146 1 47.0824080275 21.3839906337 44.0883851578
2147 1 42.140752466 13.1770410829 26.5248132163
2148 1 42.6628025795 42.6264569468 46.0687817641
2149 1 20.6536136951 20.426556245 42.0074068573
2150 1 33.8964003821 56.2529572197 47.6495525608
2151 1 10.8048279873 11.1913599744 7.06375851
2152 1 44.8853468258 42.8478188777 51.3019657041
2153 1 37.7577862341 3.6778604343 28.1165640346
2154 1 46.864216798 12.2105056069 49.5845611637
2155 1 13.0553213793 14.8237507254 3.1595262067
2156 1 32.2078844546 18.1316143168 20.9490173753
2157 1 56.9352451871 42.7271560745 5.3575806013
2158 1 34.9393849919 19.8809607379 45.1237365975
2159 1 12.4938136485 38.3451293097 19.2813458736
2160 1 51.056001479 54.5090127343 10.5153546931
2161 1 43.0584943706 21.3364301127 35.1559908707
2162 1 58.5605232368 8.9989726214 55.9044736494
2163 1 29.9654939662 42.9889150899 42.9327232151
2164 1 16.3416359445 10.1248886876 38.1612873453
2165 1 26.5969760314 27.2821411168 27.6501773456
2166 1 31.1112915045 39.2370945862 56.3855395114
2167 1 34.7709855176 3.3927885433 10.5528746596
2168 1 17.0533996915 44.4359879777 24.0239518473
2169 1 4.3579171674 5.4365545528 16.3162116166
2170 1 45.2773981819 46.2269058171 52.9760373253
2171 1 7.3251241236 38.7944881578 11.8838059296
2172 1 52.1203002481 29.3877804282 26.0905445582
2173 1 14.0172182366 49.6670581168 54.7863316732
2174 1 59.7941022305 27.2641150921 16.4546068609
2175 1 19.7493766299 51.2898113487 13.4387413816
2176 1 60.3574888955 54.576478214 54.3141907484
2177 1 39.4129510804 10.4131289314 48.8930546756
2178 1 20.9433218561 26.295113515 11.0911305802
2179 1 24.8494498278 53.7811018968 48.6356994122
2180 1 23.2015658515 54.6100054455 13.6815349053
2181 1 34.451801577 35.5435797582 59.3244274068
2182 1 30.6006911462 57.6996778073 16.1533315115
2183 1 56.3106170117 11.5653853059 12.4875309624
2184 1 24.9283650626 5.8707233925 34.217463257
2185 1 53.4559288535 43.2824398359 37.9323509611
2186 1 8.3876320336 11.1342286325 11.5692018909
2187 1 18.0411906103 24.4907495531 29.3169093803
2188 1 57.4576476006 42.4988068572 56.0270153867
2189 1 33.9603428603 50.1150664809 17.9390235652
2190 1 37.8063449389 17.8200635461 13.0896119277
2191 1 36.7809753369 30.1250859365 38.4009688843
2192 1 40.386826143 22.3885745265 20.8924144837
2193 1 13.7134180694 14.1829754597 29.6150140284
2194 1 21.6894348683 42.3486095577 13.0108141263
2195 1 35.2336143382 37.6997154252 56.2578894218
2196 1 30.7645107184 17.3072319534 42.5495380796
2197 1 58.1570808423 25.7289671655 29.4289408297
2198 1 4.25050085 14.542145468 15.5847190608
2199 1 53.564496018 26.0628302793 25.5217559575
2200 1 58.4838392363 32.0889244355 34.4270231327
2201 1 23.4360216048 59.7497124109 8.1234010454
2202 1 18.3050047099 38.9496763762 4.627092101
2203 1 21.8699886979 58.9312017168 40.7195736396
2204 1 41.3588222714 21.7086352268 16.8974481561
2205 1 29.0007199909 11.8949621012 22.1090830699
2206 1 46.4769802107 26.4470135987 38.8845595641
2207 1 36.0104948973 11.8643707044 45.7099053392
2208 1 49.3807555239 60.3010034373 7.8710954176
2209 1 44.1435201321 7.5954381611 50.8111528711
2210 1 54.55986139 56.6101308604 16.0527498171
2211 1 41.6313264415 22.3416598891 40.9452806058
2212 1 25.9989465178 23.3278067405 51.884082994
2213 1 51.7156248031 52.5602644253 54.7959612108
2214 1 27.7782384521 35.5232050659 12.7189921644
2215 1 37.9784435647 52.5040138339 15.9000864165
2216 1 50.4299053863 31.1442315691 12.7970266488
2217 1 3.2165486291 45.9885747621 25.9374701407
2218 1 50.9289385563 14.4376297552 16.4393405209
2219 1 35.0325096662 43.6685020894 52.2907548066
2220 1 49.0414317577 23.0122632347 11.2999858556
2221 1 24.3886412247 57.8616184454 59.2625987296
2222 1 43.5456667686 52.4910961615 24.9759255836
2223 1 29.6760206719 51.3956775454 46.8305134165
2224 1 18.6723363385 59.6874140001 54.6725974397
2225 1 16.4375790201 4.4192819828 4.0513338289
2226 1 8.5421861117 10.7550949487 46.9624498246
2227 1 18.8726776934 40.3992153651 53.6545674244
2228 1 50.4026021243 19.5074638566 49.3980182315
2229 1 18.0415429104 57.5743763854 23.9556056172
2230 1 21.2163544765 15.1562046386 29.987688876
2231 1 7.7665973198 44.7067306471 54.9426942255
2232 1 55.8741171193 39.251069159 45.2295440775
2233 1 6.6276696345 10.1334613247 18.1473503904
2234 1 42.8368388562 34.803573282 32.606570797
2235 1 47.0237500517 10.1162573338 42.6213485945
2236 1 44.9878074543 46.4375225933 43.1665330848
2237 1 7.650526162 30.7204144823 28.2792679896
2238 1 5.631247362 11.5129512995 34.4756992708
2239 1 5.3873851945 40.8751728749 12.0159772045
2240 1 8.8436610979 22.8839085448 33.3110536741
2241 1 56.100117669 6.2729797098 51.2188228674
2242 1 25.3547069672 53.1476075009 4.6900011654
2243 1 37.7626597196 56.6713136541 11.6892188105
2244 1 31.2719403754 51.8783287581 49.4398245166
2245 1 57.3866004027 14.8938584563 27.9446415588
2246 1 11.8115843978 21.4777611917 39.1767338262
2247 1 6.6974544236 41.804247101 5.9872818989
2248 1 60.2408188274 40.4344453806 16.2613702258
2249 1 14.8297985448 28.2574840967 53.8922525958
2250 1 49.1956217923 9.2648065752 27.3458487282
2251 1 25.5635622426 12.5181223592 10.3277548604
2252 1 29.1805105035 31.6422665553 50.907800547
2253 1 58.6477175252 46.8618681303 15.1980109237
2254 1 31.8086109452 12.4811895596 13.8613254179
2255 1 50.3075985158 16.479033005 4.396288526
2256 1 34.5325957459 47.6796742241 41.7693693857
2257 1 43.092784919 3.8925580206 39.7536253305
2258 1 59.8929224241 27.8724200269 48.5056419382
2259 1 4.0497132482 32.3330097264 41.7387779889
2260 1 27.7825247706 39.551287608 59.1468094119
2261 1 28.6262249259 37.5104715251 43.4057448903
2262 1 60.8716709721 57.2392802211 14.5284644786
2263 1 44.1294868426 13.4580004568 7.9749124017
2264 1 8.5898170927 26.9906127383 7.6496160533
2265 1 16.5330523622 45.0860404809 21.3690765938
2266 1 12.4379153572 6.0859670441 16.6826037781
2267 1 45.6359810233 58.3760941055 18.6679325865
2268 1 20.9535385606 55.9825081338 49.6989412808
2269 1 50.0575828389 50.50617837 10.7645483362
2270 1 38.5340209096 10.9321257768 21.3405402812
2271 1 59.5988105111 32.5223710598 7.5319889031
2272 1 41.5842943708 37.5246809647 17.2587319654
2273 1 7.7893911399 31.5400407935 8.7898883509
2274 1 20.1727826998 35.955359923 59.6177760028
2275 1 26.9013046489 12.2034008871 58.0877364284
2276 1 50.9961104526 19.0208199087 8.2143062288
2277 1 47.7046875351 59.8104841877 37.049662922
2278 1 19.5126896422 10.8513903245 35.9577085907
2279 1 29.3027586574 13.7279210924 20.0366186898
2280 1 48.3000160809 28.6271056763 55.6496432037
2281 1 33.7813743814 30.2044121882 16.1156353949
2282 1 52.0340454267 21.4245638682 18.3155737145
2283 1 35.9831329186 18.8195978034 5.1350619516
2284 1 42.6683219486 40.0078098926 35.9848357027
2285 1 56.7187567416 25.0488517157 40.0393994732
2286 1 39.5196393107 22.62355873 12.6244582894
2287 1 29.6419649902 42.1917772719 49.2619129382
2288 1 34.0903416176 45.7724973335 22.4757688149
2289 1 16.1811632237 58.8081902459 41.329287775
2290 1 15.1984219406 22.045669042 58.238873195
2291 1 24.7183354534 10.3115490532 11.8620807533
2292 1 11.8207442018 8.2165903082 47.699168166
2293 1 35.0804812041 35.6456880865 4.8751466404
2294 1 52.6026578774 25.7842195732 38.1947558601
2295 1 15.0378905032 8.7268677248 21.5270832134
2296 1 31.6104421079 57.1193220182 58.052858713
2297 1 32.8876476042 53.7167484018 52.4949714632
2298 1 59.3974709723 6.3536153437 13.1605416923
2299 1 60.325312148 43.0839186984 48.1516977155
2300 1 54.4061998057 38.9338815859 30.1809255111
2301 1 41.7543379124 16.5525463041 20.4506888056
2302 1 11.881633412 27.1355255355 9.0355178908
2303 1 30.6658079582 15.1152791039 22.1970993921
2304 1 6.6077118307 17.1509868346 18.5141535687
2305 1 39.4175896991 57.2204321628 40.82626187
2306 1 4.6930779201 21.888308306 31.5894802487
2307 1 18.6373411897 25.3692099903 12.5136598905
2308 1 19.6453893674 42.7516409353 26.7547477843
2309 1 39.2958699954 17.0707798325 19.0886376886
2310 1 44.7811246965 41.6102471489 30.8782449518
2311 1 55.9232042743 56.8750018605 39.921789938
2312 1 54.7461694555 35.2083074437 34.5941895564
2313 1 39.8347717996 11.8852738469 5.3503349615
2314 1 14.9956144845 16.5517829871 23.6463447975
2315 1 61.5916550561 41.2947623598 29.9585653965
2316 1 30.7879973954 40.6842849074 19.3149318217
2317 1 57.5711469673 60.9289784641 35.3954375429
2318 1 44.1419934981 23.8806244008 36.0642793877
2319 1 52.2730223654 47.4543782748 13.5978636184
2320 1 31.8288682042 43.3064549632 16.5943525892
2321 1 17.8608129308 61.6341072249 34.0174742022
2322 1 58.5364493928 57.1186761346 34.9461374115
2323 1 50.9362781429 33.6868405064 11.8674239724
2324 1 12.9392971948 50.1710234889 14.6765479772
2325 1 16.9032611087 47.4543195581 57.9019568132
2326 1 21.3752418465 48.9488942502 25.8724707621
2327 1 40.0447426922 33.0344393356 35.450807384
2328 1 6.2985625728 53.6700099145 11.4279882453
2329 1 56.2816696823 36.5377120797 42.2268311373
2330 1 61.2583203925 41.4428458584 60.7635148245
2331 1 41.1554276484 52.3121276826 13.8146456473
2332 1 52.5970797916 20.1632705956 52.2127203222
2333 1 21.7704051873 23.1059163593 20.4715332315
2334 1 38.4626214115 28.2016445221 24.1570625893
2335 1 23.3128339839 59.0497507191 15.06102488
2336 1 47.7169593239 47.0388402416 16.508450068
2337 1 15.1892621365 53.5921515802 59.4033426416
2338 1 33.6746861511 31.6976363963 57.4349829573
2339 1 20.7612413925 21.5248519791 16.9163549311
2340 1 11.7326104463 22.9775029527 32.5379309834
2341 1 57.2011143709 39.813692507 4.4890785152
2342 1 33.7799651808 58.4349282314 9.6718306879
2343 1 9.4565752931 27.1635333978 48.195911385
2344 1 24.8770466733 35.0675635317 28.6254028922
2345 1 17.4496199328 50.9545390343 9.8973027873
2346 1 49.5052349121 22.8689357882 8.3349455453
2347 1 54.42369738 20.6531439615 11.6832297078
2348 1 41.4173040972 18.681965876 10.6276210092
2349 1 47.6653473511 26.7700728411 8.5629189758
2350 1 28.1640071221 33.8927599472 6.5155442384
2351 1 39.5919195592 43.9289106209 22.8299479044
2352 1 56.4856514722 28.141870929 61.3361787269
2353 1 56.1000002356 26.4271086399 18.2199829391
2354 1 9.4312683986 47.2530974528 38.6533332289
2355 1 51.9661102135 3.8300717164 57.5928721436
2356 1 59.6960453539 3.6605924422 39.6945563378
2357 1 39.8552639253 36.1951588954 6.4782591386
2358 1 23.4227516323 51.8485006783 14.0820414652
2359 1 4.3830302968 21.9085655649 44.0202150778
2360 1 43.7473586075 57.1383462266 44.1361218289
2361 1 23.4979089988 31.8168899989 57.9152855024
2362 1 15.228132587 20.5937226687 60.6181910104
2363 1 61.974018158 52.9966468844 33.7868937505
2364 1 37.780157294 25.8681844435 50.1391403248
2365 1 59.7585786315 61.5105673037 11.1059271867
2366 1 32.3818032979 38.4480596717 42.7784157471
2367 1 27.8054242807 31.8319214722 56.4312798149
2368 1 23.8597799749 52.0205993041 36.4175190101
2369 1 27.238162314 14.9456465792 13.3003461373
2370 1 31.0112969771 40.2836021975 15.1738196464
2371 1 7.4426866854 31.5884233482 43.4764397881
2372 1 19.1754209602 49.7667590607 39.9096355826
2373 1 59.9800579958 53.5610904498 4.549903137
2374 1 44.7726694928 39.0170244225 47.0109498127
2375 1 45.6300506374 48.1349047414 30.5490204567
2376 1 23.4562201471 54.3869407305 34.8065091166
2377 1 58.880176911 4.2313181066 37.0117319386
2378 1 4.1923302227 36.0142527656 12.1259535697
2379 1 44.1033579144 3.5827822556 21.3612672737
2380 1 17.9338564963 6.1613123039 42.795619738
2381 1 35.6960670087 23.3064925811 58.8097168799
2382 1 7.1238198148 25.2773183664 53.9362313985
2383 1 37.6045943833 45.381268011 57.289130693
2384 1 10.3618692588 5.8847684254 38.3971522993
2385 1 7.4754740865 19.5619529472 5.185828404
2386 1 41.891147806 42.3274715483 17.9660919605
2387 1 52.810514969 11.7963767744 50.9544216009
2388 1 54.25735299 9.7888530562 18.2489302685
2389 1 28.6646256428 19.7355194904 21.8938276751
2390 1 17.4887839668 12.7681967527 58.9448239895
2391 1 10.5004993699 49.0506502784 21.0443145673
2392 1 20.2764176622 13.276918177 27.9219181988
2393 1 8.7853084489 8.3166494239 48.5923077764
2394 1 7.8863147843 39.5144722418 33.6519040744
2395 1 15.3167360761 12.6738977445 46.1519246007
2396 1 16.2182134567 4.6820215669 55.7725372412
2397 1 29.1554971925 32.684487848 38.5312612251
2398 1 59.5196604095 14.5966345587 55.2396832564
2399 1 5.7383289942 17.2720019379 48.0238127591
2400 1 36.9685164529 8.0680077177 26.8332520022
2401 1 24.3086103728 37.6596706409 50.509407788
2402 1 37.4828159629 9.074447058 19.2727145198
2403 1 58.4315226632 57.4854793129 28.6774845985
2404 1 52.464086483 25.0958837864 42.0213227134
2405 1 35.8353430034 42.6494151736 23.0072723158
2406 1 46.7097331799 14.6615165039 43.1683533023
2407 1 38.962887632 14.4951721139 20.140664669
2408 1 4.5422171219 15.2833849947 56.046626762
2409 1 20.8109157144 3.6882174717 14.3682853413
2410 1 22.8232542014 7.0949077154 60.5036934599
2411 1 34.2895673554 3.492770153 37.2933959128
2412 1 51.9534274079 41.2900063077 44.8736034873
2413 1 25.0218420371 22.0430855075 44.0211545449
2414 1 3.3214324955 55.2089157095 20.5593146869
2415 1 42.8813461091 19.8208935614 41.2110323562
2416 1 58.11415894 60.6137872585 43.2642376612
2417 1 48.4081722285 6.1269512955 53.8151575785
2418 1 8.6606646539 7.6418771932 32.3644818736
2419 1 34.7729818852 24.1225958908 12.3684535099
2420 1 27.6323861878 7.3876750161 40.6782958048
2421 1 53.8327138695 58.849996531 43.9839868785
2422 1 56.4278155301 61.0750655951 52.9938284831
2423 1 29.9822282236 10.7249145688 25.8607861403
2424 1 40.0794442575 8.6600657436 37.3249854934
2425 1 39.7109970117 11.5471831312 55.1305289249
2426 1 42.1015884321 21.2208756618 5.2175060596
2427 1 51.8901308133 37.5084751576 33.3061801887
2428 1 7.8202819918 56.965425567 32.945542263
2429 1 13.2113316314 47.5706960427 46.2766388557
2430 1 47.5849054823 44.9001434323 14.5917023565
2431 1 3.9689719243 4.7921682104 42.1733989471
2432 1 36.9699256535 29.6862960931 29.6308675353
2433 1 56.7775321509 33.6659373639 30.2669454657
2434 1 7.7051972744 38.1897649412 14.515018356
2435 1 20.3656670348 5.9644234905 5.1842371816
2436 1 37.622033241 19.6678191439 52.6910264996
2437 1 32.2576762098 8.0189910227 13.8368405571
2438 1 16.8564639047 41.8832210525 52.0867143
2439 1 56.8701870917 9.3184736322 41.9344807251
2440 1 53.8537931622 29.1310123317 60.5350481737
2441 1 17.550436494 41.2855438391 13.9393011856
2442 1 16.5877176029 52.3789472788 41.9012470771
2443 1 2.6300739735 48.9130183511 50.9086225807
2444 1 45.9907472797 58.6669178837 42.9968418434
2445 1 46.7066211952 60.0216881308 61.0418319471
2446 1 33.5683502209 8.2266837076 48.5593089952
2447 1 31.2630741548 19.2971993805 34.3878003821
2448 1 36.9644062844 40.1546603406 58.2757472779
2449 1 17.122450522 17.8317481679 3.1852465842
2450 1 41.6480606989 9.822497721 52.1468401931
2451 1 35.0513577246 10.0808511682 3.8011654886
2452 1 32.1550394313 13.1775108165 20.6161524452
2453 1 33.2403000596 46.434528042 7.5069579771
2454 1 50.9054518793 13.9159906587 45.0120574483
2455 1 31.0435324413 52.4390731719 23.412123911
2456 1 56.0058773774 60.5409785597 59.6571749035
2457 1 35.1759545461 10.5556343442 48.0278054942
2458 1 14.8096000025 18.0657341877 49.0390243733
2459 1 43.1869077772 12.4294014367 30.4315283549
2460 1 57.1357626921 3.9900570886 8.4637464821
2461 1 3.8161558602 29.4019311511 54.0090400973
2462 1 34.7581852787 31.8720836899 61.1565056477
2463 1 5.9818388615 23.920493035 42.6146548916
2464 1 57.2610053973 26.8021908719 8.9066053923
2465 1 9.4805904203 16.0816971466 12.7139425288
2466 1 27.2457954841 39.5758311855 37.8140368256
2467 1 58.8230455691 61.4890182776 21.5524488246
2468 1 55.4386741274 60.6492521408 7.2536306787
2469 1 35.997753375 31.5405692438 4.9345561899
2470 1 12.0190304725 30.5241832958 54.3836525957
2471 1 45.3224338851 14.843890551 4.3286292811
2472 1 32.1657258693 44.6472506375 5.6572412417
2473 1 51.0658071666 31.5391013264 24.4445982327
2474 1 38.8664161061 43.5445511515 44.6054443524
2475 1 11.1597116771 56.9557373128 54.4147724428
2476 1 4.9251380324 59.8640338113 44.3752162009
2477 1 57.9308454259 54.0828469798 52.4161736618
2478 1 39.430213788 13.2634720544 25.5654998934
2479 1 3.2052397941 41.4757272062 46.2835674254
2480 1 7.894129976 13.6653290982 28.1384066442
2481 1 6.3442148012 34.2586823752 46.1770553451
2482 1 19.0124821384 49.6631240984 53.3283374806
2483 1 49.0649184347 5.9235801591 51.1475408027
2484 1 24.8312476531 55.408963481 37.0854213878
2485 1 39.1195437677 55.0359950499 32.8378558489
2486 1 27.5483038841 48.6566025547 41.9005424768
2487 1 35.4171040024 46.2178047298 32.41673973
2488 1 3.1483798996 26.2982842164 12.8385393504
2489 1 61.0179342533 7.0103615498 7.3392454881
2490 1 7.9545200943 24.3554662934 30.0592645242
2491 1 52.3232251375 57.6446015497 40.7677800442
2492 1 5.1061792105 26.4740232772 36.7631841791
2493 1 24.0090378074 55.9581994231 24.7085297657
2494 1 48.0110712368 5.3633348372 31.9148294421
2495 1 39.3928112548 8.6737173747 55.3063267024
2496 1 53.6017224011 5.196391537 38.3109561946
2497 1 58.9280897321 50.0944569218 50.3867486173
2498 1 37.5301416171 60.9878713067 4.2604533294
2499 1 40.8728829239 53.7107005824 50.3807595147
2500 1 54.9778655243 22.6756404363 25.3932838342
2501 1 4.6490638874 58.607085574 7.9092788827
2502 1 31.4051098341 33.602699486 54.186129642
2503 1 25.7505161917 13.1257814103 42.5533546646
2504 1 13.7950929887 16.9851708948 12.4558826651
2505 1 14.0858580502 29.9113571756 56.313435413
2506 1 6.5296773463 11.0988224669 15.5266482519
2507 1 19.6374038972 20.5103449653 8.8946800321
2508 1 22.786849852 27.3463184617 59.3758632295
2509 1 36.9122071448 29.6028009563 45.8630384734
2510 1 6.8365660116 18.1037826045 60.4366977137
2511 1 8.9544829834 56.4469571718 39.1945249841
2512 1 11.3841855927 36.3383101918 24.0443265396
2513 1 26.9752289648 57.3179018724 46.3193258912
2514 1 53.200687391 52.9662903543 57.2365205365
2515 1 23.4780627567 32.0486447844 10.3324521958
2516 1 40.0062245419 55.882396173 51.7847343502
2517 1 43.8926824216 48.677564414 28.5113750752
2518 1 39.1399771767 50.1871705793 20.7041687674
2519 1 57.3981675911 16.5079803345 32.8658637112
2520 1 22.0276430174 40.2244157714 33.1646142429
2521 1 43.8526963539 60.6132588082 18.0234581691
2522 1 60.2244368702 28.0636602946 55.1173176691
2523 1 52.9739235243 15.1572615391 54.4804764217
2524 1 10.3858256693 60.7131359022 40.5919822667
2525 1 49.375001288 32.1675460868 41.1410420587
2526 1 57.4599375517 29.4900061899 10.0666417286
2527 1 53.3432515205 46.0373683336 17.995978757
2528 1 52.3747196769 28.2103933092 53.507775693
2529 1 5.778773052 57.7338509224 23.7535614781
2530 1 27.8996645723 26.1872509508 49.2564522858
2531 1 43.5786068331 27.7717796159 35.6762794833
2532 1 23.8993550257 59.7827111921 51.4467610679
2533 1 32.9896972158 32.1974916 18.2186324551
2534 1 3.4101587025 5.9534199823 36.0902321658
2535 1 46.9355575795 32.7150205281 46.0716001653
2536 1 9.6745316558 34.8281168595 50.0845338008
2537 1 46.1926739853 32.8876476042 33.2392431592
2538 1 61.0221031384 33.7512527182 55.0219030437
2539 1 25.1485526597 31.8194148167 7.0625430745
2540 1 45.1310174674 39.9017675458 27.2897155701
2541 1 60.8965081331 49.7652324267 26.0735754341
2542 1 7.0689020923 61.6599425696 8.2185749324
2543 1 34.1839947422 49.4241471597 20.7027008501
2544 1 35.743568813 58.8744226751 22.9671100981
2545 1 40.9164507097 51.0885305266 40.5696699235
2546 1 19.5849698907 27.3278227036 4.142937741
2547 1 12.1968246176 48.0903387718 12.5847658052
2548 1 12.7650260513 27.3067434109 32.5678764966
2549 1 48.8749699343 42.2767990427 40.4491832704
2550 1 37.1196532195 37.5007245542 34.2725395146
2551 1 25.5323249622 44.7193547359 47.8957516527
2552 1 9.7977779935 52.3742499434 36.7570776431
2553 1 59.5954049429 43.2300058295 19.9115521347
2554 1 31.0609125823 50.3123545679 17.7201864521
2555 1 11.2420911967 11.5467721144 27.7625023785
2556 1 33.2116463137 37.8241360967 49.6419273724
2557 1 14.6819499129 48.0120107039 35.6022964507
2558 1 16.2081729023 44.2977688835 8.5313646253
2559 1 32.060564273 56.7504637556 49.6642984322
2560 1 4.1401839281 51.0981600642 50.6359422605
2561 1 51.2801230944 42.7710174438 58.2247811888
2562 1 51.4973748569 45.6234156511 24.5135316298
2563 1 11.4805396852 46.2998319492 10.6432396494
2564 1 60.3652982156 18.1516367089 56.0152720482
2565 1 15.4590066221 33.8093235271 48.1241595867
2566 1 33.4830348666 31.6319324174 54.5380187804
2567 1 58.3491431436 42.1813257006 14.9560394337
2568 1 6.5733977956 55.1392189954 7.0324742562
2569 1 45.2961288068 21.1399640595 42.0518553935
2570 1 58.1880245392 38.6575608307 42.3344588348
2571 1 34.0972701874 37.3360242316 6.7013121103
2572 1 57.0649503609 32.543920086 39.8535611412
2573 1 46.081405853 54.7258534799 57.3624091253
2574 1 12.049680586 25.8178055213 60.3557273947
2575 1 61.357727753 37.7110477469 58.1177406583
2576 1 10.6639079252 58.6726721195 19.4635437705
2577 1 17.1923821028 3.6214430874 45.657236466
2578 1 23.2492438058 50.8419204179 24.6392440685
2579 1 5.2482559915 21.0537679548 38.3077267765
2580 1 35.7555470183 21.7012956402 61.2112296051
2581 1 46.8470715238 14.2078126206 57.4113201302
2582 1 51.1870571367 9.9044075071 29.4992247107
2583 1 28.8508749915 45.977125007 22.698246363
2584 1 22.8243111019 42.5288110871 37.7104018633
2585 1 18.5852007667 31.381623157 12.3956393385
2586 1 45.6049786096 51.5984262847 3.5280647569
2587 1 7.2188645251 27.659278433 21.1143048648
2588 1 34.7904207429 44.3265987795 4.5037870467
2589 1 16.6583537841 9.1703901336 29.8786519779
2590 1 46.5578330963 4.189165393 14.0668925585
2591 1 42.1453910847 23.1371536398 31.1943756245
2592 1 27.6504709291 33.3984241127 19.2026655055
2593 1 40.2520126169 18.2915585873 5.3593479738
2594 1 60.982469371 16.5574785063 25.5047281167
2595 1 30.62458884 27.9311367195 21.5186280097
2596 1 14.5403839672 3.67075043 26.6364336488
2597 1 27.3857173624 36.5374772129 18.839150462
2598 1 6.2319602284 47.8360367764 8.8846394776
2599 1 60.4762140478 17.4269552895 13.5487177468
2600 1 22.3106574755 60.1827480185 38.3029707244
2601 1 42.4419103821 24.1140232537 4.7752695463
2602 1 14.8184662231 12.1728094903 7.3556744187
2603 1 53.653862824 30.2305411163 19.0205263253
2604 1 50.2256887297 46.0060136197 60.7016861472
2605 1 19.9012179968 33.7458507825 32.6484945154
2606 1 57.2748038201 25.2847753864 13.1591912084
2607 1 59.3422185646 34.2349021147 26.6444778357
2608 1 47.2560920041 18.7996341279 32.2365969172
2609 1 60.7187727047 39.9656513073 6.2165470966
2610 1 9.4459475717 37.8258975975 3.0411295743
2611 1 61.536872382 42.5342717395 11.6919197783
2612 1 15.5481972781 22.6271404483 52.3406639952
2613 1 48.4807460605 36.5547986372 4.0626778939
2614 1 4.1565071686 9.2093193007 10.956728071
2615 1 35.8617067984 51.820668966 8.3675626681
2616 1 8.4681384907 44.742078096 42.8281487857
2617 1 14.6160697839 52.330388574 55.6332025298
2618 1 48.5308313993 35.8216032974 43.5989815255
2619 1 50.6120445666 39.1197786345 21.6074663655
2620 1 37.7371766751 52.3773032114 38.5487000828
2621 1 44.1154535531 5.9699604746 19.6495582525
2622 1 16.5564803225 4.6442549903 23.2749617172
2623 1 60.6356885848 38.543885314 51.3064868894
2624 1 55.6306189953 32.7120259768 16.1806934902
2625 1 58.1510330229 15.633395199 43.0131650839
2626 1 10.8218558282 22.4661392773 58.857453551
2627 1 26.6746582157 34.1084850756 44.1693554769
2628 1 32.3334207432 15.5795519919 9.2884694023
2629 1 21.5180408428 9.3187672157 17.7860078645
2630 1 16.930329504 6.8690480859 60.9386080016
2631 1 55.9028882987 15.5479036946 5.234293162
2632 1 53.8297193182 42.9431747864 12.394406288
2633 1 49.011955978 60.0606760147 19.7342277232
2634 1 61.3864989324 7.8185087477 50.96757414
2635 1 23.5418290848 60.7848877005 59.1084674116
2636 1 38.9917762447 50.5425240026 13.8485251789
2637 1 42.114212521 17.6595908254 15.7820658645
2638 1 25.5477087356 21.7973561492 40.1809654189
2639 1 21.9058058803 16.5797908495 27.6760126904
2640 1 61.1329015373 46.889993426 13.6993260632
2641 1 10.9592528887 9.8256684224 49.998161546
2642 1 7.2107616215 26.3227690772 51.3784735544
2643 1 48.7358700897 29.0400014582 33.3097619069
2644 1 58.160192827 4.702578281 52.7458678905
2645 1 20.2437711811 7.5025307384 19.5947168617
2646 1 35.3307904644 16.8601630564 6.8551615881
2647 1 52.0477264161 8.0852469386 48.5735184348
2648 1 26.4355638436 31.957810061 50.3664326417
2649 1 18.6817310093 6.3065774013 56.7580969256
2650 1 45.4428031048 46.3077587027 59.9344351257
2651 1 35.5337740705 48.0342056137 58.8532259491
2652 1 49.6465659911 4.8938596503 58.986160541
2653 1 5.8757436697 25.2517766052 32.0531659697
2654 1 38.7124022216 57.2946500621 14.5803113181
2655 1 37.3080750859 23.0052759483 42.6697311492
2656 1 27.9557390137 32.4834418927 15.3262481803
2657 1 14.8481181528 39.5798239206 18.0441851616
2658 1 53.9693476131 14.5622265768 58.1837969374
2659 1 44.3528451411 4.5319945458 17.1114705005
2660 1 40.0279497181 52.584396986 25.9586668667
2661 1 8.154192079 51.0009839381 57.7225186007
2662 1 45.8774827798 27.2110352021 60.2350058748
2663 1 13.4194823065 7.2547345525 27.5702639271
2664 1 54.2449637679 57.5892317086 34.7329371009
2665 1 8.331880534 9.5044293975 44.4514891845
2666 1 34.777796654 28.882112272 42.4480756348
2667 1 21.9048076966 20.0339177219 59.8083703868
2668 1 41.7914468621 11.4671522793 33.459665623
2669 1 60.5562448998 17.5850793426 33.9087896043
2670 1 15.9454157032 24.3056158215 3.1384545708
2671 1 31.8445455611 53.5080105598 60.2679459394
2672 1 58.7559323896 33.3610215795 56.6451260092
2673 1 54.9067008929 19.0719621479 48.977959013
2674 1 3.9049883444 31.1053024019 18.1311445832
2675 1 50.4225657998 33.7285880748 37.5174588115
2676 1 52.8958303233 22.2488287982 61.7051544228
2677 1 32.9906366829 34.7347573183 40.2702147916
2678 1 8.0514730971 29.1617798786 34.7559540443
2679 1 50.6397588455 4.2441183455 49.231967425
2680 1 15.06102488 55.8965468959 47.2520405523
2681 1 3.597311114 8.7424041616 14.5295213791
2682 1 55.5630947989 45.9987914666 21.848968122
2683 1 5.9706885616 20.4297269464 11.7174615396
2684 1 24.5097150447 47.7309338967 10.2942276289
2685 1 44.5550067135 55.2001669223 46.1091788485
2686 1 16.2198575241 39.4929232156 50.3246263566
2687 1 26.9649535436 60.8717884055 38.8681776069
2688 1 57.3504309201 53.3979167612 58.0638387345
2689 1 31.1881516551 45.5005216136 30.9596262877
2690 1 33.716140136 4.4317064349 27.3679849213
2691 1 38.8529112668 53.7030086957 48.5318882997
2692 1 27.2314098944 43.2938308743 18.0870483471
2693 1 18.4249041961 8.3838859086 22.9329369831
2694 1 58.7253409927 43.60174121 58.2657654402
2695 1 51.4983730406 37.8012365866 50.7319440528
2696 1 32.1133505796 10.2897064436 12.0068761172
2697 1 61.1296134025 18.8427321802 23.4846390263
2698 1 42.2037554771 49.8240078359 25.6871608804
2699 1 52.146487893 17.3065860698 61.195787115
2700 1 59.0691859443 34.8145533035 44.2880219125
2701 1 61.6618215037 49.3391841056 29.4307023305
2702 1 59.957099769 7.6349662385 59.9156457841
2703 1 41.3928779531 15.8256923671 48.6476189008
2704 1 3.9216169117 51.2545813332 45.0496948482
2705 1 35.3821675704 54.3043263441 30.9201099536
2706 1 24.7791659468 21.1000367085 57.869897499
2707 1 19.0846449535 5.4250989261 18.1259187976
2708 1 18.0763031924 11.0405167912 61.1510449953
2709 1 55.6351988974 3.9663883898 26.1016420131
2710 1 60.5415657266 38.5760620615 27.8957305539
2711 1 37.8765113865 45.5585924225 17.2960170651
2712 1 18.8399724957 45.2346524297 60.7814821324
2713 1 57.1205550687 16.7084978395 23.8912521221
2714 1 30.384143984 56.7508747725 35.3569781093
2715 1 61.3126920498 60.8428997928 22.1527682892
2716 1 36.0487781809 30.2240235635 51.9235993281
2717 1 26.8323125352 8.7667657173 50.2615646288
2718 1 58.3649966506 61.095322854 14.7894014603
2719 1 55.7708344571 6.0088485401 11.4542933236
2720 1 48.4219119346 45.9491758614 38.855553518
2721 1 32.7348667702 61.3957174531 30.9819973476
2722 1 18.4550258593 49.798407358 4.0806217152
2723 1 14.7854087252 23.518107541 13.9512206742
2724 1 17.3660073627 24.1154324543 49.0506502784
2725 1 56.7431828857 55.6180536231 19.3611418587
2726 1 26.8514541769 25.6391893426 42.5359158069
2727 1 22.070682353 16.2967763914 6.2964898735
2728 1 28.8480565903 28.4975179358 34.5182101562
2729 1 26.9092901191 31.2701788746 33.0380210538
2730 1 15.4268885913 11.4974500926 11.9279608824
2731 1 57.1628310874 39.4436599106 53.8845019924
2732 1 42.7233982062 36.4088876563 36.8867828169
2733 1 61.4388155054 9.5211049382 8.7450053111
2734 1 31.9387271359 42.1551967724 36.8081611656
2735 1 43.3897152332 56.0738125907 26.9684178285
2736 1 15.5972257164 61.0546321861 35.6087552869
2737 1 21.7375238395 26.576249039 21.5379458015
2738 1 37.8255452973 27.0914880161 58.6592259969
2739 1 29.8245151874 55.0849647715 12.9322511917
2740 1 33.6137382242 53.0368091021 35.7597746201
2741 1 41.4801309582 3.9535764075 27.1388723869
2742 1 12.3688645267 8.6890424314 25.2798431842
2743 1 55.6421274671 21.2908072426 61.8947506231
2744 1 57.7158248978 22.1850624701 37.5256204318
2745 1 40.464919344 44.4505497175 12.4785473084
2746 1 8.0442450722 49.9914678431 7.6046919118
2747 1 35.5891439116 60.0987244314 33.8848331937
2748 1 9.6382447398 21.0816583838 22.1715576308
2749 1 21.2774785534 38.714222439 15.2372336744
2750 1 42.912700823 23.5634368277 22.0725612872
2751 1 4.0144480027 61.0448852151 60.946182455
2752 1 44.0840401226 36.3149996649 17.2669523023
2753 1 58.0640736013 12.2672846486 18.6205482156
2754 1 57.0038850006 60.5841353287 23.4928006465
2755 1 26.6741884821 34.5458070017 4.251088017
2756 1 48.8366866508 18.4615434122 45.7870003565
2757 1 58.3778556063 53.670303498 48.4023005593
2758 1 58.4099149204 22.3938590288 7.2156292353
2759 1 10.0929468069 18.3274344864 37.8714617509
2760 1 41.5100764714 32.8556470067 42.3120877749
2761 1 3.0963336582 43.3386317107 42.4850671511
2762 1 29.4643469953 29.5953439364 47.8581729695
2763 1 20.2326150095 17.270651454 31.4386370655
2764 1 35.8660518337 26.7791152117 12.0223186073
2765 1 7.0465486475 18.7160802744 30.8689089977
2766 1 57.8041935201 53.8266073335 11.2552437359
2767 1 22.943271121 23.242902403 42.7719569109
2768 1 3.1026009605 58.2755124111 22.8123328966
2769 1 61.0911539689 24.9742227995 9.1925850434
2770 1 55.4365016098 30.0959037403 29.1187405429
2771 1 7.6481363926 31.911012857 20.8708067408
2772 1 15.5031615749 34.9486035126 31.3111044093
2773 1 52.8053479 25.4842947077 58.2968265705
2774 1 16.9340873723 58.6294566338 26.2583568655
2775 1 19.5806248555 40.177501134 35.0537063923
2776 1 22.5590290849 41.1244252347 48.7419766257
2777 1 27.5328026772 58.5126104156 13.1581343079
2778 1 30.1661876213 26.9594341745 47.8091445312
2779 1 43.3554834015 29.1712332661 26.12477639
2780 1 51.6141036416 55.2700397864 57.6227002234
2781 1 54.9029430246 18.9714391703 54.5480006182
2782 1 54.1340479357 10.9343570111 39.958076854
2783 1 28.7632109696 25.8615494573 24.6626720288
2784 1 6.6966382616 21.6567296706 7.2445706931
2785 1 22.508415296 11.3673926186 49.4064734352
2786 1 48.3015427149 47.4836779044 36.4859239569
2787 1 60.6481952403 48.570993617 5.4873621069
2788 1 26.0158569253 47.0216362507 28.2298872512
2789 1 51.1567593234 26.7097120811 60.3901353765
2790 1 10.9319496267 51.032690952 4.9294126076
2791 1 11.5411940286 15.376333519 36.3551031659
2792 1 50.9804330957 55.2937613302 21.7479166941
2793 1 55.7894476487 22.9300598651 49.1262186617
2794 1 13.7380203635 44.0550340765 22.4033124163
2795 1 28.7414270766 4.4033521441 25.5384902149
2796 1 46.6371593479 39.5030224867 34.1652054006
2797 1 3.8096970241 34.3114099651 9.7788712185
2798 1 15.9982607265 30.5045132038 41.0231976568
2799 1 52.5324914298 31.5982877525 22.1767246998
2800 1 27.8447644647 13.8329652554 34.9628716689
2801 1 36.9346369213 29.0243241013 14.631512274
2802 1 5.2339115035 39.6734183285 55.6505239541
2803 1 26.5571073972 17.8624569981 5.1401761755
2804 1 6.1252778697 37.3087209695 33.9557042416
2805 1 7.8844299784 51.4095934015 34.7716314013
2806 1 39.5605648454 61.1196902814 34.1654989841
2807 1 15.1393529479 57.8873950734 56.0490341464
2808 1 45.5233036903 29.7949219743 15.5584139826
2809 1 42.6122475072 46.9272198091 49.4442869852
2810 1 18.2245628411 10.3660968606 41.921328186
2811 1 38.0908273143 22.3450654573 4.1303958554
2812 1 3.4868168676 27.2806144828 61.8759612815
2813 1 39.834125916 34.7292966659 25.9279580365
2814 1 6.0733194685 44.506976459 6.7286329873
2815 1 9.5729517777 5.7534426708 45.9184083145
2816 1 55.6780033662 52.0574146704 26.6077211862
2817 1 5.7718973273 53.2150142639 45.5368085296
2818 1 23.3913382018 8.4533536275 31.135658932
2819 1 53.5822871758 33.347751607 58.1345336323
2820 1 39.2164263104 57.6480658346 24.0415081384
2821 1 20.2747148781 46.0355481161 45.6641650357
2822 1 6.6846717996 6.0065527174 60.2750506591
2823 1 30.2678262161 55.018791059 18.8390330286
2824 1 31.6964033458 50.7803853242 36.5866818013
2825 1 52.9135627644 8.2741267952 6.0025423673
2826 1 17.7180726512 53.3667969142 60.6992787628
2827 1 51.3408948712 59.6875901502 13.8461177945
2828 1 27.337863258 59.9595071534 55.7434724784
2829 1 47.823119104 42.4834230837 50.8204301085
2830 1 27.2896568534 10.5845229569 25.0509655167
2831 1 25.5969720406 33.2507516309 16.9457719941
2832 1 54.0484977147 54.5020841646 18.9805402576
2833 1 23.8697618127 47.6125610445 41.4783107407
2834 1 56.2155546865 57.8674313979 6.9208949254
2835 1 32.245228271 24.8785145906 40.4129550711
2836 1 23.8438090346 39.6521628858 14.5771406167
2837 1 17.6551870735 28.0022426342 5.9052488077
2838 1 52.5144654052 42.9481069886 27.8145840848
2839 1 60.1115246704 39.3804807494 54.1369837703
2840 1 24.6353100501 45.6301680707 43.2876069049
2841 1 3.3995051458 45.377451426 6.3040936852
2842 1 28.7375517749 17.7161350003 16.8713779446
2843 1 56.4804256866 15.3498522907 13.8284440701
2844 1 38.38364746 30.0401228824 5.5958705547
2845 1 22.2106629481 6.3334990048 25.8180991048
2846 1 5.4352275556 59.6529473016 57.7414253757
2847 1 18.896634104 56.5110758001 46.0030190684
2848 1 59.8175301908 52.887668703 56.4896442073
2849 1 26.1942382372 44.8915707952 26.3787260852
2850 1 7.1540706548 22.3511719933 50.1917504814
2851 1 55.6016716659 38.8869082318 33.3109362408
2852 1 59.9142365834 27.4483093567 8.1331245297
2853 1 30.9892195007 10.4413716605 31.2700614412
2854 1 41.1457981108 12.4796629256 45.3958297508
2855 1 20.533890359 43.8586267399 24.2472514291
2856 1 45.5236559905 17.3446932033 45.3401663263
2857 1 35.688375122 58.8751859921 42.5983316511
2858 1 38.2526505189 50.4641959348 8.1573980104
2859 1 23.4936813969 60.4657624765 42.6514115411
2860 1 33.4181529213 27.774245717 18.7453211873
2861 1 22.3517591602 27.6194685154 56.5296889916
2862 1 45.1758183038 57.2568365121 25.1416828066
2863 1 6.4070475339 12.267402082 12.910995749
2864 1 47.7613491434 17.4541998349 48.2335487849
2865 1 34.8827233836 41.1563671155 49.2632047054
2866 1 15.8767171729 15.679605236 36.4589142783
2867 1 44.3209032603 4.9940949161 8.2249867952
2868 1 51.3859305744 20.228328691 39.3716732455
2869 1 36.5897350693 36.5768761136 8.1234656338
2870 1 59.1785164258 53.6065371698 14.9007283094
2871 1 32.6344025092 29.2964172546 58.4366310155
2872 1 6.3429700073 6.2160597481 53.0260639473
2873 1 52.5296143118 24.0575965121 14.4872453604
2874 1 46.6522495379 35.1737233118 47.3320126875
2875 1 14.0388259795 11.3439059416 48.2772927209
2876 1 45.9890444956 9.0529567485 40.0662330016
2877 1 33.2694235391 12.4770793911 24.4262199079
2878 1 22.5012518595 52.9879568139 57.9137588684
2879 1 59.5158438245 42.858446599 24.5003203739
2880 1 25.7658999651 46.3451025192 37.163866889
2881 1 22.6825690061 35.7468569478 33.6961764606
2882 1 55.301629367 28.6664458603 13.6625106969
2883 1 20.9817812897 20.5815683133 57.0486858371
2884 1 44.7757814775 15.6864163723 50.8777376004
2885 1 31.6559475446 60.6160184928 50.9848955643
2886 1 11.7367206148 61.1122919782 34.4759928543
2887 1 3.8362310974 49.0244039168 11.5116008155
2888 1 26.2841334935 50.8288265955 51.5929069156
2889 1 29.9693105512 48.2271486654 21.2687297662
2890 1 39.1827816456 39.1318742731 35.5462220093
2891 1 52.3898098669 4.8452304855 51.3438307058
2892 1 7.6781875959 7.2571243219 23.056887921
2893 1 11.8292581222 21.6478047333 4.9537741633
2894 1 8.3530009283 6.1493047403 55.0035247189
2895 1 39.5379589188 12.2911236258 42.2990526691
2896 1 7.9562228784 47.2202161049 34.666645955
2897 1 10.0852549202 14.6188294684 17.2035382744
2898 1 56.1935359268 56.0009451752 57.1054648787
2899 1 3.6756773477 24.1384493978 6.6554778601
2900 1 22.7377626971 12.4050340093 31.1206274587
2901 1 24.8227337327 25.2399158333 29.0165734979
2902 1 6.3376033016 40.5515851822 58.2802097465
2903 1 41.4390879901 41.8061260352 51.1520032713
2904 1 55.1610028883 21.0317491951 6.0042921247
2905 1 48.1070143125 54.6238625849 8.236689032
2906 1 52.1050926247 47.5850816324 59.0057131997
2907 1 41.0640644748 24.5152931305 56.6525830291
2908 1 4.3641587518 13.1768062162 7.7092076245
2909 1 52.44975961 14.5538300898 7.311678001
2910 1 38.1786674863 58.2735160436 5.1258610459
2911 1 58.1551431914 31.7161908712 23.1130797958
2912 1 41.3941697203 8.0476858704 8.6229626656
2913 1 28.8235717295 9.0827261116 19.830699249
2914 1 13.8923278316 41.2602369446 39.0223676415
2915 1 41.8513966052 12.5558184758 9.6940255977
2916 1 25.9143357639 25.806414483 6.0551701388
2917 1 28.1559629353 42.0129849431 30.4581857333
2918 1 12.0830316674 19.7237761519 25.960721951
2919 1 25.2745586819 60.4613000079 16.8362066458
2920 1 23.6960191194 48.0903974885 54.6970823005
2921 1 11.5136558998 29.9868081256 8.2991166196
2922 1 6.1706541297 60.9995559285 39.1341055075
2923 1 27.0388191428 39.5031986368 22.567425572
2924 1 22.9061034546 22.4292651944 5.8542357452
2925 1 29.8595690528 30.1756997255 27.2092149846
2926 1 14.7760140544 15.5612911005 50.4327825043
2927 1 32.3153947186 41.2726848834 42.9379490008
2928 1 31.5045171945 47.4879642229 58.3765051223
2929 1 56.1802072376 30.3926579045 20.4172202909
2930 1 3.7826168855 22.7406985317 29.0326618717
2931 1 36.8750981951 36.6529142305 58.3318217193
2932 1 31.6292901662 44.6214152928 51.1407296663
2933 1 4.3575824822 41.5023845847 22.2226411533
2934 1 16.0694840745 12.3556532709 24.498206573
2935 1 17.1795818638 26.0589549776 34.7484970244
2936 1 30.7810688257 20.9119671423 7.275426315
2937 1 44.494939537 14.5859481206 15.2773958921
2938 1 48.242884739 55.0432172031 55.4273418057
2939 1 6.8243881695 15.9710748978 15.917760141
2940 1 36.1478332412 50.5679483305 14.5528906227
2941 1 52.5236252092 35.941796367 13.8028435921
2942 1 6.6547497731 42.3161392267 60.7631625243
2943 1 42.1039370998 53.1188950382 34.0513537338
2944 1 2.9968789133 23.679108712 11.8346013412
2945 1 21.6014772629 15.5760289904 25.0490865825
2946 1 12.0506200531 41.8103536371 14.2731642994
2947 1 38.7279621451 27.5191216879 52.3782426784
2948 1 4.9356248337 43.6879960314 45.5301148266
2949 1 7.6845701003 49.5454558465 55.2466705428
2950 1 28.8602109457 42.6621566959 38.6622581661
2951 1 38.9944184959 7.245245935 39.5930938931
2952 1 6.5509621473 53.2233520343 48.3054767333
2953 1 6.1124658874 30.780422942 3.2294234383
2954 1 55.9502139529 56.9128154105 44.102301014
2955 1 42.1092216021 46.9968578065 58.8992598361
2956 1 42.8320240874 9.9712271032 12.6094268161
2957 1 27.7084243047 24.7175721364 26.9861502696
2958 1 16.286911987 48.9746121616 53.3195886934
2959 1 40.2934666018 10.6236869908 11.1903030739
2960 1 7.1494966245 42.9080622042 10.9285440585
2961 1 13.0691785187 36.2504700198 39.8500381397
2962 1 37.011086055 35.7467395144 28.4337516077
2963 1 58.5788428448 10.7813413103 26.9803960338
2964 1 43.8925649882 58.2385208948 21.0109047692
2965 1 13.7865203516 44.083394239 28.4311093565
2966 1 8.2563004073 22.0551811462 39.6788202642
2967 1 8.6938806869 56.6313275864 19.9050345818
2968 1 47.3601967 39.5636768301 47.8288733399
2969 1 7.7573846708 35.8132655271 27.7209309602
2970 1 57.9653121244 8.914244434 52.455102829
2971 1 4.7945697232 59.0231520573 34.9665708205
2972 1 15.9406009344 38.7939009908 6.1663267095
2973 1 10.1170793675 53.2878816794 25.9269011361
2974 1 28.5114337919 59.6560005696 45.2008903315
2975 1 14.6726139588 37.7926639495 25.9250222019
2976 1 59.3586005219 60.2067631457 18.9317466861
2977 1 20.7870767372 33.397602079 42.3375121028
2978 1 10.8145749583 26.8924384283 44.0588506615
2979 1 12.843001819 31.6035722549 46.7850079798
2980 1 43.5097321528 22.2290412728 44.0351291177
2981 1 22.5436453115 31.3034712393 54.1560666954
2982 1 60.9589239772 39.6409479975 21.312121402
2983 1 20.0909903471 43.1347086375 19.9004546798
2984 1 30.8786559687 30.6309889595 41.0157406368
2985 1 28.9622605573 26.0946547267 45.2121639365
2986 1 6.0188890945 50.767819952 11.4228211764
2987 1 24.4330310443 38.5047799967 43.7935099279
2988 1 25.274910982 60.5738011908 10.4068462452
2989 1 37.4987869033 20.4043613352 46.2525650117
2990 1 21.1258720532 16.6985160018 12.9163976847
2991 1 11.0449205432 5.1922989835 57.4799012271
2992 1 15.442037498 15.9418339849 5.8801885234
2993 1 42.8695440539 16.2771062994 13.5926965495
2994 1 21.8756842171 46.0217496933 35.8779713222
2995 1 20.0737276395 28.147801315 53.4293889084
2996 1 42.9722982659 61.1612029831 61.8497736366
2997 1 36.9551877637 43.0748763278 59.1844468118
2998 1 21.6847375329 43.428526967 32.5503202055
2999 1 18.0272160374 43.9622029856 56.2319366437
3000 1 26.1766819462 27.2986992241 24.2276400538
3001 1 16.7420837877 18.024632503 19.0980910761
3002 1 61.2763464172 51.1205311241 5.3571460978
3003 1 53.7412919792 60.7629276575 54.1973445303
3004 1 57.7951511494 20.0181816483 40.9597249121
3005 1 17.3313645141 14.9148203156 24.5200491826
3006 1 57.9077697657 41.0534954701 51.7318893269
3007 1 19.5136291093 54.6541603983 55.069404848
3008 1 33.7399203965 42.5995059849 8.7826133527
3009 1 21.781737509 26.0630651461 6.0881278183
3010 1 55.7575644846 33.2894459313 9.6324317872
3011 1 38.9339403026 33.660006978 40.9784555371
3012 1 17.5736295875 24.7578517875 51.9048687031
3013 1 57.4340434902 56.8673686905 37.4706616076
3014 1 50.2623866625 15.8805924746 35.594604564
3015 1 39.7576180656 34.697765802 28.9542163704
3016 1 60.6359234515 12.3662222756 8.8898535199
3017 1 15.3933026431 6.3152322418 52.1130193782
3018 1 24.5516974799 29.9097718249 38.3014440904
3019 1 32.2124056399 29.2973567217 61.2731169991
3020 1 45.5251239078 16.9709614552 22.4285018774
3021 1 50.694658953 48.0238127591 23.1950482986
3022 1 24.8282531018 46.5349923029 58.3241298326
3023 1 42.1540224386 44.5739722052 8.3334189113
3024 1 55.3414980012 30.8765421677 8.4595012652
3025 1 22.7872021522 35.586971394 6.1337976618
3026 1 57.6855858011 51.329092816 31.7618137413
3027 1 34.0073749311 49.7880732201 30.8726081493
3028 1 36.1680905001 19.0482406041 11.250252817
3029 1 43.7280995324 33.3852715735 10.7465223116
3030 1 17.9666204107 46.4167956008 48.738864641
3031 1 35.7025258449 11.4389095502 50.8056922186
3032 1 25.7878600081 29.0840389777 18.515445336
3033 1 43.0907298348 39.9223183882 17.2771690068
3034 1 33.3420560878 36.8803239807 12.3217150226
3035 1 4.5856968328 54.5366095798 4.9127488103
3036 1 20.8311729733 54.4975042626 35.9349852307
3037 1 30.6537710362 7.6679885064 26.21566983
3038 1 52.0889455343 45.440865454 15.4383383463
3039 1 22.5445847786 50.9568289853 18.1596221791
3040 1 11.7845160025 7.646832882 7.119662673
3041 1 27.7623262284 57.5428455215 31.5419197277
3042 1 17.2114063112 58.9316127337 43.9632011693
3043 1 9.252241203 23.3044962135 15.9914495901
3044 1 34.0726678932 10.1203675023 21.3751244131
3045 1 49.1871665886 35.6724041816 10.8272577639
3046 1 32.0079541164 56.971532103 28.671847796
3047 1 18.0554587666 34.8844261676 21.8164390743
3048 1 20.7460337692 11.4968629257 45.4441535888
3049 1 42.3739164521 10.3800714334 26.4265801897
3050 1 42.2909497656 15.1577312726 6.2820220805
3051 1 60.8749003902 21.054296405 4.0082768783
3052 1 48.9349196774 44.2667077531 54.3522978819
3053 1 34.7392785037 49.0815939754 28.1510307331
3054 1 7.3047376879 46.9379062472 40.474666315
3055 1 56.7167016574 24.2035074931 27.096655085
3056 1 16.540157082 54.6054842602 11.8175147837
3057 1 10.9751651124 23.5117074215 55.0519072736
3058 1 50.2148261415 57.8595633611 57.6836481503
3059 1 48.0501178374 43.2388720501 37.6464006684
3060 1 55.3997449602 8.5665183091 4.8704375616
3061 1 21.4927339483 6.3751115248 54.0017592274
3062 1 11.8944336509 53.2993314344 34.7396308038
3063 1 40.0139751453 26.6211085921 27.0354722914
3064 1 13.5193006838 59.1069407776 15.9980845764
3065 1 13.3710997518 35.6021203006 27.1815007057
3066 1 4.7883340104 18.8442588142 15.7146003848
3067 1 44.0096460731 8.2515619703 59.6543565022
3068 1 27.2767978977 50.5159253409 22.8954757332
3069 1 26.700376127 47.0316180885 8.5524145595
3070 1 23.5554513575 44.0340135005 59.0416478155
3071 1 38.258757055 32.5216664595 53.6922048243
3072 1 38.2975687887 16.6485480964 6.7567876414
3073 1 45.1446397401 27.0450431123 45.5580639723
3074 1 19.1243374377 51.3647338484 19.601527998
3075 1 32.5655278289 48.3102327854 39.7242669842
3076 1 29.1362381173 60.8597514835 33.1325549288
3077 1 23.5711287144 3.2939877263 40.110094371
3078 1 41.6526406009 56.3676896369 16.8793634148
3079 1 6.4954631295 33.7366322617 10.4120133142
3080 1 36.6088179944 48.2095336577 8.0222204408
3081 1 56.6798275745 41.0999403739 47.1104158899
3082 1 41.1021128916 24.1700976951 34.6635339703
3083 1 39.9496216502 43.7745444362 29.2358803446
3084 1 33.0734859361 51.9109165225 21.2827630557
3085 1 30.6961057715 18.2205113893 46.7897053152
3086 1 30.7033866414 41.580242919 11.4358562821
3087 1 10.3175968726 59.9640283387 47.7282329288
3088 1 14.0363598784 24.2353906572 9.2996842906
3089 1 57.8765324853 40.0009987562 17.8433153564
3090 1 18.716726158 7.0190809787 32.190621747
3091 1 18.6409229079 55.1958806037 22.3403681219
3092 1 17.1302598421 24.7448166817 44.7408450454
3093 1 4.5190886167 46.2601981818 10.5184666778
3094 1 12.015683621 10.8408800366 22.0810752076
3095 1 42.6069042882 11.8121715647 23.043148215
3096 1 16.0762364942 51.641348187 33.8911745965
3097 1 59.6478389494 59.9423031625 47.5905422848
3098 1 48.4185650831 26.3652212459 59.4095078943
3099 1 6.5282505307 33.3233841796 28.8790002873
3100 1 22.2694383573 53.5484663609 49.3875079435
3101 1 25.0843753147 17.2463427432 59.1263760028
3102 1 30.8694374479 9.1001649693 39.7759963904
3103 1 3.6824121523 34.3322543909 20.8066293959
3104 1 4.4458101845 10.6536912207 44.9805853011
3105 1 21.2507624583 14.9690158228 47.2208032719
3106 1 43.2307104298 24.3636279137 47.2104104173
3107 1 31.3557878123 4.9324365173 54.4962124953
3108 1 40.3193019465 34.9536531482 18.2754114968
3109 1 60.2327159238 33.9871176721 4.140060623
3110 1 51.2876975478 34.2705431471 56.1769191028
3111 1 36.1370880864 30.9180548694 58.6703821685
3112 1 30.684186283 16.8378507132 56.3469626444
3113 1 47.1040157704 41.1918319978 29.0927290482
3114 1 60.442569383 42.1514976208 32.6020496116
3115 1 60.369995551 16.6481957963 44.4568911203
3116 1 7.4905055598 30.8625088782 13.3324641681
3117 1 9.3791279756 40.3252323325 21.6343586107
3118 1 13.8391892248 19.7461472118 5.6961880239
3119 1 50.9929984679 55.3819538024 54.8635441239
3120 1 6.0906056628 33.9112557054 43.3378683937
3121 1 18.3926687319 11.2763230285 23.3898115678
3122 1 26.7760619437 48.073487081 39.369676878
3123 1 9.5181691035 19.9097906339 55.474080293
3124 1 38.2947503875 14.3839626983 37.2989152819
3125 1 4.6193591126 18.2523945534 12.9117003493
3126 1 33.8622272671 50.6933084691 43.9297326546
3127 1 31.1764083166 34.7055751221 27.4609921623
3128 1 3.587184246 12.1408676096 21.9506654335
3129 1 31.6698046841 21.5281401139 44.8588068807
3130 1 20.3835756261 51.9759159011 52.4515798274
3131 1 44.8202887304 32.0555146374 6.5461238919
3132 1 33.7303495756 19.8275872643 60.881241793
3133 1 50.5575554759 25.7769387033 33.6733356672
3134 1 15.637211784 59.5584134266 58.2522018842
3135 1 30.7766650737 38.6311970358 7.7264996905
3136 1 55.5356153868 49.9003982529 11.5043786623
3137 1 36.9477307438 21.4617902513 20.5900822337
3138 1 28.1745174101 16.2388230158 42.9174568751
3139 1 8.5484629261 37.0396810843 51.4983730406
3140 1 24.4567525881 22.8355847068 34.6132724815
3141 1 56.1342320673 59.0181024218 21.0490706194
3142 1 45.3834405287 36.7945976096 19.8765569859
3143 1 15.1195067058 16.2683575122 20.7037577505
3144 1 33.0001487871 12.3022797974 17.8274031327
3145 1 16.5274155597 28.4680421561 18.8529488847
3146 1 36.8524335518 29.4414474852 11.5924537012
3147 1 11.2794350132 50.5469277546 54.1853076083
3148 1 41.4134875121 58.1832097705 14.4283525178
3149 1 10.0250115936 33.7696897596 39.8623686451
3150 1 61.4155636952 35.3081258211 32.6167875015
3151 1 19.327673344 21.7827356928 23.7464567583
3152 1 15.7633939563 60.3729901023 28.3504913377
3153 1 21.0321602119 6.2984686261 45.0703044073
3154 1 45.5086245172 57.3837232847 8.9042625963
3155 1 28.2058721239 60.0911499781 22.7994739409
3156 1 26.6430099184 31.2687109573 41.0131571024
3157 1 6.6623653281 24.7495140171 13.9233889619
3158 1 34.9267021863 28.7431298607 61.6107379812
3159 1 13.6480076739 40.5281572219 25.2413250339
3160 1 16.4290650997 41.6353191766 30.0658995104
3161 1 21.2634452639 22.2295110064 61.470992253
3162 1 31.646141857 20.9534211272 41.2706297992
3163 1 50.9041013954 7.7458644557 38.0280004532
3164 1 37.8214938456 54.4332094842 7.0966104995
3165 1 55.3679205129 7.0819959147 14.2674687802
3166 1 10.3952203401 54.5449473501 32.5056955192
3167 1 45.4472655735 59.1122839966 50.0110792184
3168 1 33.977018401 27.2654068594 9.8182114025
3169 1 57.8782939861 37.0441435529 10.4205859513
3170 1 25.5754817312 43.361296354 36.7873754564
3171 1 9.5613258726 37.3835260358 48.6668779759
3172 1 34.1868131435 56.3704493214 14.2773919013
3173 1 24.5362549898 46.0124724559 34.4973070137
3174 1 25.3514775491 51.2224633023 47.8182456185
3175 1 32.8528286055 38.3495330616 53.3174161757
3176 1 58.2576625366 33.0863448918 52.9708115396
3177 1 17.893987862 53.5165244802 32.3516816346
3178 1 41.2059827207 30.0418256665 53.7375341109
3179 1 38.914563794 39.107271979 38.4366099167
3180 1 30.8849386548 39.7152246136 45.062142787
3181 1 42.1893111708 51.3223991131 22.6612548467
3182 1 39.5278596477 34.108602509 9.6593240324
3183 1 16.2883799043 55.8617278972 38.6674839518
3184 1 38.9085159747 38.4628562783 24.1083864512
3185 1 51.30026292 19.3858028696 25.4886984596
3186 1 17.2198027982 41.1201389162 56.0690565386
3187 1 42.6801240038 34.3577961522 40.3958685136
3188 1 27.5703813605 27.5332136941 30.480028343
3189 1 56.9113474932 15.1308390275 35.2125937623
3190 1 53.4597454385 12.6463596157 22.9559539266
3191 1 35.61580129 20.9444374733 49.6187342788
3192 1 59.5407397022 6.9760710014 36.8489692669
3193 1 25.4463637243 15.307576272 61.2189802085
3194 1 6.5686182568 26.5388465058 27.0071121289
3195 1 22.189290072 43.2402812507 21.8612986274
3196 1 54.3931059832 8.5363085708 38.6695977527
3197 1 37.7299545219 51.4434729331 45.5654035589
3198 1 50.8866625377 4.7036527964 6.1171867095
3199 1 56.6842313264 17.524836016 9.2111982349
3200 1 50.3470561332 41.3360401947 60.5433272274
3201 1 5.9458102989 36.6412883254 29.8763620269
3202 1 26.4976861043 45.0474636139 54.2270551767
3203 1 6.4778657368 8.3572813752 55.0988219109
3204 1 61.2396484843 40.105514469 56.6731338715
3205 1 33.7882442345 51.9645248628 40.6700754678
3206 1 54.8500392846 29.7777767001 33.7853083998
3207 1 16.8499463519 18.744616587 24.2070304947
3208 1 12.7865750775 56.145564389 13.5575252506
3209 1 14.2375819837 21.5958991771 48.2732412691
3210 1 12.9507469499 57.3935289724 35.5461632927
3211 1 34.5975364079 26.9563221898 44.5808420582
3212 1 13.7502334356 28.5079695071 17.8199461127
3213 1 5.9692734893 21.349934952 41.1311776544
3214 1 8.091506138 40.5491777978 16.2657739777
3215 1 15.7071433648 9.0487291466 27.181441989
3216 1 7.618002986 50.7130959945 26.4771352619
3217 1 53.749923333 10.6690749942 53.3638610795
3218 1 19.4694741565 41.4911696964 32.4103396105
3219 1 15.5356906226 31.8375582747 34.9682148879
3220 1 44.8417790399 39.5509940245 19.4346551578
3221 1 12.1298875881 51.8474437778 19.3710649798
3222 1 21.7325916373 12.785518177 43.2893684056
3223 1 11.1397480016 32.4515587286 60.447149285
3224 1 46.5825528239 22.5300817555 8.1817008495
3225 1 25.774707469 7.9728220874 32.5679352133
3226 1 48.8575310766 56.3410322585 59.5403286853
3227 1 29.0509227631 29.0367133235 59.0806356994
3228 1 26.3026879684 37.7325380563 41.8768796497
3229 1 39.9401682627 33.2919707491 21.4208647166
3230 1 10.1369256096 24.5060158931 21.1533514654
3231 1 12.3531871698 41.7634389997 27.6053177925
3232 1 61.7046259726 58.5039203451 37.0792561351
3233 1 44.5270575679 44.6990387603 41.0056413657
3234 1 37.4681955065 3.5125236227 14.0554428035
3235 1 49.7025229991 45.1701227846 8.5251641425
3236 1 3.3406510562 59.9561015852 4.8496283658
3237 1 18.3768152249 20.3738286551 17.9325647291
3238 1 48.3607878577 57.2458564906 18.9916377125
3239 1 14.0056510482 61.8192409565 15.5410925583
3240 1 20.359149482 19.7492004798 25.2640483939
3241 1 9.1407969205 61.1631406339 36.04684053
3242 1 58.626755666 57.609782551 20.1650320964
3243 1 10.4118958808 28.9051879322 4.2584687052
3244 1 37.9563073716 16.1691850185 9.5553954866
3245 1 43.7641515816 5.0424422408 54.0795001283
3246 1 59.9278588561 12.2022265533 13.5180089166
3247 1 19.7874250466 4.4293518955 54.9805664921
3248 1 9.4640910297 41.9573802352 43.3001135604
3249 1 46.3829747859 32.7443201577 9.9270134338
3250 1 25.805063999 37.0881810723 57.1406948943
3251 1 35.2124763289 54.4270442315 18.0837014957
3252 1 13.1959478579 9.4046697368 36.2817073002
3253 1 38.0314060214 30.5712740832 49.289451067
3254 1 13.8327891053 24.7387101457 16.5832551343
3255 1 36.3497599469 47.1448238717 39.5071913719
3256 1 60.4868417692 16.24833512 36.2529948375
3257 1 34.2048391681 11.0308285369 58.8568663841
3258 1 40.1445610695 41.829847579 33.155630589
3259 1 17.8449007071 3.6341887199 16.3476250471
3260 1 17.6457924026 42.9710064987 34.113006261
3261 1 58.9612059467 34.7592421791 33.6944736765
3262 1 34.2094777868 54.4100751074 59.1979516511
3263 1 33.2499295972 29.1292508309 32.2744104672
3264 1 45.2441058172 12.3123203518 42.3921186268
3265 1 36.4742393351 34.7978777628 37.7305416888
3266 1 4.8811592297 25.7952583114 20.7831427188
3267 1 50.1739593235 49.6987651307 19.5049390388
3268 1 27.4953414274 26.0754543682 18.1664920322
3269 1 57.9111166172 43.8802344828 26.7052496125
3270 1 58.451427622 29.5733251767 35.7449780136
3271 1 13.7177631046 37.5025447716 57.7281554032
3272 1 50.2592159611 25.6565694836 8.3255743612
3273 1 26.2658726021 8.6583336012 57.7074871274
3274 1 18.5769217131 29.1651854468 37.3902197388
3275 1 19.1588628529 47.7530700898 6.0879986416
3276 1 16.5052793666 3.3176558379 7.8393296869
3277 1 18.7459670709 33.9116667222 17.5789140898
3278 1 46.4974136197 37.1968069535 27.7689612147
3279 1 10.7815761771 28.7616843356 17.3079952704
3280 1 37.7618376859 29.0995401845 61.6574764685
3281 1 47.1658444476 15.2219673343 52.5475229031
3282 1 21.9607059879 39.1320504232 50.5729392494
3283 1 16.9049638928 11.0352322889 14.2277762961
3284 1 23.2080246877 59.4179043813 18.686369628
3285 1 12.8058341527 27.0237876696 55.9783392486
3286 1 53.3309797317 5.3238889632 10.3225877914
3287 1 59.6079115984 55.3704453307 57.9533339191
3288 1 5.5999043915 55.3854180873 29.9727161194
3289 1 18.4529707751 43.8568065224 46.060385277
3290 1 21.1586359677 58.8624444698 52.4115350431
3291 1 41.130296904 28.7382563752 38.4219307435
3292 1 31.3283671169 45.7709706995 13.6865258242
3293 1 48.9865316501 57.0983601589 52.0958153873
3294 1 59.2375854185 26.4150717179 5.4306065519
3295 1 12.1435685774 55.9044149327 51.2568125675
3296 1 34.6604807023 34.1770661725 56.8218632537
3297 1 12.5814776704 26.3012200511 28.3520766884
3298 1 6.7448387945 58.1603102604 60.192201406
3299 1 46.1874481997 8.1133017743 13.9175760094
3300 1 58.5016891108 49.588142882 44.1688270266
3301 1 39.9898425846 7.0775099594 61.0497587006
3302 1 48.7309966042 22.4544546555 32.7769666387
3303 1 34.9693305051 59.570567782 36.4969039784
3304 1 53.2022727417 44.7949231193 55.0229012275
3305 1 18.654662614 33.8257054843 35.5004817059
3306 1 39.9321827926 60.171767997 51.1618089589
3307 1 4.3923368925 23.4943859972 26.2505475454
3308 1 59.661461222 46.8474825406 11.2870094665
3309 1 26.9237931421 61.5809099014 8.2103134937
3310 1 26.8506321432 61.1557423307 19.1549875512
3311 1 45.2161566716 39.1947598509 5.8050487719
3312 1 10.271680419 16.2189767737 53.5807605418
3313 1 50.1369678072 5.0485487768 14.0765808128
3314 1 27.03993476 33.8150190463 58.3348162706
3315 1 44.461529739 12.4536514308 59.6552959693
3316 1 4.6587756283 47.142475204 41.5215849431
3317 1 32.7789042896 4.0995108751 47.280165848
3318 1 18.1095368404 15.7690894754 17.9541137552
3319 1 23.943040245 28.9875087351 61.4105140596
3320 1 51.5925546155 6.6779311233 57.9723581275
3321 1 48.7486703286 16.5283550268 50.5627225449
3322 1 6.9467655001 8.8463561941 11.5276891893
3323 1 16.7534161093 37.55938253 61.2783427847
3324 1 9.0576540839 29.906894707 6.7773913288
3325 1 13.2526094663 22.0513645612 27.2062204333
3326 1 23.8722279138 19.1097169812 50.3182849538
3327 1 59.3881937349 23.4635010169 13.2140913159
3328 1 8.3094155274 52.1282270016 54.3372076919
3329 1 7.807781208 10.8567335435 29.2378767121
3330 1 55.3014532169 51.9186084092 23.639005211
3331 1 20.580863713 42.9120549393 60.911422173
3332 1 51.3832883232 37.6630762091 15.9611517768
3333 1 24.5864577619 7.7224012654 19.1306201238
3334 1 44.2203802827 32.722301398 49.3482851929
3335 1 32.2421162863 32.9372044927 47.0459449614
3336 1 34.7223680962 23.9201407349 27.5696180435
3337 1 14.4311122024 39.420466817 54.4226991963
3338 1 15.6982184275 44.854931579 54.8749351623
3339 1 37.1050914798 8.1434175659 47.8672153401
3340 1 23.6353060593 45.0065967959 25.8068254998
3341 1 6.1954090873 2.8337322344 27.815112535
3342 1 22.0492507602 11.3388563061 11.7030759499
3343 1 42.067239167 13.8253908021 52.1296949189
3344 1 14.8334389797 19.2209851136 13.9370699513
3345 1 26.5094294428 46.8457210399 60.5122073803
3346 1 39.8845635549 16.835971779 42.3744449024
3347 1 49.812147064 38.9647078495 56.0935413994
3348 1 10.6398340813 43.7536412936 26.1716910273
3349 1 42.1056986006 5.6286579558 16.0410064786
3350 1 14.5927005403 17.9760737982 60.2936638507
3351 1 56.2301164263 23.7855033589 6.1895902631
3352 1 28.5426123557 55.8305493335 16.7835377726
3353 1 29.9205169797 11.8237387531 51.5576181834
3354 1 10.1503130155 57.6490640184 61.1347217547
3355 1 31.2426994625 61.3335951924 35.1047899148
3356 1 59.0538021709 10.504668255 34.0064941807
3357 1 8.3473288958 29.7151847058 53.4465928993
3358 1 45.5370433964 42.9320186148 14.9745939086
3359 1 53.7979535876 18.1628515972 8.4594190619
3360 1 12.2852519565 15.243986094 59.1345963398
3361 1 8.5494082649 58.9940285778 14.1725826051
3362 1 54.8456942494 8.7094464821 57.3322287454
3363 1 13.4031003493 26.6420117346 19.7823754111
3364 1 53.0403321036 18.4324199327 20.3046603913
3365 1 10.4006809925 4.0043135015 9.0621752692
3366 1 47.0504074301 46.8388511868 50.8098611038
3367 1 59.1810412436 32.1787609751 41.6020855286
3368 1 4.1010022791 29.4150836902 26.1176716702
3369 1 52.5562716903 33.3481039071 60.8390244911
3370 1 27.5932808706 6.8693416693 53.2554700651
3371 1 50.2782401695 18.870094159 14.0439343317
3372 1 9.6593240324 3.4711359877 51.2162393329
3373 1 24.6340182829 4.3936404031 56.6841726097
3374 1 17.7901180329 44.8687887185 26.7453531135
3375 1 31.4823222848 21.8604765937 47.7430295354
3376 1 14.3088640485 35.5737601381 20.5208552532
3377 1 40.923849013 41.0004742968 20.4701827476
3378 1 24.6048948034 3.491588186 61.2768161507
3379 1 40.9583157115 45.2970095572 35.9747951482
3380 1 47.0160581649 39.8249073953 4.0146065377
3381 1 7.7160598626 53.6286733629 56.7721889318
3382 1 10.4837063958 8.1111644867 9.7409989518
3383 1 58.5153113835 13.2220767861 21.0628690421
3384 1 41.9476919809 40.9605469458 24.7117591838
3385 1 32.9624526705 23.7226764978 14.4972271982
3386 1 5.1332006324 36.2562242556 4.2082718047
3387 1 57.9532164857 30.1054745612 46.5507283765
3388 1 58.6820667903 46.4359372426 23.499200766
3389 1 41.8414734841 35.0875859239 43.9006091751
3390 1 30.8250476284 60.0270900665 43.2095137038
3391 1 34.8380399805 10.2840109244 56.1028186368
3392 1 9.5296775753 42.8071869265 17.3178009581
3393 1 54.3202972845 26.5793610237 40.3773727555
3394 1 21.7611279499 52.6746445424 7.0012017458
3395 1 21.9076260978 4.1828885786 58.1982412437
3396 1 8.3801397836 50.6065251975 3.5316417778
3397 1 24.0887163592 24.262341619 16.894042588
3398 1 55.2243581996 46.8236435635 55.6561607566
3399 1 5.8676172795 35.0567009436 22.4440030842
3400 1 21.8025232182 55.6960881075 42.8462922437
3401 1 14.7393161216 45.6611704844 15.8574580977
3402 1 5.1500112215 52.4553376958 25.9096384285
3403 1 47.9022692056 53.6401818347 13.0613104819
3404 1 6.1254892498 46.870323334 37.728016871
3405 1 17.4477997154 28.2641190829 47.5137995677
3406 1 29.0180414152 11.2353387771 28.4534216997
3407 1 41.4229408996 20.0353269226 24.9946562085
3408 1 18.4586075776 6.6181692736 48.50969339
3409 1 8.9567553194 31.9477695066 18.3547377485
3410 1 15.2697040053 8.6517749467 15.2199709667
3411 1 17.9319188454 21.1073175784 5.4922532074
3412 1 35.5446366586 46.6471411857 29.6881163106
3413 1 8.7226636096 29.8874007651 24.6525727577
3414 1 24.6408294192 4.3480997364 45.7012739854
3415 1 20.1473583719 60.3128054925 9.2544137206
3416 1 22.8895453473 48.1673750724 8.0682132261
3417 1 46.435291359 34.0508840002 19.63628828
3418 1 56.6785945239 6.2751228691 3.817934976
3419 1 49.4505696713 6.1371034116 16.5889506535
3420 1 58.8539892661 25.8120512854 35.0914025089
3421 1 49.9606415795 40.8039495268 50.3139986353
3422 1 9.110910124 43.4998677484 51.8837894105
3423 1 27.1497936918 5.0950171673 55.4578157692
3424 1 9.5621479063 16.9101309617 15.4134424687
3425 1 49.0890509953 43.6464833297 17.7828958797
3426 1 34.1501739273 48.9345086605 6.9817900072
3427 1 9.4925099089 23.977800527 52.7216178965
3428 1 46.888466792 38.7418192845 12.8633765114
3429 1 40.4694405294 39.8241440783 14.1380571899
3430 1 61.5855485201 21.8214887099 46.3849124367
3431 1 32.0172900706 25.3448425629 60.3529089935
3432 1 10.0824952356 40.0379315558 45.1748788367
3433 1 46.5834922909 30.0374806312 53.8340056368
3434 1 39.4510582138 4.3693023341 5.0925686812
3435 1 3.8661766106 57.5594036288 46.0659046461
3436 1 22.0864184266 48.3813387001 37.4848123305
3437 1 55.1706324259 47.3183904149 16.1762897383
3438 1 30.2981240295 57.9080633492 48.0239889092
3439 1 55.0727516994 3.8840499718 23.1367426229
3440 1 42.7970289386 49.9195986114 49.3512797442
3441 1 17.7021017108 23.2111953891 40.5222855527
3442 1 17.3550273412 34.6185569838 27.364403203
3443 1 61.4517331778 20.6081669751 39.7542712141
3444 1 40.2368049935 50.8389845833 17.0822295876
3445 1 17.4148596509 27.5571701047 8.7737823621
3446 1 39.3587555731 47.9111941428 42.0999443647
3447 1 15.9032571179 20.5972456702 46.2316618692
3448 1 49.9946972612 58.858980185 48.9699148261
3449 1 57.0852663365 35.4838648819 22.6074116396
3450 1 30.6461378662 46.8043844883 41.1017605914
3451 1 25.9473932618 30.4846669617 14.3910087014
3452 1 4.7769664587 44.63779725 28.0801009685
3453 1 17.6214836919 31.3513840604 23.9635910874
3454 1 23.7505082101 20.4135798559 7.9181627183
3455 1 19.5000068366 50.210539823 60.0417692397
3456 1 41.0378768299 32.3546174692 47.13349155
3457 1 10.8463994057 37.5825756236 7.8855866973
3458 1 15.5450852934 48.9312205258 14.8151193716
3459 1 47.6558352469 54.793436393 52.7729950024
3460 1 47.2422348646 24.6011956517 3.7631229435
3461 1 50.3697794932 34.4814535067 3.633679059
3462 1 57.538559203 39.6535720864 56.808064831
3463 1 21.1145397316 53.0508423916 46.8246417472
3464 1 44.8796513066 47.8631638883 13.6514719587
3465 1 11.2569465199 52.0137294511 46.3980062592
3466 1 57.0290744617 8.0917116465 37.9134441861
3467 1 39.3289274933 25.2601143755 11.7294397449
3468 1 58.6526497274 22.8928334821 40.2050979795
3469 1 58.6293392004 39.4121290467 48.1593896022
3470 1 24.9281301958 57.2734533361 32.2358336002
3471 1 27.9028352737 16.7098483234 35.2627965344
3472 1 52.8440422004 45.2581391068 21.9389220949
3473 1 54.898480556 58.6437247901 10.7505150467
3474 1 22.4282670106 38.8033543783 37.5021924715
3475 1 11.4719083314 36.3694300389 21.0801904664
3476 1 3.9724068508 24.3358549181 51.6566732437
3477 1 28.0764605335 50.0434908327 35.2326161544
3478 1 30.1033020436 16.982646077 4.3012966608
3479 1 3.8554843009 5.2741441812 9.9236665823
3480 1 6.6696168396 38.0310537213 37.4427711786
3481 1 47.6237172161 19.9151338529 13.2835531632
3482 1 28.7254561363 47.4906651908 10.4014443095
3483 1 27.9215071819 29.7320951133 16.4058720061
3484 1 4.3785384698 40.7070082674 48.8997483786
3485 1 39.3017416647 31.6093264907 19.3017205659
3486 1 21.9017544286 60.1104090532 29.2235498391
3487 1 48.5890783583 11.7440014846 26.3262920788
3488 1 41.100879841 38.1343951001 19.9998620403
3489 1 3.8660004606 33.0900440434 57.3415646995
3490 1 54.6505199633 18.2593231231 28.4716238744
3491 1 54.2118475533 49.6296555836 55.5467128417
3492 1 53.8884360108 23.3462437819 37.8876675581
3493 1 19.2676061675 17.7823674295 55.4723187922
3494 1 16.7326891168 34.7251864975 57.5995071298
3495 1 22.1286944453 31.1576776917 39.3103730185
3496 1 5.9605481888 35.5789272071 8.1886940075
3497 1 6.9032153293 19.1095408312 52.1799564077
3498 1 19.7881883636 12.3396823305 4.1920190243
3499 1 53.598492983 44.0407072035 25.5804139334
3500 1 50.3233933061 26.466624974 23.5657267787
3501 1 51.9818462871 10.3658032772 59.6753183615
3502 1 30.3921881709 19.7236587185 4.6817397268
3503 1 10.6238044242 9.6414741579 12.1095716124
3504 1 45.4875452245 8.3480628545 44.1766363467
3505 1 6.340738773 10.3481882694 43.0674780245
3506 1 7.7284549564 32.8751996654 51.2431315781
3507 1 17.5689322521 24.6201611434 8.2775617217
3508 1 26.7727738089 13.0301319182 46.0636734118
3509 1 42.158132607 25.6427710608 37.0466683707
3510 1 60.5201928505 36.6170383313 16.9802386926
3511 1 55.0787995188 21.0158956881 45.0766458101
3512 1 55.7979028524 58.4748555823 50.0985083736
3513 1 53.5252732674 49.3687773186 15.2142754476
3514 1 10.5056077221 8.2147172457 3.7361015216
3515 1 22.1733778483 14.0812194315 12.3779656141
3516 1 14.3452683979 7.4901943613 48.5653568145
3517 1 58.4456733861 54.1221871638 37.6438171339
3518 1 11.5795947455 57.6221130565 24.3795401374
3519 1 10.1760309268 54.2587621907 54.1609988976
3520 1 7.4508541773 37.9537825539 55.0915997578
3521 1 42.8239799005 9.9392265058 5.6080307817
3522 1 52.3289793734 36.0886468151 9.0371619582
3523 1 9.8712912925 45.4328799838 14.0499234344
3524 1 3.664253428 52.2540568737 20.60417424
3525 1 4.0405710592 12.9999515382 46.7852428465
3526 1 61.3453972476 4.7620993922 30.6248824235
3527 1 10.5134757589 14.269993598 27.3022809423
3528 1 26.7614414872 29.5422053296 46.9681453438
3529 1 15.0735902522 31.2109337318 52.8665306937
3530 1 5.0904548803 30.6170731034 56.327938436
3531 1 47.5851990658 5.6217117711 3.9456437823
3532 1 56.5060848812 19.0815916855 43.2605385096
3533 1 4.6429162497 44.2386411741 38.2345070609
3534 1 55.3656892786 16.2252594598 43.4568871295
3535 1 34.1455353086 15.6961046266 12.8936743247
3536 1 46.8221756461 45.8590457383 34.3846883974
3537 1 60.5203102839 52.0433813809 22.7471573679
3538 1 56.945755475 12.8675453965 5.1605567395
3539 1 33.8392690403 9.5643204239 35.2528734134
3540 1 59.1942524994 53.749747183 60.3363508862
3541 1 27.9767008729 16.1813393738 22.8396361586
3542 1 35.2689617871 47.5250731726 25.8004253803
3543 1 61.6885375988 24.4215225725 61.6195454851
3544 1 48.714790797 24.3343870008 29.7668553953
3545 1 27.875473295 39.41207033 45.4284762318
3546 1 30.3088104675 25.9572576661 17.9986797249
3547 1 21.6705280933 36.5708282943 53.2295760037
3548 1 35.8725693865 31.6055686224 42.120319057
3549 1 24.7656023909 29.6574661971 32.5148553232
3550 1 6.9841445466 8.0742140721 36.4191043608
3551 1 50.7789761235 12.349135718 42.7880452847
3552 1 30.461121568 19.1751860934 59.1003057914
3553 1 29.3955897483 61.2021285178 17.7597027862
3554 1 16.9571043158 15.0310206501 3.6419070291
3555 1 61.3384686779 14.577669067 23.2678569974
3556 1 35.3189884092 18.1641433645 16.5234228246
3557 1 11.958023829 3.7662877733 47.9468351752
3558 1 11.5115420988 45.1701815013 60.020689947
3559 1 17.9797142332 54.7379491185 42.1815018507
3560 1 41.9291375061 34.273420265 5.6043081434
3561 1 18.1693691501 60.5904767315 58.7160050386
3562 1 30.6722080777 10.8032426366 58.4200729082
3563 1 43.6763701262 20.5804526962 46.5492604592
3564 1 25.4057904897 58.4126746049 28.49939687
3565 1 36.055060867 12.1363464242 33.187513753
3566 1 4.4206031083 41.9299008231 4.1744686049
3567 1 49.7850199521 33.1068957342 26.602788984
3568 1 18.5031735472 41.9930799843 23.355579736
3569 1 3.1438571817 31.6779663043 9.454872509
3570 1 28.3955857575 28.4898847658 19.7101538792
3571 1 55.747758797 36.8909517021 38.4288593133
3572 1 27.8910332185 17.5522567114 12.2257132303
3573 1 59.6429654639 37.5600871303 44.4126187341
3574 1 10.5774769538 12.6588662712 46.6137313876
3575 1 10.0495551711 7.0490382352 29.9378971207
3576 1 18.4398769527 46.4829693133 34.5779250325
3577 1 19.6186732722 55.8860953246 32.2017779185
3578 1 3.6433215142 31.9066091051 24.6085352383
3579 1 12.8054818525 48.878845236 52.129283902
3580 1 4.4163344048 8.0284796403 48.797874917
3581 1 22.1616345098 18.3654829032 55.6645572436
3582 1 28.4533042663 44.8455369082 30.6453158325
3583 1 59.0103518184 13.3187244621 26.3046843359
3584 1 57.909237683 47.4271924462 47.7075059364
3585 1 12.525990396 28.4575318682 59.8448334529
3586 1 57.1041731115 10.638366164 39.3785430985
3587 1 7.0836752122 53.287764246 31.6078585734
3588 1 38.0779096419 42.6959775108 24.9243723275
3589 1 37.7715259402 33.3094683234 43.6090220799
3590 1 48.0640336935 48.2543344941 24.6280878969
3591 1 25.0923020682 55.8230923135 8.3727414803
3592 1 10.7950810164 17.7281719223 4.2264211344
3593 1 36.9544244467 53.9081648195 4.324442781
3594 1 25.1521930946 25.8444628997 8.7571714098
3595 1 10.1954661521 13.9013702022 9.6455843264
3596 1 8.2531766793 31.2738780262 36.4575637944
3597 1 30.6570004543 32.4809757916 16.4634730815
3598 1 36.8985261554 18.8426147468 33.766753925
3599 1 53.6119391056 42.6888140743 40.7566825893
3600 1 60.8092551279 39.7535666138 41.7236290822
3601 1 37.3435399682 59.3609491896 59.2804486041
3602 1 14.8417180334 21.3023157143 54.7296113482
3603 1 37.3490006206 42.3396259037 18.7175481917
3604 1 14.5696248801 22.4048390503 44.4763850622
3605 1 6.2382252995 17.1543924027 24.1381558143
3606 1 11.1610034443 15.4221325392 7.2559676031
3607 1 12.5291610974 28.5130778593 36.032513657
3608 1 40.8317225224 16.2280191444 39.8048262864
3609 1 13.2912450499 44.1242023403 38.1693902489
3610 1 4.4463210197 8.1475218627 37.6784012658
3611 1 51.901639285 41.1558386652 6.4958624031
3612 1 9.6774674904 20.8272389549 50.8694585468
3613 1 5.8159994351 50.9385093772 38.2107268005
3614 1 56.5045582472 59.8573401084 12.9515689836
3615 1 18.0243389195 38.8670619897 38.7545608068
3616 1 24.5786484418 12.9791658291 59.8296845462
3617 1 37.051952873 7.0969510563 44.4060424645
3618 1 9.8521496508 58.9912688933 42.6410774032
3619 1 21.1131892477 22.4808771672 28.3201935243
3620 1 45.7271093301 59.0231520573 30.3578389058
3621 1 31.1938471743 6.2990792797 16.0234501876
3622 1 57.7588055167 57.3524860043 46.1300819911
3623 1 32.6024019118 30.5628775962 6.986428626
3624 1 13.1149188222 9.4121267568 9.1982218459
3625 1 10.6063655665 42.797733539 10.3103747194
3626 1 58.282793281 3.5484071551 28.3904186886
3627 1 26.8710655522 49.3595587979 15.4596525057
3628 1 57.480312244 38.1745573178 15.5958752324
3629 1 59.652301418 47.1610296788 29.0513337799
3630 1 52.9220179681 29.6857089262 5.1927745887
3631 1 18.1189315112 7.4866948465 35.6864374711
3632 1 23.017547737 37.5514557765 4.1356157694
3633 1 21.4060093934 57.1472711638 17.7958135521
3634 1 52.0937015864 59.8046712352 46.1224488211
3635 1 50.6208520705 41.6730740099 47.4709363821
3636 1 18.7043956526 53.1939349713 50.5996553445
3637 1 31.3405214723 55.291882396 23.1635761514
3638 1 12.8094745876 46.2134596945 3.6790611907
3639 1 6.1896431081 21.1945705835 28.2388709051
3640 1 14.3697532587 59.7583437647 46.1440565639
3641 1 53.3387303351 5.6780915393 26.1771516797
3642 1 17.3773396843 24.2557653495 16.854702404
3643 1 15.1485714686 38.9718125693 10.4455992623
3644 1 36.3660244707 53.8515032112 45.4267734478
3645 1 33.7208374714 52.0021622627 15.6420265528
3646 1 43.3341105254 41.8307870461 22.1710291806
3647 1 37.2056731741 27.2618251411 32.3320702593
3648 1 5.2533526004 52.6524496326 17.2998923669
3649 1 45.534636012 18.8016892121 52.4666113007
3650 1 17.0768276519 26.2537769635 54.3410242769
3651 1 12.8923238408 44.9414212672 19.7555418826
3652 1 29.6991550488 40.5539925666 36.6424626592
3653 1 29.3879565783 4.9718765197 14.219379809
3654 1 40.7193974895 59.0825146335 6.1350130973
3655 1 55.6363145145 4.6787099454 29.0411170754
3656 1 13.5730851742 53.9299487124 3.1860743721
3657 1 29.6449008249 43.3226020536 4.9699506121
3658 1 59.436106556 46.8561138944 53.6993095441
3659 1 48.8338095328 19.75718595 26.7413016617
3660 1 13.8544555649 42.3646392147 46.3711727307
3661 1 19.5118676085 34.9958117334 25.360285053
3662 1 31.6386261203 10.3858256693 48.8584705437
3663 1 31.2483949816 16.8588125724 30.3815604496
3664 1 40.9646571143 58.6005680211 59.6050344805
3665 1 56.5044995305 31.6434408891 32.3058826144
3666 1 54.4224643295 32.2401786355 38.8234942039
3667 1 17.2356563052 52.936755858 54.5788268817
3668 1 18.0959732844 34.3913233836 10.8377680519
3669 1 51.2763652261 48.2147594433 39.305499533
3670 1 58.6204142632 13.5915222156 7.1570241045
3671 1 14.1290735359 58.0680076197 25.9112237792
3672 1 58.1514440398 21.9867174827 11.069405404
3673 1 52.6462843799 43.7191158784 35.1703764603
3674 1 39.8577300264 47.5897202511 53.017726177
3675 1 50.1143031639 24.8277833683 48.4649512702
3676 1 3.7727700961 43.7864639248 15.8097214267
3677 1 10.2089709914 13.3440313565 12.4919347143
3678 1 4.6355531764 13.9585015441 50.9888295827
3679 1 21.8996993443 29.0020704749 45.5567722051
3680 1 8.7724671082 9.5007302459 8.0264480427
3681 1 50.5291953134 60.1772873661 37.9136790529
3682 1 8.272940718 45.7616934621 8.0001958095
3683 1 6.4500516395 27.3524249977 3.8905381664
3684 1 48.5500317577 11.6946794629 40.8529192484
3685 1 43.3762103939 17.4449813141 53.6005480672
3686 1 23.045438166 42.743479315 24.6126454068
3687 1 4.6825735038 56.7396598842 13.5298109718
3688 1 51.3939747613 13.3395101712 57.523469013
3689 1 13.2174968841 40.7192800562 11.8387702264
3690 1 34.1472380927 54.9920162472 11.8328985571
3691 1 14.4319342361 58.1478036048 21.9328155589
3692 1 33.1772970485 32.0882198352 41.4152490129
3693 1 58.8339081573 9.6565643479 48.2994876306
3694 1 28.4119089981 46.682782218 5.4877378937
3695 1 39.7087070607 24.5621490512 43.4334004525
3696 1 59.0590866732 38.7808071684 39.6727137282
3697 1 33.4251989245 23.9704609404 47.4798026027
3698 1 20.6485640595 11.9181551947 18.438291602
3699 1 14.8430098006 26.7213967029 36.4887423581
3700 1 32.191561214 10.5029067543 53.1200106554
3701 1 55.0349381494 9.4177048426 33.7374542954
3702 1 30.5597656114 3.8181052544 44.9658474113
3703 1 40.3084393584 19.1354936093 39.6334322609
3704 1 54.4132458088 41.3234748225 60.472749763
3705 1 13.0711161696 25.0604189042 53.8139245279
3706 1 25.3030949944 43.9696600055 41.1085130111
3707 1 9.1694506665 32.5436265025 5.5242831631
3708 1 7.1760483129 37.9939447716 6.9469768802
3709 1 49.7581277069 43.6494191644 23.4939749804
3710 1 43.5920529557 59.1909643646 12.9495138993
3711 1 61.1634929341 47.1302034153 35.6601323929
3712 1 54.4263396312 52.6466366801 11.8751158591
3713 1 4.9486070944 52.7708812015 57.0687669459
3714 1 23.6377721604 57.7394877249 43.5743205146
3715 1 32.7772602222 57.5773709368 5.5036618607
3716 1 21.4686013876 19.0225226928 7.2212249361
3717 1 22.5122905977 10.02436571 46.9063753833
3718 1 32.9826512127 49.6342942023 58.8720152907
3719 1 9.0245378693 13.2620041371 44.2459220439
3720 1 17.6015787332 11.4006849833 10.0708106138
3721 1 15.173702213 57.1911325332 9.8752840276
3722 1 34.8198378058 16.3055251786 38.5003762448
3723 1 61.7204207629 42.571028389 8.7047197883
3724 1 48.7252423683 8.6642463722 15.2242572853
3725 1 56.8456435142 33.0971487632 20.8520173992
3726 1 39.7253826014 43.0941941196 8.452989584
3727 1 43.8279179097 23.9781528271 56.0380541249
3728 1 17.0035492196 43.3978181368 18.205479916
3729 1 47.8544738178 15.4448558992 26.0450978382
3730 1 6.5491125715 48.2833992569 25.0313541413
3731 1 49.9114369911 52.2096670541 29.7484770705
3732 1 44.5660454517 41.7723052203 11.2745615277
3733 1 38.299036706 61.6584746523 42.5430792434
3734 1 42.7949738544 26.1191395875 21.3471752675
3735 1 8.7571420514 17.2073548594 34.1342617037
3736 1 19.0123059883 58.5302841401 40.6956759458
3737 1 51.7529686195 39.5486453568 31.3030015057
3738 1 11.5769524943 37.9247177911 43.9561551662
3739 1 11.8365977088 38.8833852303 49.6782142883
3740 1 54.6902711642 45.7923435756 38.3718454048
3741 1 5.2811490826 25.5265707263 24.0657581324
3742 1 41.1076322607 27.0696454064 48.6058713324
3743 1 42.4081482839 34.3562695182 20.2667294079
3744 1 25.1688099186 34.5037658499 56.4062665039
3745 1 6.6449440854 16.9971491001 40.2864205987
3746 1 55.9393513648 7.3961360915 35.5593745485
3747 1 41.6676133575 56.5477150162 39.0743319144
3748 1 4.2270435314 37.5920290111 31.8579916837
3749 1 11.1829634873 59.3153263195 36.7296569476
3750 1 37.2626283659 22.7449261335 17.9009751485
3751 1 14.47109827 25.955554882 12.7596241156
3752 1 48.2892709261 26.8826327407 49.0888161286
3753 1 28.7594531013 7.9368581132 36.637354307
3754 1 25.832954428 12.2221902287 36.6017132746
3755 1 24.7252640231 37.0683348303 53.1427340154
3756 1 10.7777595921 15.7267547401 39.0823761013
3757 1 32.7107929262 17.2697119869 53.1027479478
3758 1 11.9155716603 46.88388689 49.4732930314
3759 1 26.4604597213 47.7427946686 53.5927387471
3760 1 22.0960479642 26.0647679302 53.9544335732
3761 1 29.3232507831 34.5334177796 32.3291931414
3762 1 43.8639699589 8.9670366123 38.1109084231
3763 1 48.0144180883 22.8123916133 13.9121153569
3764 1 28.7919234322 23.7498036098 59.9681972239
3765 1 47.3522112298 39.7762312572 25.5487656361
3766 1 58.0185681646 36.157227912 39.8745230005
3767 1 52.8261336092 10.6460580507 43.5447273015
3768 1 12.2075697723 61.7645757157 7.1821607206
3769 1 22.2608657202 56.8648438727 22.3454764741
3770 1 40.4180047067 19.3278494941 48.1646741046
3771 1 27.0453954124 3.4714260481 11.9422290387
3772 1 30.6023939302 24.1207169566 37.5241525145
3773 1 33.1299126776 16.3537315831 23.2594017936
3774 1 53.3396698022 36.5755843464 28.4847764135
3775 1 31.7880601028 24.2282272207 6.5597050629
3776 1 10.3879981869 50.2353769839 48.5804470045
3777 1 59.7494775442 9.1898840755 4.5689978054
3778 1 20.6445126077 23.7393520385 58.972420835
3779 1 29.0358912898 46.2418785737 38.8392889942
3780 1 23.7151020445 41.2519578909 58.2826171309
3781 1 8.0953403381 21.0067946008 15.0673662828
3782 1 47.227085958 38.0029871422 7.3373371956
3783 1 34.8989879074 9.7026569515 30.5015186524
3784 1 40.0644715009 18.3232656013 27.9807523247
3785 1 12.2403336867 50.6576674367 59.0038929822
3786 1 53.9658833282 59.0426459993 58.169352631
3787 1 7.745112882 4.9419192631 49.5950714517
3788 1 38.2380887792 25.298221509 39.5611520124
3789 1 30.5505470907 20.5449878139 37.8943025443
3790 1 33.2690125223 17.6453813858 47.7183098078
3791 1 16.2456928689 31.7039190824 29.5684516912
3792 1 15.9243951272 50.5521535402 27.9208612983
3793 1 58.9151720598 46.1487538993 57.062249393
3794 1 30.5410349865 8.3757888767 50.3958497047
3795 1 26.0443345212 40.7803454164 51.5100576624
3796 1 37.675700298 6.309759846 3.8048881269
3797 1 51.6698844996 57.7288600035 11.7442950681
3798 1 35.4205682873 14.3839039816 50.4330760877
3799 1 52.0053329641 36.9267101678 18.7048653861
3800 1 9.4421309867 57.3368673641 35.2470604608
3801 1 40.1130889223 27.7465314381 17.6536604394
3802 1 6.4315206514 21.1270463871 45.9050209086
3803 1 32.2245599952 44.2355291894 41.0760426801
3804 1 43.8229857075 24.769007959 51.7657101418
3805 1 19.465363988 19.2953791631 3.5741908291
3806 1 28.6626292752 47.5315320088 58.7058470508
3807 1 3.7842961829 35.2347886721 46.4493833652
3808 1 21.4402999418 44.6637500281 5.1460772031
3809 1 22.8833213779 45.291901205 55.638134732
3810 1 4.4614875414 13.1135096216 40.4968025081
3811 1 60.5811994941 47.1822851215 48.7215432167
3812 1 15.6360961668 44.648307538 45.7148962581
3813 1 59.7366185885 5.7095460715 56.5747246948
3814 1 14.6795425285 34.0831781811 36.615570414
3815 1 47.277875897 56.313435413 34.2073052692
3816 1 29.2938337201 12.1184965497 4.9479377241
3817 1 4.2978910926 10.9858515505 19.3590280578
3818 1 22.6199182951 32.8264648105 37.0827791366
3819 1 29.9079516075 15.3680544653 14.1486849112
3820 1 45.2434599336 55.6668471946 18.5021753635
3821 1 7.2109201566 6.5055271707 42.2348753242
3822 1 9.2702085109 47.3686519037 44.1700013605
3823 1 12.0153313209 50.569005231 36.0289906555
3824 1 49.9821906057 57.4936409332 61.8706767791
3825 1 52.0533045019 59.6865332497 56.3358651895
3826 1 38.2250536734 47.8161318176 22.0859486931
3827 1 20.9922915777 32.2132863903 21.3728344621
3828 1 28.2446838577 44.3280666968 41.0082836169
3829 1 15.0037173881 52.3190562524 19.5412846715
3830 1 17.3328911481 11.4430197186 26.9607259418
3831 1 9.4615662119 46.3510916218 48.0332074299
3832 1 57.349491453 41.5036763519 60.8536449475
3833 1 3.7341227691 11.6363737872 12.2312913161
3834 1 33.8472545105 24.8608995829 43.0021263457
3835 1 20.2297966083 32.91594905 49.3253856828
3836 1 53.3247557623 44.9489957205 47.0198160333
3837 1 48.6894839025 33.822710933 60.0565658462
3838 1 19.7320552056 22.6749945527 51.8092779277
3839 1 14.5146660559 17.6157881728 34.6729286411
3840 1 4.4663610268 48.2295560498 27.0633040036
3841 1 4.0265260263 43.516190989 49.6367603034
3842 1 25.6125906809 8.2632935654 54.7764672689
3843 1 22.268733757 45.166423633 12.9700647417
3844 1 30.7235851837 47.6391009896 8.1029441498
3845 1 36.812095184 10.1666949727 24.7178657198
3846 1 56.1162060427 20.7467970862 35.4347777269
3847 1 3.7170420832 4.2778628288 27.1436871557
3848 1 59.2336514001 54.8461052662 45.8878756343
3849 1 19.5615419304 43.0438739141 14.9088899296
3850 1 61.6528378498 53.5298531694 16.2018314995
3851 1 31.2911994505 61.2876787388 59.8895168559
3852 1 38.1377419516 10.3912863217 58.0613726334
3853 1 8.1052986891 33.941494802 3.0978020452
3854 1 9.3114276291 4.8570149257 32.8354484645
3855 1 42.7839351162 46.1301407078 28.2032298728
3856 1 24.0471449409 9.9988826654 44.4369274448
3857 1 11.7898005048 25.7994859132 49.5785720611
3858 1 25.8818067162 16.2749924984 25.7164017933
3859 1 11.5628604881 51.149948187 26.8485183423
3860 1 61.7520690602 44.311038856 35.9050397175
3861 1 47.9057922071 17.0824057377 54.7613183622
3862 1 18.0097184631 38.9149748109 59.1334807226
3863 1 52.9477945962 55.1788527629 8.4003030958
3864 1 15.1754637138 33.5363496234 61.3543809016
3865 1 24.0874245919 47.23166586 31.941193237
3866 1 11.3268781008 16.2540306392 33.6630015293
3867 1 8.4811442381 23.5595615259 23.2636881122
3868 1 15.222026051 22.7207935729 18.0124781476
3869 1 25.1891846109 60.3687625005 4.6762438444
3870 1 59.9016712112 49.8753849419 19.5948342951
3871 1 4.0605523496 47.8551784181 31.7375637473
3872 1 31.141002151 45.6907049808 24.5346109224
3873 1 53.1771419972 11.0277165522 57.3276488433
3874 1 14.3375765111 36.5459324167 33.3936680606
3875 1 30.2364715023 54.6169340152 42.2709860901
3876 1 51.628547948 15.5046294922 27.2847833679
3877 1 17.1802277474 26.3519512734 57.3585338236
3878 1 19.8363947682 7.5339382973 26.2969924492
3879 1 14.8087779688 41.6064892805 21.2977358123
3880 1 22.533428607 15.8943321807 54.2925830056
3881 1 52.0385078954 53.9905443391 40.8318399558
3882 1 22.928944248 21.2987927128 40.7555082555
3883 1 24.7220933217 4.4790086024 31.5905371491
3884 1 38.9658821833 30.781949576 59.7622777831
3885 1 4.6177913769 10.5244557804 6.9221044893
3886 1 59.9222220536 52.979912627 42.3700998671
3887 1 55.5763060547 46.9798886823 6.1513656962
3888 1 42.0722300858 27.8948498035 57.6298049432
3889 1 6.9637992126 12.8269134453 41.9462240636
3890 1 61.6735061256 11.1679907307 4.9203937236
3891 1 54.639128925 59.2264292469 41.0526734364
3892 1 50.7721062705 54.9329472545 15.4506688518
3893 1 49.2727755263 51.2112484141 16.3095766303
3894 1 20.2733643941 42.3207778454 36.5335431945
3895 1 4.2018070969 21.4646086525 19.1885147826
3896 1 27.6377294068 57.8749471346 5.1810429935
3897 1 28.9296727929 20.428846196 9.975278555
3898 1 32.1865702952 5.4615150188 37.1582300865
3899 1 49.0309214697 49.8294684884 39.3595776068
3900 1 52.6883842485 7.1953543614 61.9540544825
3901 1 14.399287755 34.0951563864 23.1012777406
3902 1 20.4398849342 38.5046038467 41.8795806176
3903 1 49.6499128425 43.6801279946 20.7725149975
3904 1 11.654164945 25.8381214969 46.5213700302
3905 1 37.5943189621 17.6334031805 46.9103681184
3906 1 44.7099600651 10.6202814227 7.8464872517
3907 1 17.8685048175 17.0818772874 15.445854083
3908 1 12.4831272104 58.8776520932 28.0926663407
3909 1 36.6678869871 32.0927997372 23.666308473
3910 1 15.3359951512 9.4878125735 7.5238918712
3911 1 41.2129700071 16.7645722809 30.2837384398
3912 1 25.1580647639 54.5302094603 32.2674231808
3913 1 30.2815659222 49.2929740685 49.8139085648
3914 1 46.6898282211 49.8232445189 16.9107181286
3915 1 18.2949054388 58.5690371572 8.2997801182
3916 1 17.1088282493 18.9261686003 8.8726788874
3917 1 38.417644425 23.5550403406 54.0271835553
3918 1 3.2872905003 37.1460170145 20.8504907652
3919 1 46.7673342553 15.2105762959 46.5665231668
3920 1 61.5217234753 21.9119124164 60.0492849763
3921 1 36.1070838566 27.2209583231 47.0947972496
3922 1 17.1061859981 40.7650203597 40.8471650125
3923 1 18.8258217728 10.5345550515 6.2653113098
3924 1 20.7853739532 47.9406699225 34.1396049227
3925 1 26.0310645487 35.3493449392 46.916357221
3926 1 38.3928659807 14.1385269234 47.4069939039
3927 1 13.4704483956 49.5512100824 10.541718488
3928 1 46.661585492 6.0278551334 11.8696552067
3929 1 23.2768406513 47.540280796 29.1950722433
3930 1 28.7283919709 56.3529517471 55.9006570644
3931 1 33.4120463853 18.5483266838 31.3181504124
3932 1 57.236050803 44.0364208849 22.8660586703
3933 1 47.4277796131 49.3732397873 3.6072453912
3934 1 47.624128233 6.5308516801 57.8439447209
3935 1 30.098252408 48.9875298339 42.9724156993
3936 1 21.7504415119 38.2857667335 11.2225972548
3937 1 14.2563713253 18.9098453598 21.9255934057
3938 1 34.2103585372 36.4371303854 38.3384943234
3939 1 56.7366066162 6.7397245705 40.619813979
3940 1 34.073842227 47.795228675 16.1392395053
3941 1 50.2760676519 50.3470561332 43.4011649883
3942 1 11.7144082716 15.0765848035 46.8930466941
3943 1 34.2355479983 3.2610024499 51.6548530263
3944 1 44.4548947527 48.6070456662 58.7881678538
3945 1 24.5627362181 9.9207894643 9.0147908983
3946 1 4.6808589764 55.4383218272 51.8805599924
3947 1 37.3743075151 61.9006222923 6.9481747008
3948 1 44.5685702695 57.2808516394 34.9263498861
3949 1 40.7954356064 36.5554445208 23.2185349756
3950 1 37.3610375426 33.1636160592 49.9870640911
3951 1 52.1703268701 43.8920952546 19.3432332675
3952 1 31.0425929743 10.4364394583 20.8738012921
3953 1 5.8532258181 23.3150065015 22.1289880287
3954 1 50.9045124122 19.8460830225 44.5380963061
3955 1 35.9130839044 41.9651895553 5.8869174563
3956 1 61.3886127333 29.0967217832 50.6172116356
3957 1 14.6155413337 40.1086264537 4.0696299503
3958 1 6.9073372411 13.3436790564 46.3042357012
3959 1 43.2581311252 22.4883929038 38.4218133102
3960 1 21.7571352148 6.6174646733 22.9171421928
3961 1 13.202993861 57.2168504445 40.3322783356
3962 1 58.2497944998 20.0647439855 3.2096846478
3963 1 23.9543138499 22.5558583835 9.7146351568
3964 1 57.1949491182 47.2877990181 44.8866973097
3965 1 30.5109720399 23.1210065493 42.7314423931
3966 1 47.7524829229 11.6252176156 30.1934321666
3967 1 19.0686152965 39.5194631606 49.4369473987
3968 1 21.9745631273 34.3300818733 15.5213637496
3969 1 19.6769789479 26.9207398741 25.5448903344
3970 1 28.2977050311 14.2640044954 51.1868809867
3971 1 7.1742104804 7.365397903 46.2497466105
3972 1 37.0176623246 15.143521833 12.0732259797
3973 1 33.2015470425 18.4351796173 50.5684767808
3974 1 18.7466716712 60.3064640897 23.3594550377
3975 1 3.952519507 61.5206665749 19.7736853406
3976 1 13.3906524104 54.7977227116 56.5338578768
3977 1 5.9312368159 37.7921354993 21.6102260501
3978 1 15.8597480487 30.4129151634 11.5848205311
3979 1 17.486259149 29.0602587172 54.4108971411
3980 1 47.0838759448 37.4164661004 45.7150136915
3981 1 58.9733603021 18.572928978 15.7810676807
3982 1 5.7538536877 45.2387625982 47.9505930435
3983 1 27.8325513927 17.5832004084 27.1425715386
3984 1 50.4569150649 5.0611963524 26.2076256431
3985 1 8.5643810215 61.7754383038 59.6347451269
3986 1 27.8259164064 22.1141327055 11.976167287
3987 1 60.484199518 35.9737382478 52.0465520822
3988 1 59.5466113714 33.9545299078 20.0800103256
3989 1 27.1644728649 10.5222832628 5.7460326242
3990 1 3.5171733976 56.4196539098 16.9749541903
3991 1 56.007110428 51.5482235126 29.6178324296
3992 1 57.8919162587 5.9997180944 47.8235888375
3993 1 20.3862178772 47.6883642946 48.1252164872
3994 1 42.2938856002 7.7577252276 34.6669395384
3995 1 31.9567531605 43.3336407918 19.6523179371
3996 1 57.5663321986 20.2586265043 9.1224773125
3997 1 58.0182745811 52.1716773541 8.1804854139
3998 1 44.9447681186 54.9744012394 53.5259778677
3999 1 19.1411891284 43.3693992576 38.9182629457
4000 1 7.7794034305 24.8609582996 11.3734991547
4001 1 39.5134153413 57.6545833875 49.6014715712
4002 1 42.0941901288 29.2541999527 11.06805492
4003 1 40.9290160819 30.826456829 40.3112577596
4004 1 34.7062797225 40.1063365027 23.6944337687
4005 1 32.0262150078 10.2707409519 7.2576469005
4006 1 58.1203241927 10.4982094189 29.7466568531
4007 1 43.1013575561 60.9420722865 10.608949101
4008 1 14.5252937772 51.2634475537 3.7871263275
4009 1 33.0567516787 56.0503846304 20.9584707628
4010 1 8.3910610884 47.0145315309 27.0271932377
4011 1 56.5724934605 37.4971428359 35.6465688369
4012 1 36.746391205 56.3813119096 24.1211866902
4013 1 29.5749105274 23.3260452397 23.8859676198
4014 1 10.8775779694 44.5620527166 46.1144046342
4015 1 54.4602778795 24.1322254284 60.1394150994
4016 1 9.9598947816 42.7092474833 37.3038474841
4017 1 16.2129289544 60.4851389851 55.6748913815
4018 1 8.0376159576 52.6212710689 41.7027846563
4019 1 28.5908774769 21.5943138264 31.9210534115
4020 1 35.2367263229 28.2107456094 58.7107205363
4021 1 32.2451108376 49.7629424757 27.0524414155
4022 1 38.65579933 10.4382009591 3.2005976524
4023 1 17.4541998349 19.5061720893 48.4820965445
4024 1 5.3073895725 46.0786461684 35.1052009316
4025 1 9.2138404861 30.6872982677 11.1358726999
4026 1 61.0492302504 8.3710328246 47.0369613075
4027 1 48.4192696834 52.2122505886 34.9932869156
4028 1 14.6515346662 39.3586968564 40.9394676532
4029 1 16.4505554092 61.1718307044 24.9307137303
4030 1 52.2255792778 41.8085921363 15.4101543339
4031 1 61.666166539 37.1480720987 42.5493619295
4032 1 14.3621200886 11.9402326711 15.3264243303
4033 1 37.6109945028 59.8056107022 20.6340023198
4034 1 42.9481069886 8.5306658966 16.8121328019
4035 1 46.4760994603 43.0320131422 44.3100993889
4036 1 36.4380111358 14.6623385376 56.6576913814
4037 1 14.544435419 33.3101729238 58.5676279566
4038 1 45.5388048971 12.2849583731 32.0671405425
4039 1 11.3292267685 52.8797419495 16.8203531388
4040 1 6.2764439947 7.4688567153 5.3879606181
4041 1 5.9486698019 17.113466868 57.8775893857
4042 1 12.6288620413 24.8015957234 24.1127314864
4043 1 52.6611984198 13.6835312729 29.1220286777
4044 1 57.6557577213 8.4683909725 16.8286321925
4045 1 34.8407996651 42.2143244818 36.2982654075
4046 1 4.4475364552 18.3509798801 34.0430746801
4047 1 53.5056618921 57.2625320313 6.3667443961
4048 1 48.3317818115 24.4548736539 38.4371970836
4049 1 35.350343123 56.3045104757 3.6032250592
4050 1 32.3653039073 47.0524625143 20.579337079
4051 1 48.2928526444 30.0571507232 43.8364905468
4052 1 38.3916916469 12.5848832386 34.7983474964
4053 1 32.03114721 59.5252384953 32.9528231329
4054 1 45.3154465987 5.8437254573 56.4457241213
4055 1 21.4808731764 59.8566942247 60.8219379335
4056 1 35.1479466838 30.6386221295 49.0395528235
4057 1 11.9957199456 61.370527992 13.5993315357
4058 1 24.0503743589 56.7747137496 4.0581508369
4059 1 22.7461004674 27.5038553478 29.338164823
4060 1 16.3051728784 24.6722428497 10.9281330417
4061 1 61.5480872703 58.0148102962 48.654253887
4062 1 6.4285495867 53.5783531574 37.6451676178
4063 1 10.7169290986 23.1185404482 47.3741712728
4064 1 24.750688351 14.6108439983 55.5247527987
4065 1 12.3585891055 29.1522090577 41.7704262861
4066 1 15.0543898938 44.7352669596 49.8930586664
4067 1 30.9704888758 10.1175491011 42.1557252226
4068 1 32.7957559803 25.8243230742 34.6207882181
4069 1 8.2394311016 25.7516905255 33.9133695063
4070 1 17.2028923908 5.7649687576 14.5750268158
4071 1 7.6753104779 19.7563051996 23.6227406871
4072 1 44.5772016233 14.3211358372 21.4558011487
4073 1 16.7668035152 17.3521502232 32.9389659935
4074 1 21.1565808834 5.6618681171 32.3198571872
4075 1 21.0656287267 36.5106436844 20.8513715156
4076 1 12.1422180935 17.9429575836 7.1465901482
4077 1 60.2776929103 47.0158232982 32.8111984705
4078 1 26.5438374247 55.2503696944 23.1154284635
4079 1 14.2998216778 14.8473548358 18.386151179
4080 1 23.5865712045 22.5763505092 29.8309153069
4081 1 29.7562863906 45.1402947048 7.2433141558
4082 1 10.8692989158 47.485087105 26.037112368
4083 1 40.7488145525 48.6242496571 37.2267524667
4084 1 35.9140233715 21.2397237201 7.8185615927
4085 1 50.0827723 12.516243425 28.6212927237
4086 1 58.7908101049 9.5307931924 19.2724209363
4087 1 37.9022880145 50.5755227839 60.4067522005
4088 1 8.9008863865 33.8026298241 30.5729768673
4089 1 56.454942642 37.5216864134 24.4945074214
4090 1 31.870909356 24.0983458968 25.4294533168
4091 1 23.888609871 13.7402515979 35.3100634719
4092 1 31.8760177083 43.1182679636 47.4493286392
4093 1 19.8415031205 40.8212709511 16.5823743839
4094 1 20.0990932507 61.2299015134 56.780174402
4095 1 43.4954639965 51.2376709257 35.9301704619
4096 1 15.1084092509 27.6831174102 4.3121827356
4097 1 36.8665842747 43.8263912757 14.4660486344
4098 1 9.060120185 60.7436685824 28.0647759117
4099 1 10.5148262428 43.9005504584 20.9972237799
4100 1 16.7649832977 40.3855343757 34.7652312818
4101 1 46.3654772115 10.933417544 20.5742874435
4102 1 9.9278354674 56.5647428571 14.5080897863
4103 1 15.9437716358 26.5292756849 39.1455552625
4104 1 26.9617241255 9.2403217144 27.5912257863
4105 1 25.7982528627 45.6031583922 6.0237567083
4106 1 28.498633553 19.3850395526 54.0567180516
4107 1 19.9332773109 16.016110601 53.2049737095
4108 1 9.4669681476 42.2959406844 58.367404035
4109 1 19.5577253454 12.5801271865 8.2677677774
4110 1 55.3476045373 44.1035340645 17.7419116283
4111 1 31.6254735812 48.2788193549 47.5617711055
4112 1 56.5860570165 50.6583133203 57.0528547222
4113 1 42.4248825413 39.6730073117 28.5060318562
4114 1 42.0911955775 39.6176374706 53.0105627405
4115 1 26.6756563994 19.8094438063 37.5310223675
4116 1 12.6446568316 28.670321162 14.9464686129
4117 1 49.4985999258 54.6252717855 33.8008683234
4118 1 28.790631665 37.6574981233 57.1925417338
4119 1 4.451623137 49.4421731843 42.9304332641
4120 1 26.3093229546 7.8946408113 3.2609525407
4121 1 56.2139106191 41.5591049097 40.4046760175
4122 1 48.5611292126 15.2570799164 21.3555130378
4123 1 46.1629633389 23.802472483 10.6381900139
4124 1 50.9740329762 4.5398214809 8.9758088862
4125 1 58.4717435976 14.3910087014 23.8123368874
4126 1 16.8757229799 33.9973930933 14.4337544535
4127 1 40.647880558 16.0172849348 56.282491716
4128 1 47.9813605904 26.5609239822 46.0657284961
4129 1 31.7356260964 16.0963763197 49.812147064
4130 1 50.7995856826 29.9203995463 42.2447397285
4131 1 25.9976547506 31.8491841798 4.3704355662
4132 1 60.9080166048 19.1330862249 47.0891604472
4133 1 42.5887021135 15.9225161931 17.9492989864
4134 1 36.1121922088 58.1982412437 13.3723328024
4135 1 37.1067355472 16.8656237088 54.9677075365
4136 1 26.7617350707 43.0675954579 4.8907359222
4137 1 38.6650178507 39.7335442217 19.0768943501
4138 1 29.5595267539 56.2752108461 7.0395378744
4139 1 31.0024894733 39.6155236697 49.0497108113
4140 1 40.9774573533 59.7510628949 40.4548787896
4141 1 56.4155437413 24.9896652896 47.4076397875
4142 1 52.2444860528 31.7449620505 52.0146102015
4143 1 56.9313111687 55.2476687265 6.3013046423
4144 1 45.5369846797 7.7416368538 36.3438882776
4145 1 42.1598941078 10.0524910057 36.1261080649
4146 1 47.8184217686 24.3566406273 54.3716156737
4147 1 15.1211507732 33.8316358703 25.8624302077
4148 1 21.2327951504 13.711186835 55.519527013
4149 1 31.6183688614 55.2285270848 14.9865721139
4150 1 17.882538107 40.9089936898 26.0186166098
4151 1 29.640673223 60.1166917393 5.6753553414
4152 1 45.9895142291 43.5761407321 27.7201676432
4153 1 3.8474107557 40.6870445919 27.3956992001
4154 1 40.5100724806 53.1486644014 7.4671774179
4155 1 45.1915543774 50.2194647603 43.409620192
4156 1 19.1070160134 42.1374056146 50.3843999496
4157 1 44.7805962463 15.6476046386 9.7116406055
4158 1 58.4483156373 49.0204698984 3.791447876
4159 1 12.6445393982 13.9216861778 13.8363121069
4160 1 42.4191870221 53.9207301917 47.7883001053
4161 1 33.9443132033 55.4907558337 24.4684959266
4162 1 50.5565572922 18.197083429 51.9455006544
4163 1 33.0713134185 11.93776657 41.8518663387
4164 1 22.848913396 16.0597371036 3.5601827878
4165 1 57.3447941176 10.2220060971 5.9503021259
4166 1 56.740658068 20.8996366369 52.1467814764
4167 1 13.1992359927 41.0368786461 7.1981434043
4168 1 14.222256927 45.7676825647 34.0259881226
4169 1 15.170648945 29.7295115788 27.9958425147
4170 1 57.0026519501 9.3916346311 8.5263854497
4171 1 37.7408758267 31.1543895569 56.2491406346
4172 1 20.723721426 6.1242385843 50.2734254007
4173 1 47.1215720614 11.6058998238 60.4853738519
4174 1 26.9369456813 34.9959291668 41.5443083031
4175 1 10.5269805982 27.2483203019 34.5890812041
4176 1 55.6306189953 35.9302291786 26.7436503294
4177 1 51.1939857065 24.5193445823 21.6301310088
4178 1 48.7266515689 41.0526147197 20.9420888056
4179 1 19.267899751 57.081919485 43.1711129869
4180 1 28.1494453824 44.7895799002 11.6546346786
4181 1 56.7846368707 40.8885602808 42.9666027467
4182 1 27.4406174699 44.3870769728 8.8487048618
4183 1 22.7348855791 19.7672852211 12.0579596397
4184 1 28.5692110174 36.9105043607 34.032975409
4185 1 17.7211259192 13.1449230521 36.1357963192
4186 1 6.1252954847 56.6360836385 10.9448672991
4187 1 59.6177172861 50.225630013 39.5012022693
4188 1 40.6060742729 46.2906721452 21.0363878138
4189 1 27.4968093447 19.0316237802 59.5097960052
4190 1 21.0222958076 22.0471369593 49.3290848345
4191 1 29.9656701163 8.3784076412 7.9693343159
4192 1 34.6715781572 56.8082409811 29.4455576537
4193 1 44.1041212314 49.337011588 5.6043668601
4194 1 3.0472472665 54.9459236435 43.3353435759
4195 1 26.0931280927 29.6615763656 10.3798365667
4196 1 11.3325149033 6.1556989881 41.119786616
4197 1 52.4736573038 52.807461701 16.2998296594
4198 1 8.803058505 56.1000002356 11.8896775988
4199 1 16.5996370915 57.1563135345 49.5886713322
4200 1 8.4035207706 19.3774650993 45.5130869858
4201 1 57.3773818819 43.6232315195 12.7984358494
4202 1 26.9897319879 11.2265899899 30.5413872867
4203 1 45.4386929363 22.7273111258 20.8151433163
4204 1 26.9086442355 23.1234726504 23.158115499
4205 1 14.6650395055 48.7100347449 7.132515757
4206 1 56.8887415666 3.2772722582 11.133758899
4207 1 26.1541347362 39.0752713815 32.332128976
4208 1 15.6993340447 59.8756597164 61.3844438481
4209 1 55.0286554633 22.7448674169 40.3343334198
4210 1 9.9130975776 39.1158446161 35.6712885645
4211 1 48.0282165111 56.799081177 43.6528247325
4212 1 39.8863250557 48.6566612714 59.4620593341
4213 1 30.6158400528 57.7340857892 45.202710549
4214 1 11.3285808849 49.7273014433 24.3547029764
4215 1 55.8887962925 36.8716926269 53.7797514129
4216 1 29.7845878364 42.2638813703 45.6890609134
4217 1 38.070452622 54.0401012276 53.0204858615
4218 1 20.7886033712 33.0754823036 12.9604939208
4219 1 7.45680805 48.7988143841 15.5639920684
4220 1 43.3309985407 18.3399998586 29.3018191903
4221 1 55.0702268817 26.0165615256 28.815644976
4222 1 6.9300429861 24.110147952 19.5074638566
4223 1 44.352668991 52.6476935805 44.555300297
4224 1 60.7032127812 13.3851330413 35.2321464209
4225 1 3.3789760286 32.8129599713 61.0689590591
4226 1 19.5477435076 44.2185013485 17.3852664378
4227 1 11.4963344755 50.6376450446 8.7828423478
4228 1 17.7924079839 20.3182239473 29.4891254395
4229 1 18.005901878 7.0156812822 40.1156724568
4230 1 4.3714396217 9.7190976254 53.5699566704
4231 1 45.3610694688 51.0733229033 28.3294707617
4232 1 26.1837279493 45.254850972 21.8511993563
4233 1 8.199585954 3.4088663481 45.5946444718
4234 1 17.6261810273 56.502503163 17.5100981262
4235 1 46.6212471243 3.4857400034 42.5846506617
4236 1 3.4652801719 31.796045573 51.3279184822
4237 1 36.7227283779 46.3544384733 3.5950393651
4238 1 61.7359806864 48.5168568265 16.3847339968
4239 1 4.3305728037 36.8190824704 35.9655179108
4240 1 12.2346381676 16.1667189174 20.8947631514
4241 1 39.9232578553 52.9281245042 57.6151257701
4242 1 53.2150142639 45.5600016232 44.3349952665
4243 1 54.2964583073 61.2506285058 9.9635939332
4244 1 15.8740749217 18.9627490998 53.2874706625
4245 1 36.3939148997 51.2050244447 20.9177213782
4246 1 47.0091295952 20.775861849 34.4820406736
4247 1 23.7992430649 21.7023525407 52.5468183028
4248 1 9.7240885443 58.8721914408 50.3774126632
4249 1 28.4432049952 59.7167723464 15.5645205186
4250 1 7.2183478182 17.1565062037 43.9973742844
4251 1 13.373742003 41.989322116 18.9947496972
4252 1 23.8364107313 25.1948801301 44.8907487615
4253 1 54.7567384602 39.4039674264 39.0378101317
4254 1 30.9484113994 19.567531033 49.4677149456
4255 1 61.5822016686 34.9106138125 28.1874937991
4256 1 55.7453514126 61.790117477 40.2591173367
4257 1 51.0515390103 27.8101216161 16.1724731532
4258 1 26.2411528746 52.1635157338 14.7461859746
4259 1 34.3335461582 35.7669967733 52.5561542569
4260 1 12.5293959641 31.2415838453 36.9312900698
4261 1 37.3539328228 56.8137016335 43.0505676171
4262 1 40.0200229646 39.3793064155 11.3817194916
4263 1 51.2380232259 30.5600004782 17.2066502591
4264 1 60.5594743178 27.4162500425 41.2722738666
4265 1 48.4446940113 20.1955060598 7.7749703202
4266 1 57.3433262003 41.4447247926 29.3966466488
4267 1 16.8697925939 46.5961163798 36.9750340058
4268 1 45.9944464313 4.5493100984 59.7072602422
4269 1 24.202568026 38.1208315442 39.6961416885
4270 1 52.0670442079 8.3634055262 19.3407084497
4271 1 56.0222006179 5.9440957715 54.3288699216
4272 1 34.2040758511 22.7305405439 44.9930919566
4273 1 30.7591674993 17.8491283089 38.8594875364
4274 1 13.4901184876 41.8973130587 57.5608128295
4275 1 9.4454191215 55.0335876655 51.3765359036
4276 1 38.0777334918 48.3165154715 25.7622595302
4277 1 50.3478194502 14.8124771205 49.0536448297
4278 1 58.3854887763 57.3812571836 15.6147232907
4279 1 50.7454488921 34.5775727324 17.6659909449
4280 1 19.765582437 56.7876901387 28.5474271245
4281 1 51.281356145 44.6677427632 50.4299053863
4282 1 6.7641213563 42.5629842021 31.071481587
4283 1 43.0301342081 9.8559075191 54.6017263918
4284 1 20.3979612157 47.4846760882 60.2334205241
4285 1 39.2409111712 23.1465483106 36.5294917427
4286 1 13.7944471051 44.6273456787 57.0769872829
4287 1 20.0815369596 26.691392473 19.2710117357
4288 1 34.0040867963 39.9269570069 7.9003422021
4289 1 44.6143692897 24.505076426 39.7393571742
4290 1 49.4390611996 39.9977106214 44.1986551064
4291 1 36.3979076347 17.610973404 44.2796841422
4292 1 57.499219019 35.2445943597 6.5598166246
4293 1 59.2148033418 46.2425244573 26.4334500427
4294 1 53.4178804367 55.6977908916 38.9895450104
4295 1 61.2184517583 23.4399556232 39.4941562662
4296 1 39.7447003933 38.0099157119 55.794732151
4297 1 46.5530770442 25.6596814683 28.4609374363
4298 1 34.1069584416 44.4898899015 34.2111218542
4299 1 7.015205677 34.6203772013 19.9117870014
4300 1 42.3733292852 47.6331118869 56.2233052899
4301 1 35.4913219018 34.305127279 26.4256407226
4302 1 39.3426084827 51.6671835317 51.2730770913
4303 1 4.3415410818 56.1458579724 25.8833920669
4304 1 40.8913199653 56.9360085041 44.6605793267
4305 1 34.0471261319 39.5398965696 35.4811051973
4306 1 43.2488538878 7.0948901004 28.3576547742
4307 1 33.416685004 46.5801454395 10.2787264221
4308 1 35.8695161185 51.6038282204 27.5445460158
4309 1 46.5886006432 54.2560025061 27.0611902027
4310 1 49.5700581407 27.9205089981 26.0608339118
4311 1 52.4776500389 61.7375073204 12.2554825934
4312 1 13.8465875281 13.6878763081 36.4752962355
4313 1 22.3140043269 34.1117732104 54.2993941419
4314 1 56.7251568611 16.2995360759 51.8690515207
4315 1 11.2084465319 14.0844488496 50.9012242774
4316 1 53.2724391893 6.5750888363 28.8715432673
4317 1 54.6277378866 25.2390937996 43.8900401704
4318 1 42.1442754676 41.8546847399 40.2828975971
4319 1 11.8751158591 57.1173843673 21.5917890086
4320 1 9.4443035043 50.7593060315 19.058398592
4321 1 3.4566006704 20.0315103375 42.239690093
4322 1 35.5771069896 40.3472510922 14.9335509405
4323 1 17.2635467342 48.5560208604 29.4869529219
4324 1 34.830113227 44.2225528003 11.1533115576
4325 1 8.077766432 39.7058886595 4.8354306695
4326 1 24.6010195017 41.8703033802 3.8015588905
4327 1 14.1660063355 4.9432756187 29.231594026
4328 1 60.463766109 54.7156954921 32.1947906321
4329 1 34.9126688968 16.4359349527 10.2616985813
4330 1 48.081707418 36.2713731623 58.9244492972
4331 1 16.7726164678 33.6449755047 43.4938199291
4332 1 31.8589311508 25.7932619438 20.1572227763
4333 1 46.2503924941 48.8459638882 34.0434269803
4334 1 17.4533190845 34.0528803678 46.1448785976
4335 1 12.4750243068 31.2482188316 25.4589290965
4336 1 7.9274282124 53.5061316256 9.0702781728
4337 1 22.3236925812 41.8706556803 9.3635093354
4338 1 23.9741013753 15.9577462086 41.1100983618
4339 1 6.0709120841 60.0105906759 5.9919733626
4340 1 47.1288529313 9.9695243192 16.8520601528
4341 1 56.6809431916 17.0192852932 46.0465868543
4342 1 25.6300295386 26.6865777043 50.9191915853
4343 1 5.64956697 43.185028843 40.613707443
4344 1 52.8523799708 19.8290551816 15.1041229323
4345 1 8.8380066804 33.6951782768 35.2619745007
4346 1 28.6525887208 18.6560718146 56.8263257224
4347 1 3.5351947249 19.9749074459 49.4663644616
4348 1 44.1481587508 7.136954739 30.9939168361
4349 1 28.6516492537 57.2166742944 51.9051035699
4350 1 49.4576156744 23.2869986391 5.4392379057
4351 1 19.9896453358 42.9972528602 10.8061784713
4352 1 16.4649409988 54.4537016099 20.8773830104
4353 1 40.4066136683 3.755108115 40.6687249839
4354 1 59.173701657 10.2170151782 60.7483072011
4355 1 57.668616677 48.8855976557 29.9488184255
4356 1 44.961502376 25.3879993319 19.5188548949
4357 1 40.2426179461 39.5417755038 26.605842252
4358 1 25.8411160483 20.7296518119 22.0560031799
4359 1 14.6996236374 31.1097648705 7.2764890871
4360 1 26.7563918517 52.4780610558 56.7703687144
4361 1 16.0356045429 15.9191693416 58.7595728245
4362 1 19.385156986 27.4818365881 30.3408697816
4363 1 40.4096669364 14.2069318702 54.2968106074
4364 1 43.6152460493 48.6295928761 32.4489164775
4365 1 31.6109705581 13.8782358253 40.6040191887
4366 1 32.7032184729 40.7549798052 3.572899649
4367 1 58.7794190666 36.9599438158 57.0894352217
4368 1 25.7857462072 31.384500275 26.3499549059
4369 1 34.8136725531 7.0710217649 23.2668000969
4370 1 59.9939151352 40.7247994253 13.2894835492
4371 1 45.9780057574 45.5200155555 31.6223028798
4372 1 45.0299073228 28.802668587 38.0483751456
4373 1 18.1750646693 39.7041271587 20.5997117713
4374 1 49.0859977273 17.0452380713 42.0810963064
4375 1 5.3441579654 23.6283774896 10.0837870029
4376 1 43.1749295719 36.572413645 58.4011661332
4377 1 11.7581522075 51.3257459645 22.1133106718
4378 1 61.0014348627 42.8622631841 5.9114081888
4379 1 14.0842139828 3.7476687101 52.0443208479
4380 1 50.2337916332 5.9115197505 61.5701647467
4381 1 53.3306274316 60.3249011311 33.7449113154
4382 1 24.2205940506 55.7740051585 55.1571275866
4383 1 37.5353674028 35.3900356072 24.8446937757
4384 1 47.5888982174 44.7148922673 61.1152865295
4385 1 41.6048452132 59.7766046561 47.1647288305
4386 1 7.5479363568 36.0513617153 16.4580124291
4387 1 46.6672810112 18.7107957721 60.8052623929
4388 1 23.0178413205 49.6813262731 34.9572935831
4389 1 30.0015460154 61.7588801965 57.2588915964
4390 1 3.6854542641 53.1021020642 29.3856666273
4391 1 36.6571418323 8.801479026 22.0963415477
4392 1 35.9496644038 61.191383363 44.3054607702
4393 1 34.9318692552 55.568614168 53.6524536234
4394 1 22.3191713959 21.7061691257 37.9339363118
4395 1 54.2235908918 49.3691883355 23.5116487048
4396 1 44.4206042043 23.5361922823 6.7024394708
4397 1 5.7287816599 27.2802034659 7.7076986055
4398 1 26.3339252488 25.3319836072 57.0167439563
4399 1 12.5931622923 18.147232957 28.2856093924
4400 1 12.7940320975 49.620613213 30.419667583
4401 1 14.0525069688 28.7622715025 39.6787028308
4402 1 38.5196940366 24.8125170282 16.3335917576
4403 1 23.3848793656 13.4516003373 47.7198951585
4404 1 16.326252171 27.9119950777 60.5110330465
4405 1 5.2961394543 8.6260218053 34.1144741783
4406 1 23.067398209 16.1861541426 19.9522428026
4407 1 53.5037242412 51.1913434553 53.2359761232
4408 1 38.9670565172 53.4095426664 41.0170911208
4409 1 42.1557839393 29.0052411763 51.2757193425
4410 1 51.580811277 18.3449907775 36.3222218181
4411 1 58.5349227588 11.1595942437 15.972190515
4412 1 43.0987153049 43.5292848114 43.3449143968
4413 1 22.7224376403 53.6711255316 52.4083643417
4414 1 13.3669895833 46.181282947 53.5711897209
4415 1 61.206473553 9.9416338902 26.7541606174
4416 1 52.4594478642 35.6592516425 40.444309785
4417 1 55.5602763977 2.964358086 20.459026576
4418 1 12.3028082476 53.1699785608 28.6862333856
4419 1 47.4954799596 61.1124681283 22.6967784457
4420 1 8.2265897609 47.8740264764 32.2007210181
4421 1 11.2299368414 36.883318532 52.8505597533
4422 1 40.4676790286 42.3748559192 15.3916585758
4423 1 25.1497269935 21.100330292 11.9517411429
4424 1 48.6773882639 20.9581771793 60.8382611741
4425 1 7.0993466974 58.4664003786 41.9064141461
4426 1 19.8111465904 36.3337302898 16.2236741092
4427 1 20.6749865712 40.0688165361 3.1769081092
4428 1 62.0891028754 56.6327955037 31.4302992952
4429 1 42.7209908218 26.5413713236 11.6864004092
4430 1 33.2746493248 55.9381770309 56.0635371695
4431 1 14.2591897266 48.878845236 42.0818596234
4432 1 53.8027683563 6.7354676103 40.6650258322
4433 1 9.097170418 58.9139977259 11.3727945543
4434 1 59.6511270841 20.9552413447 35.624021627
4435 1 47.3797493586 28.1734017929 18.1646718147
4436 1 12.6491780169 13.0163922121 25.6107704634
4437 1 32.202834819 24.5384862241 56.7753009166
4438 1 35.9277630775 3.319017478 25.8318388108
4439 1 24.38552924 20.0173008979 16.1061820074
4440 1 44.3483826724 13.7154731536 28.1453939306
4441 1 58.6985661809 53.8142768281 21.8366963332
4442 1 42.7747165955 33.9968646431 35.301079818
4443 1 18.439994386 41.7592113979 3.86096844
4444 1 13.0324805859 30.9826432312 58.820403318
4445 1 35.3627910618 55.1992274552 27.2355200629
4446 1 46.1962557036 17.4027052955 13.2069865961
4447 1 54.7025429529 10.9972425888 8.5138376925
4448 1 32.1207488828 46.4402235611 3.5136210377
4449 1 3.7051666322 17.2850370436 6.0219130042
4450 1 25.4803019726 20.079364442 34.6700515232
4451 1 37.7633056032 12.0857913519 11.4939270911
4452 1 49.5758710932 29.0587907999 59.6706210261
4453 1 24.9454516201 34.3105292147 37.8415162377
4454 1 44.0428210044 38.4488229887 12.4710902884
4455 1 60.183981069 12.6528771686 40.6182286283
4456 1 37.6229727081 5.4554143545 12.1512604641
4457 1 17.8339206856 12.6795932637 31.7532998209
4458 1 37.7362959247 15.1755224305 22.6512142922
4459 1 46.9222288903 13.0437541909 22.3711356688
4460 1 52.2601634097 45.6415003924 28.8361371017
4461 1 60.6655166646 45.2399369321 44.1092295837
4462 1 8.6714098086 49.2115927327 23.2170083416
4463 1 5.818911783 34.8901804035 56.6374341225
4464 1 17.6394509999 5.6993704687 29.8006762102
4465 1 39.6538656699 6.5202885472 6.9245882054
4466 1 33.8688622533 7.2495205103 40.4420785506
4467 1 45.5958775223 9.6164608469 33.1619719918
4468 1 25.1083317253 52.3188213856 41.4730262384
4469 1 8.8509537111 27.3405642258 61.0863979168
4470 1 60.2370609591 31.619014745 46.7560019336
4471 1 28.6903435541 28.6958629232 61.7597022302
4472 1 21.8429790193 28.9378931299 36.1209997127
4473 1 59.8899865894 23.6855675482 4.9560288843
4474 1 17.3958354425 43.4449089242 59.0252658583
4475 1 12.0808004331 55.6063690013 30.2331833675
4476 1 20.6510301606 4.0117235481 25.5120677032
4477 1 22.4944994398 44.5687464196 18.2218618732
4478 1 3.8143004128 34.8006961641 16.0287346899
4479 1 21.283291506 42.0968910967 6.5265301316
4480 1 5.9096760463 3.5563573952 58.815823416
4481 1 51.9013457016 9.4950347267 34.9800756598
4482 1 45.5072740332 44.6170115408 36.5958416053
4483 1 16.599930675 10.7563279993 57.0162742228
4484 1 57.7504677464 21.2521716589 54.766133131
4485 1 57.2811452228 20.7548999897 32.0942089378
4486 1 55.5310354848 42.4486628018 24.2392072422
4487 1 36.4111776073 19.5880231587 22.6160429934
4488 1 46.6870098199 9.3298059539 23.1858884946
4489 1 42.1320036788 15.0397107206 58.3461485923
4490 1 32.0739516789 56.4629868289 32.8321603297
4491 1 22.8355259901 24.3951587776 8.0823052323
4492 1 4.8286488915 23.8821510348 37.9490852185
4493 1 24.4183518711 54.852446669 11.1523133738
4494 1 51.4443536835 48.793471165 34.6698166564
4495 1 4.2791956977 15.7664472243 61.0456485321
4496 1 32.2462264548 43.112455011 28.2027601392
4497 1 30.0253262759 5.1516083155 18.2640204585
4498 1 4.4695845733 26.4613991883 10.2393275214
4499 1 11.833309574 27.5740217954 38.6603205153
4500 1 37.3380793158 34.4739964867 22.1438433519
4501 1 46.4550201677 42.7609768894 41.5328585481
4502 1 42.5264624194 52.3970320201 11.1695173647
4503 1 42.216379566 29.5561211857 47.4614242779
4504 1 16.0844568311 60.0256808659 9.7310758307
4505 1 47.270242727 8.9022779721 53.1834246834
4506 1 9.0751516583 33.501295758 45.8291002251
4507 1 60.868441554 58.0110524279 25.3974527194
4508 1 23.6705947916 31.6654596488 47.5186143365
4509 1 27.8229218551 8.303138713 43.5160148389
4510 1 18.0135937648 7.8928147221 54.6617348516
4511 1 37.599486031 40.0519648454 13.0071149747
4512 1 45.3468600292 52.9702243727 59.5625235951
4513 1 29.1229094281 12.1925970157 17.6304086292
4514 1 44.8208171807 35.6550827573 11.8777581103
4515 1 7.034928614 39.1827816456 29.9603856139
4516 1 36.6069390602 62.2435277768 56.9599649146
4517 1 46.1086503983 10.5456525064 35.7703436248
4518 1 28.460056686 54.6839297614 10.3287530442
4519 1 3.4062205739 49.9683334662 8.8067282983
4520 1 11.3349810043 57.149913415 16.9602750172
4521 1 9.7610800606 19.8383324191 40.2236524544
4522 1 39.5562198102 54.7234460955 38.4353181494
4523 1 39.4603941679 23.897006358 61.0192260205
4524 1 6.5164191171 19.5468040406 49.3998971657
4525 1 30.4743915405 61.1555074639 14.1554960476
4526 1 22.5226834523 11.3794882573 23.1038025584
4527 1 37.0457876203 34.6247222365 12.892852291
4528 1 24.4815310323 55.8688913337 46.7199498844
4529 1 52.7503890758 15.5215986164 31.288439766
4530 1 11.8477538804 55.2749132719 36.8673475917
4531 1 43.2403399674 33.1050168 45.3854956129
4532 1 25.709766807 10.091772473 34.5058209341
4533 1 41.2235977284 51.2898700654 37.6156331215
4534 1 9.0319361726 19.4322477734 48.2298496333
4535 1 46.8830648563 10.2881210929 11.7701304128
4536 1 38.5822860309 39.6891544021 50.9673392732
4537 1 25.560039241 10.9542032532 21.3228665567
4538 1 9.5853997165 57.0068208353 56.9714146697
4539 1 30.6051536148 34.4919637947 9.8013597117
4540 1 3.3932964427 54.7969006779 46.228080151
4541 1 10.2615811479 48.5548465265 51.0595244805
4542 1 18.9575820309 11.0605391834 20.5526209839
4543 1 61.2258500616 56.9966628475 52.9300034383
4544 1 9.4236352285 23.4635010169 4.3596551815
4545 1 27.577544797 60.2166862668 60.2165101167
4546 1 60.9057853705 12.880815369 52.0014576624
4547 1 10.6782935149 3.8039721465 42.6723734004
4548 1 61.5479111202 26.2038090581 46.7236490361
4549 1 55.7120003312 20.4910271734 38.9627114819
4550 1 5.4762940103 60.0688963516 25.3749055094
4551 1 14.0002491125 56.4583482102 28.4112043978
4552 1 12.6471816494 52.9547231659 53.4561637202
4553 1 8.9441664605 45.1164557276 10.4866422304
4554 1 49.3215690978 39.5018481529 16.783655206
4555 1 19.9743789957 10.7262650527 39.7981913002
4556 1 54.9773957908 55.6609168087 21.6826824487
4557 1 20.9267050321 44.2806823259 49.8317584394
4558 1 11.1415095024 54.0410994114 14.27439735
4559 1 33.79311772 40.4098430864 31.8690304219
4560 1 60.5875408969 3.8527539747 15.8746620886
4561 1 49.3770563723 60.9502926234 50.6094023155
4562 1 28.8430069547 39.9773946458 51.8772718576
4563 1 31.9017943363 48.2765294039 24.6443524208
4564 1 34.7190212447 18.9951607141 8.9040688312
4565 1 26.0244295624 14.6642761885 38.0210718835
4566 1 21.4139948636 4.0447575593 18.7765584677
4567 1 29.0260856021 19.7112694964 19.1085426474
4568 1 51.9634092456 45.2929581054 10.3501259202
4569 1 57.101413427 57.1429261286 9.5391309628
4570 1 33.5988241843 4.9716827546 61.3655370731
4571 1 17.6023420502 47.1090066892 3.7366945602
4572 1 60.6001062691 25.0216071704 23.5654331952
4573 1 41.1708114218 34.5840902853 48.707920944
4574 1 49.77280688 47.8891753831 9.3567569157
4575 1 5.6572588568 50.7247218996 14.2537290742
4576 1 29.5751453941 19.7869553131 28.4066832124
4577 1 54.0238954205 4.7333751862 3.9147940321
4578 1 12.6162379524 30.2665344489 20.0361489563
4579 1 52.9677582716 26.9865612865 50.1986203344
4580 1 18.2048927491 28.9539815037 57.1660605055
4581 1 33.6032279363 58.2952999365 24.8323045536
4582 1 45.4944150776 40.1861912045 41.1216068335
4583 1 39.6600896393 20.4337196815 35.459203871
4584 1 40.7317867117 27.1172646441 13.7508793192
4585 1 45.3241953859 39.3877029026 36.573940279
4586 1 32.4557863305 30.6913497194 22.8282451203
4587 1 41.6696684417 4.2941508393 34.3041290952
4588 1 41.4178912641 51.505184177 53.4103059834
4589 1 29.2288930582 16.0190464356 47.3088783107
4590 1 36.5136382358 38.9916000946 48.8618173952
4591 1 12.3857162175 5.9413478303 9.3464814945
4592 1 10.9240815899 26.8154608444 22.8874315464
4593 1 35.3842226546 27.984510193 37.3980877756
4594 1 6.0125653067 42.964254079 56.6106593107
4595 1 45.9072521429 28.2519647276 33.9624566613
4596 1 16.2680639287 27.1749244362 43.3625294046
4597 1 51.7422821815 13.9003720184 38.714046289
4598 1 25.8647201587 36.8163227858 35.2600955666
4599 1 24.5711327052 30.1658940378 45.0928516172
4600 1 41.3326933432 48.4036510432 31.0562739636
4601 1 52.3562826354 37.129869924 43.7195268953
4602 1 15.4066313324 5.0166186394 36.3033737597
4603 1 49.681150123 9.4713718996 48.274591753
4604 1 33.6783853027 34.2114154377 11.8964887352
4605 1 3.100104268 50.8321147303 37.7253159032
4606 1 43.0405857793 44.8585132973 25.5827626011
4607 1 33.0298594335 43.028607574 30.8756614174
4608 1 21.8095105046 19.9025684807 14.7655037664
4609 1 9.1166056432 37.0541253907 18.5379338292
4610 1 32.6877172661 5.8842399751 44.9779430499
4611 1 14.605735646 22.5574437342 33.4641868083
4612 1 22.6005417866 15.7941027865 36.7805643201
4613 1 15.4916531032 24.3803034544 23.5202213419
4614 1 22.966757798 9.6239765835 34.7650551317
4615 1 53.1740887292 39.7244431343 52.2349739486
4616 1 34.7413335879 12.8368365663 22.0641648001
4617 1 39.8506253066 46.3365298821 55.7013138932
4618 1 39.8311313647 48.7888325463 33.4709392279
4619 1 33.620842944 14.9965539516 15.6133140901
4620 1 45.6050373263 31.4340571635 20.9309913507
4621 1 38.3625681674 34.8788480819 47.6605325823
4622 1 33.1862219858 7.9248681646 56.5285146578
4623 1 12.9642517892 56.101644303 43.7164149105
4624 1 12.6835859988 13.4580591735 39.1147289989
4625 1 38.5578598868 28.2276560169 39.7216247331
4626 1 15.1371217136 57.276154304 3.8101432709
4627 1 41.1584809164 37.0134347227 31.7962804398
4628 1 18.1471155236 53.2999773181 57.269460601
4629 1 52.900645092 53.9866690374 25.284657953
4630 1 47.6744484385 31.3777478553 29.6605194651
4631 1 10.1419752452 32.5221949098 43.30686598
4632 1 35.9598223916 11.2002261949 35.886602676
4633 1 34.0508252835 50.3628509235 38.146079722
4634 1 30.4009369581 57.2264799821 39.7495738787
4635 1 49.9072093893 59.6399121959 59.9388388776
4636 1 39.3848845013 51.323749597 23.3199974204
4637 1 60.3935409447 11.6264506662 58.4696885134
4638 1 58.0387079901 60.1157522723 39.6774697803
4639 1 21.076080298 28.4918811333 38.8331824581
4640 1 14.0143411187 20.3457620761 42.5404369922
4641 1 52.5575047408 24.7054764977 27.8703649427
4642 1 14.6186533184 58.0200947986 37.7350041574
4643 1 36.3068380446 43.456593546 28.4016335769
4644 1 49.0197065814 46.0993144442 46.9554625382
4645 1 16.4623574644 4.2984371578 12.3333996444
4646 1 52.9161462989 12.7852245936 9.7212114264
4647 1 54.2843626686 13.3172565447 12.0614826412
4648 1 34.6365242917 9.9388742056 40.4226433254
4649 1 55.4764876774 44.7716125923 3.9360494748
4650 1 31.0521050785 27.9665428851 30.6603473058
4651 1 48.8405619525 24.6134087238 20.080127759
4652 1 34.877673748 59.7534702793 26.9171581559
4653 1 5.2356730043 31.511680631 11.6076026078
4654 1 49.8524854318 15.0425291219 18.8903514179
4655 1 35.8822576408 24.7212125713 19.1410129784
4656 1 51.9204286267 49.4115230708 51.9945290927
4657 1 54.5063704831 23.2331554321 21.8908918404
4658 1 3.4435338577 4.601438778 3.9694475295
4659 1 45.5559501714 19.9963977554 58.591995384
4660 1 4.3343071853 17.927984827 9.8317749584
4661 1 55.0321197482 34.7531943598 45.7333920162
4662 1 55.9198574228 13.0866173764 49.2635570056
4663 1 46.9743105965 50.2913339919 26.1812031315
4664 1 31.4524942049 20.7343491473 31.9141835584
4665 1 7.6768723419 13.310327975 16.9424251426
4666 1 28.8425372212 15.9111251547 38.0518981471
4667 1 20.3203964649 12.9762887111 58.1260784286
4668 1 17.7565320848 58.6340365358 34.4290782169
4669 1 42.0816247566 56.5485957666 36.3332018396
4670 1 51.5206266671 31.2200935358 28.3505500544
4671 1 52.0949346369 5.4380224701 34.4675963672
4672 1 13.2637069211 14.2488555887 5.9595793633
4673 1 54.3458390457 50.263443563 47.1085956724
4674 1 38.9749832707 23.9293592556 27.0833851125
4675 1 6.6418086141 25.3214733192 47.2821034989
4676 1 45.7056777374 58.8233391526 38.8315383908
4677 1 7.5070284371 27.9989544994 29.2115129172
4678 1 58.8124178478 4.8862558386 59.2950690605
4679 1 21.2960330282 56.8364837102 37.4494648816
4680 1 26.1044016976 58.4770868167 61.4752785715
4681 1 39.0220740581 20.5007741444 17.7901180329
4682 1 46.6446750846 6.0373143926 16.011530699
4683 1 28.8720130009 5.039136491 49.1545201075
4684 1 12.8199261589 57.4460804122 59.7966270483
4685 1 8.9195817814 40.5064320457 60.6638725972
4686 1 21.0755518477 51.7426931983 15.7985065384
4687 1 8.3971617528 39.5621501961 52.8391099983
4688 1 26.1602412723 19.0363211156 13.8666099202
4689 1 8.5729243002 21.7637702011 9.416295642
4690 1 19.420680585 57.5639835309 12.575253701
4691 1 45.2584326902 8.2526306141 55.0935961253
4692 1 49.1714892317 51.639997703 4.0647153631
4693 1 61.0053688811 30.2335943843 40.8047715605
4694 1 20.3445290255 38.5433568637 29.6480128096
4695 1 42.4877094023 18.8821897976 6.8706158216
4696 1 40.8405300263 42.0873202758 10.8943709435
4697 1 40.782341784 40.5667928056 45.9407206576
4698 1 59.3466223166 29.5530679177 28.8231607127
4699 1 3.5620170972 48.1075427627 38.0337546891
4700 1 25.7131723752 59.1087609951 53.6211576263
4701 1 6.9855596189 53.8391727057 50.981901013
4702 1 15.3049340209 7.1617860282 43.0956620369
4703 1 47.6506094613 47.1218069282 42.9619054113
4704 1 44.3539020415 39.1749723255 22.2555225012
4705 1 29.8194655518 51.0035087558 10.4134812315
4706 1 44.9263310772 45.3079895787 49.6969449133
4707 1 59.3303577928 43.0140458343 3.6372343547
4708 1 4.6253540869 59.8792414347 49.7438008339
4709 1 52.394565919 60.2993593699 16.3847927135
4710 1 19.655195055 32.2337197993 25.4349139692
4711 1 33.4463956505 40.8754077416 11.2160797019
4712 1 27.4966919113 25.9183872157 38.999937865
4713 1 4.9250675724 26.2755608564 59.4031077748
4714 1 42.6074327384 42.952217157 59.0744704466
4715 1 50.6631868058 10.5528159429 37.5089448911
4716 1 20.7841409026 35.0397318194 37.0468445208
4717 1 23.1181294314 17.3248469612 32.0157047199
4718 1 29.551482567 10.3190060732 44.6438450693
4719 1 39.0137950044 39.136101875 16.4635317982
4720 1 31.0340790538 34.6453317956 57.9263242406
4721 1 54.341963744 15.0107633912 47.8353908927
4722 1 38.3210554658 29.5059771303 43.3878950157
4723 1 38.0442649771 43.457180713 4.4375663608
4724 1 45.7591099276 54.5105393683 9.6666049023
4725 1 19.2238622316 58.3281812844 19.3883864041
4726 1 35.5122250444 14.331880992 5.4254277396
4727 1 32.7991028318 40.4256965934 39.0655831273
4728 1 55.2648727175 12.5193554097 56.7054280524
4729 1 15.3103359566 37.4538686335 38.7829209693
4730 1 46.1284966404 37.1619292382 24.9468608208
4731 1 29.330707803 59.9666705899 8.5275480402
4732 1 36.994469231 18.0241627694 31.096494898
4733 1 40.0913050294 37.1178917188 61.4335310031
4734 1 44.8941543297 23.4580990812 61.8528856213
4735 1 35.4034817298 11.0186741816 28.0444012194
4736 1 11.0735155724 61.3869099492 45.3513224978
4737 1 27.4600526952 50.7705209198 8.8563732618
4738 1 26.695032908 53.8502701606 12.3697452771
4739 1 42.8434151258 13.5595216182 41.6981460376
4740 1 40.5369060091 37.674936981 52.0004594786
4741 1 25.9073484775 43.3726873924 15.5758528403
4742 1 15.6437880536 54.7164588091 4.9646132648
4743 1 49.963225114 41.1593029501 34.9389152583
4744 1 40.2367462768 52.8329447455 46.0653174792
4745 1 42.6172384261 22.9894224413 49.8809630277
4746 1 18.1680186662 50.6388193784 49.6863759086
4747 1 34.4826865572 14.8253360761 25.3831258464
4748 1 22.5602621355 8.8176202448 13.1015314163
4749 1 7.57411813 7.9203939526 28.9681322266
4750 1 3.6645499473 11.6378417045 15.1958971228
4751 1 23.9738077919 28.6812424668 41.9441102627
4752 1 5.5216878853 51.1336836632 41.0317115772
4753 1 12.4127258961 50.4218611995 40.6485851583
4754 1 29.4714517151 24.7952543206 14.7391399715
4755 1 45.8638605071 25.4724339358 49.7669939275
4756 1 46.3267829111 9.6960219653 28.4267643213
4757 1 4.8097362449 42.8340791716 24.6806393368
4758 1 24.5477047448 36.7947737597 14.160369533
4759 1 8.7715569995 38.7684179463 9.1814875885
4760 1 46.21833318 27.8732420606 30.3634169916
4761 1 16.7354488014 50.3107692172 20.6619514654
4762 1 42.017388695 58.4616443265 3.6506657981
4763 1 48.4556153161 5.1098666188 21.9850146986
4764 1 52.8607764578 49.9562378276 29.2642405071
4765 1 47.3877935455 61.0781188631 52.6754078594
4766 1 35.4181609029 32.462949767 35.2529908468
4767 1 58.0904373962 26.2107376278 42.1919534219
4768 1 54.9508558457 15.4938843375 7.8326947006
4769 1 19.3274384772 4.282225479 38.2738472449
4770 1 15.358953378 7.7288131282 36.8134456679
4771 1 51.5856847624 31.3998253317 35.907036085
4772 1 55.1450906647 44.0576763276 33.4694125939
4773 1 10.8543848758 32.1737700562 14.8622101591
4774 1 29.976415271 38.3509422623 53.9304771626
4775 1 3.2414838469 42.7649696245 56.8143475171
4776 1 8.6121881525 16.2775173162 20.2266259069
4777 1 22.8728698066 36.0979240525 40.7913254379
4778 1 21.5133435074 46.1616715717 31.8355619071
4779 1 42.2586555847 42.6996179457 36.3297375547
4780 1 26.1535475693 34.1579245308 8.3934802161
4781 1 44.4091544492 4.224671377 31.3483895091
4782 1 30.0105883861 52.998056085 36.8987023055
4783 1 30.5113243401 49.1135945728 52.7490385919
4784 1 15.6749079006 54.1730358195 17.4630660554
4785 1 11.1526069573 34.6848481297 36.3935625995
4786 1 54.4669128657 57.2540181109 30.9585693872
4787 1 19.3303155951 54.9149799466 26.444664931
4788 1 8.563999363 26.9276684439 14.6500080322
4789 1 52.1948117309 60.7631038076 7.9067716799
4790 1 19.795938967 31.110058454 33.5220814672
4791 1 33.7623501731 36.0380917428 18.925464
4792 1 42.6734303008 52.0489007499 59.7165961963
4793 1 27.7953837263 16.9404874918 61.3565534192
4794 1 4.5873467718 57.3881270367 3.7910427308
4795 1 5.0525004102 22.6465169568 13.3477892249
4796 1 53.652923357 33.6019948857 6.0231930281
4797 1 10.980978065 41.1531376974 33.9850038712
4798 1 43.5425547839 46.6921181722 35.8845475918
4799 1 57.6844114673 33.3566765443 49.0111339443
4800 1 60.5976988847 50.1312135714 42.2844322127
4801 1 45.9016740571 11.7144669883 26.7029009448
4802 1 44.2533203472 44.3332924824 29.8028487278
4803 1 18.5220216055 60.0808158402 61.4691133188
4804 1 58.0138708291 12.9531543343 42.2536059491
4805 1 32.4170920301 14.5466079366 31.4025262996
4806 1 52.2042064017 38.6413550236 54.6463510782
4807 1 43.6209415685 15.9289163126 40.1458528367
4808 1 55.9643059591 41.6376091276 11.1132667733
4809 1 52.8017661818 27.326589653 3.8147525313
4810 1 45.5174907377 30.1976010518 18.398364251
4811 1 31.2008344607 58.2258380892 26.296463999
4812 1 17.0661412138 33.2941432667 33.1325549288
4813 1 41.3647526573 25.0166162515 9.8352392433
4814 1 7.6305155132 43.3804379958 20.7780343666
4815 1 51.4542768045 54.9661809025 45.5318176107
4816 1 47.8259962219 49.6062276233 46.9681453438
4817 1 42.3999866636 16.9996739179 34.2148797225
4818 1 44.0870346739 22.2215255362 11.5505886994
4819 1 26.9079396352 62.1425350656 14.9693094063
4820 1 58.340276923 59.6876488669 58.0722352215
4821 1 6.264401201 30.8990893777 40.6818188063
4822 1 46.3027090672 54.9031191747 24.4004432799
4823 1 39.647348117 17.2987767497 60.3694083841
4824 1 52.3855235483 50.97503116 33.0907486437
4825 1 49.0397876903 36.9503142782 33.7847799496
4826 1 21.0064423006 34.1665558846 19.1066637132
4827 1 19.1179373182 61.1694820367 41.4757272062
4828 1 12.2046926544 5.1513440904 53.8382919553
4829 1 31.6520135262 30.9681989248 14.1038253581
4830 1 9.7579680759 36.3669639378 29.5531266344
4831 1 29.7362639985 23.3170615857 53.7010710448
4832 1 17.6425629846 57.2574236791 53.1405614978
4833 1 40.1066888028 23.7219718975 18.50188178
4834 1 38.6348374707 11.297050021 46.3519723722
4835 1 10.5385477866 58.6208839967 8.0084513764
4836 1 21.7081654932 3.9127272045 43.3435639129
4837 1 30.7687970369 55.4646856222 51.7779819305
4838 1 19.8437930715 46.9290987433 54.0332313746
4839 1 24.9891955561 34.7500823751 12.282492272
4840 1 49.1038476018 30.997381121 8.8716102436
4841 1 7.305677155 4.105993198 12.2261829638
4842 1 14.5450813026 53.2888798632 35.8361650371
4843 1 54.5677294268 52.3868153156 43.7697296674
4844 1 38.4819392033 56.4061490705 47.1529267753
4845 1 33.467298793 58.7988542918 20.926352732
4846 1 46.5745673537 18.588782485 41.239920969
4847 1 33.0738969529 6.4379266425 25.4853516081
4848 1 45.4401608537 57.6660918592 47.3266107518
4849 1 10.6038407487 54.1410939388 57.0938389736
4850 1 26.0685845152 49.5830345297 26.8945522293
4851 1 14.9025485268 58.1948943923 53.3042636366
4852 1 31.815539515 21.529255731 29.3627671172
4853 1 30.1566755171 43.8963815732 26.4929887689
4854 1 39.2569408283 36.1496534587 53.8857350429
4855 1 45.6493684292 42.747883067 23.4989071825
4856 1 47.8966324031 35.4905585848 14.7235800479
4857 1 5.4318219874 61.4610691319 54.2072676513
4858 1 32.1498723623 30.0391834153 20.0775442245
4859 1 47.2676591925 37.315121089 22.1143088556
4860 1 37.095696809 24.0002890202 29.2799765807
4861 1 13.3894780766 12.7366658888 58.717649106
4862 1 44.5692161531 14.8906877549 53.7175704355
4863 1 59.8758358665 39.4310358217 3.5773644663
4864 1 29.1976557777 46.7189517007 52.8503836032
4865 1 8.8874226489 57.513722042 52.6999514369
4866 1 45.9978519995 21.4157563643 16.9444802269
4867 1 42.5144254974 19.0301558628 49.9696839502
4868 1 61.3653022064 27.7775925685 37.3552833067
4869 1 28.3809065844 12.7216344155 43.706022056
4870 1 27.4770218193 8.2152280809 15.6302244976
4871 1 44.2466266442 43.3732745593 34.4180981954
4872 1 6.3408268481 16.6979875515 32.6500211494
4873 1 11.9253186312 18.2150507369 49.9115544245
4874 1 34.6636514037 43.7592193794 20.4321930475
4875 1 11.6374894043 29.1299554312 47.9341523696
4876 1 6.5334058563 33.3522727923 33.6237787787
4877 1 23.2046778362 45.4078079561 7.3037512475
4878 1 61.7086187077 51.2757780592 31.5416848609
4879 1 53.4135941181 20.4828655532 37.165393523
4880 1 17.295664765 4.3699834477 58.4593543755
4881 1 25.5522886376 51.8217845832 38.5980221045
4882 1 22.3508784099 56.9876791935 27.0788052105
4883 1 41.601439645 14.4681624354 35.4445834145
4884 1 44.2383475906 54.3292809384 6.0237567083
4885 1 19.9881774184 15.6965156435 49.5330079077
4886 1 54.2329268459 27.8872166335 47.858642703
4887 1 8.5077840015 31.0930306132 31.1993665434
4888 1 51.7743414956 58.2849070819 28.4868902144
4889 1 36.9576538648 33.1663757437 19.4880286313
4890 1 34.3772900941 50.1105452956 4.5715402382
4891 1 56.1420413874 21.9756200278 59.1218548175
4892 1 19.1652629724 35.3890961401 13.3780283215
4893 1 13.4458461014 43.1175046466 16.2237328258
4894 1 30.0926156055 8.9252538139 15.5080350604
4895 1 20.6053485738 40.086783844 55.7306135228
4896 1 35.0589908946 9.8162150349 53.280131076
4897 1 32.0976732227 35.6699380805 43.7271600653
4898 1 4.8086852161 53.9518500387 14.0134603683
4899 1 49.5958934854 48.216344794 14.4747974216
4900 1 8.2293318305 42.2476168465 33.4795118651
4901 1 43.1697625029 27.6502360623 32.8518304217
4902 1 10.2735006365 11.6471776586 30.3638867251
4903 1 17.160264072 19.3527453717 21.3970257394
4904 1 46.3574917413 9.5522835019 3.6434882696
4905 1 10.4215254184 61.0612084557 32.0979080894
4906 1 54.1609401809 18.198610063 41.7811714409
4907 1 50.9270596221 18.535878745 32.7068589078
4908 1 53.6935553082 34.4021859718 11.0473866442
4909 1 17.6493741209 30.3243116743 51.8547246477
4910 1 30.3654133591 51.9258305624 43.2316498969
4911 1 43.8889832699 43.3120917657 38.5195766033
4912 1 29.4581230259 45.615606331 34.3694220573
4913 1 6.2891444153 39.2753778697 27.2753299804
4914 1 22.2491223817 27.2545442713 17.4521447506
4915 1 17.364422012 46.9856429182 15.6412632358
4916 1 35.1886373517 55.7363090419 39.1439699118
4917 1 46.4197901521 60.6905299756 44.9335532304
4918 1 27.7406597689 20.5918437345 5.159552684
4919 1 46.0628513781 37.7700580229 15.516901281
4920 1 51.0238834481 48.9693276592 16.8051455154
4921 1 29.7856447369 6.5529996166 42.3194273615
4922 1 14.795566713 12.9816319301 56.0636546029
4923 1 3.1242604915 47.8112583321 44.8968552975
4924 1 50.023762024 57.5823618556 24.618517076
4925 1 18.9040324072 8.7907045129 38.1123763404
4926 1 3.2584770449 4.4452406325 57.8884519739
4927 1 38.4335566487 45.6799011093 40.7269719429
4928 1 8.3564475982 60.6329289002 25.1696319523
4929 1 38.3076093432 4.2039385128 58.9550994107
4930 1 9.5807023811 33.4070554665 21.9779099788
4931 1 8.5774631006 35.3636718122 56.1086903061
4932 1 44.885875276 21.4304942542 52.0443208479
4933 1 55.7144077156 33.8978095828 41.8161078729
4934 1 42.990030707 4.8882404628 25.0203741198
4935 1 51.3836993401 16.057740736 58.7783621661
4936 1 5.5195212394 39.3578161061 23.8408731999
4937 1 24.5865164786 4.6563271422 25.1994013154
4938 1 7.9140408065 59.2472149561 56.3091490944
4939 1 60.3115137252 16.2067637017 47.2451706993
4940 1 42.7914508528 7.4663495125 11.0633575846
4941 1 28.0025949343 23.6833363138 44.1835061998
4942 1 19.6527876706 8.8911687738 12.9236198379
4943 1 48.8655165468 32.7685701517 34.1263936669
4944 1 4.1212360514 16.2327751965 19.3709475464
4945 1 23.621037903 13.5338624236 21.24700459
4946 1 13.9095905392 27.7915084246 49.5636580212
4947 1 47.0245720854 13.5562334834 7.8826332476
4948 1 49.4950769243 39.7363039062 28.7317388224
4949 1 40.526806738 27.8635538064 33.307060939
4950 1 58.16706268 30.4717492893 43.6204131182
4951 1 56.5808899475 37.0230642603 20.2770048291
4952 1 37.6936088892 60.242991345 24.5396605579
4953 1 60.2536190664 12.4033899419 30.3401064646
4954 1 10.6698383112 13.8115923793 54.7965483777
4955 1 26.394814459 5.4478281578 60.5882454972
4956 1 43.0981868547 24.1019863317 13.4982801079
4957 1 35.719318819 20.6011209719 42.5494793629
4958 1 38.1698599824 19.5116914584 7.0211771646
4959 1 42.1541398719 23.1402069078 60.7422593817
4960 1 23.6535669507 27.455120493 39.3043251991
4961 1 38.813923383 47.1285593479 35.5492165607
4962 1 36.0033901775 33.3641335642 29.7677361457
4963 1 46.4460952304 42.1419855166 33.2545682159
4964 1 41.3758501122 13.1452166356 3.4405851054
4965 1 32.1816968097 30.5226566618 48.6312956602
4966 1 3.2010280458 33.5339422391 6.2586352218
4967 1 60.1546814394 18.8117884833 9.2559403546
4968 1 25.6238055691 22.7144521701 19.9389728301
4969 1 27.7180538422 4.4789322707 40.2527759339
4970 1 54.9310683203 36.929352419 15.3335877668
4971 1 43.103295207 48.4601952181 43.2674670793
4972 1 35.6759858999 55.5276299166 34.6738093915
4973 1 42.2527251987 13.0228510483 38.9213162137
4974 1 60.7148386863 45.494708661 8.8765424457
4975 1 21.9938809192 41.7142344114 18.0541669993
4976 1 56.951862011 17.6974043754 57.8004356517
4977 1 36.0014525267 22.1351532814 24.0611195137
4978 1 5.2129613876 56.7839322704 33.4997104073
4979 1 38.0164332648 26.4552339356 13.8869258958
4980 1 26.4397914455 24.0119149253 10.3414945664
4981 1 22.7094025346 3.8278580971 23.3034980297
4982 1 52.750741376 24.3933385601 8.8446945117
4983 1 35.7176160349 43.630571106 31.0791734737
4984 1 14.5049778016 17.4384050446 56.5990921222
4985 1 12.8692481806 8.245690301 30.4129738801
4986 1 26.5281600678 14.0250275567 29.4248893779
4987 1 31.4013519657 16.9566932989 60.2851499303
4988 1 24.8386459564 36.0544149833 23.4001457057
4989 1 17.759937653 52.1154267626 39.3385570309
4990 1 61.0757701954 50.8311165465 35.1414878476
4991 1 47.0659086369 16.4642363985 58.9998415304
4992 1 27.8752384282 24.301505653 20.5863243654
4993 1 59.5862451389 35.9851880028 30.1088801294
4994 1 26.4644524563 26.595919131 46.922463757
4995 1 23.4649102176 45.8400802466 21.7978845994
4996 1 13.0902578114 29.7269280444 3.6437642381
4997 1 48.1604465027 58.5653967222 5.9409074551
4998 1 15.4220738225 56.3019269412 24.0608259302
4999 1 48.0676741285 34.622902019 52.6505119818
5000 1 50.1883449132 58.5268785719 44.4462046822
5001 1 61.5730418646 53.2292824202 12.2799087375
5002 1 45.6211257001 4.9896207041 40.4703212798
5003 1 26.0876087236 29.0610220342 4.4113552293
5004 1 17.7882978155 4.6933421452 20.6768655053
5005 1 31.619778062 33.928518413 37.8576633282
5006 1 25.4285138497 31.7110825189 19.3263815767
5007 1 26.7347253921 56.4364468839 53.8338294867
5008 1 38.023655418 5.8538247284 41.9592591694
5009 1 51.6463978225 27.4118462906 43.5219452248
5010 1 33.0184683952 40.3908775947 51.077961522
5011 1 28.5697981843 3.6769984732 29.7603378424
5012 1 18.5953000378 32.1529256303 28.0744054493
5013 1 51.236848892 36.1443689563 53.8999444825
5014 1 29.3741581555 24.7847440326 3.9841854193
5015 1 52.9918908323 53.5337284711 48.4186825165
5016 1 39.3851193681 28.997842873 57.3255937591
5017 1 23.639944678 12.3798445482 18.6698115207
5018 1 12.0096358017 29.7240509264 22.8709321558
5019 1 23.5563908245 6.8949891206 56.0233749518
5020 1 33.415745537 12.5946889263 6.3692222406
5021 1 50.6917231184 50.5285494298 26.2123229785
5022 1 39.247252574 3.4975602608 23.2908152242
5023 1 12.7246876836 4.9625288222 35.1437777986
5024 1 5.8653332001 41.769310669 14.801497099
5025 1 14.5921133733 53.7440516638 9.9287162178
5026 1 6.8460605007 58.38631081 38.9579554298
5027 1 55.5299785843 41.1884851463 7.552263777
5028 1 25.9940730323 7.7297056219 36.2507048865
5029 1 32.3646580237 31.5746836421 4.3417231036
5030 1 19.5797441051 11.7163459224 49.3976659314
5031 1 45.1250870815 8.1585253709 26.3410299686
5032 1 49.2942071191 56.0749282078 12.2466750895
5033 1 22.1616932265 30.5040434702 31.9405473534
5034 1 42.8310259036 40.9401722535 56.9775212057
5035 1 59.8826470029 4.7251665926 8.9709941174
5036 1 18.9736704046 9.4394300188 47.7108527879
5037 1 32.1168735811 52.3343813091 45.4147365258
5038 1 44.7827687639 11.5296268401 39.5267440305
5039 1 31.1590868923 51.7347077281 58.100419234
5040 1 11.1615906113 60.3841462739 24.7341302437
5041 1 32.6705132751 16.9173531149 5.6654674504
5042 1 42.160246408 58.8505836979 52.4982008813
5043 1 35.8392183052 29.8182325013 54.7155780587
5044 1 52.0750296781 40.6549265611 23.5194580249
5045 1 56.144801072 12.6890466512 60.4595972238
5046 1 54.0767404438 60.2591971522 38.3672655028
5047 1 43.6033852774 17.2271423848 24.6208657437
5048 1 47.7905313396 9.4205819605 58.5669233563
5049 1 17.8123716594 8.7246541054 4.2198037632
5050 1 56.4592876773 53.2398514249 13.7977939566
5051 1 18.3139296471 15.668331631 43.7153580101
5052 1 5.6031749113 54.6758855745 39.9881398006
5053 1 52.2764279336 41.5195298589 33.4331256779
5054 1 26.7191654686 49.7824951343 45.8319186263
5055 1 31.6177229778 34.1761267054 19.9177761041
5056 1 16.2099344031 48.5381122692 49.4175121734
5057 1 20.3242130499 49.0138349122 16.1324283689
5058 1 13.2462093468 49.4291967953 18.5489138507
5059 1 45.0167547837 59.5659878799 52.8697013951
5060 1 11.8804003614 22.159109692 11.1318799648
5061 1 20.4164569739 5.9026300432 36.3288568043
5062 1 24.5726593392 43.6386740096 8.8972694382
5063 1 59.6531821684 31.373989987 25.501792282
5064 1 39.9686458586 54.8737608284 29.1235553117
5065 1 22.7358250462 53.3378495848 3.5051758158
5066 1 36.3467653955 55.3503642218 48.8781406357
5067 1 37.5229781806 48.0029683333 55.8906752266
5068 1 54.3905811654 26.6124185216 8.2361136084
5069 1 10.3852385024 27.1807961054 41.1544881813
5070 1 36.1495360253 6.8645327722 59.9361379098
5071 1 33.3199786114 19.5672961663 4.876679146
5072 1 60.3860839248 15.3266004804 16.6399754593
5073 1 51.2294505888 28.9044833318 11.1628823785
5074 1 38.0964054001 37.2038529567 13.5917570824
5075 1 49.0003887896 17.7271737385 18.2136415363
5076 1 31.0208090813 56.1696382329 54.5251011081
5077 1 49.0259305508 18.0158837158 29.2562550369
5078 1 49.194153875 15.3483256567 60.7796619149
5079 1 25.2241797597 36.4395377698 32.4241967499
5080 1 6.6024097134 27.5161271366 57.190780233
5081 1 5.7784501102 9.6462889267 50.9082702805
5082 1 15.8504708113 19.2174033954 39.2504232754
5083 1 9.3224076506 55.2669865184 59.5396828017
5084 1 28.8385444861 45.6570015992 18.0924502829
5085 1 22.323927448 38.8044112788 17.9829436513
5086 1 42.9195119593 32.5478541044 37.940395148
5087 1 21.4562121655 11.0043473086 59.6957517705
5088 1 3.5682663148 6.7851419322 12.3321665939
5089 1 25.1319358357 23.5409483344 26.4717333262
5090 1 27.729562314 21.9782035623 55.1823170477
5091 1 28.5770790542 56.6965618318 37.5132312097
5092 1 8.8944099353 25.8611384404 57.1874920982
5093 1 47.7284677956 53.3923386754 61.1435879753
5094 1 58.730449345 6.6917647761 5.7171733698
5095 1 37.336317815 9.2482484679 50.5252025783
5096 1 24.849038811 19.1152363503 56.0574306335
5097 1 17.1212761881 38.3079029266 54.7066531214
5098 1 55.4677976069 57.9543321029 18.4240234457
5099 1 16.4505554092 32.601403728 21.6900220352
5100 1 15.3429824376 44.8755998548 43.0513896508
5101 1 21.4972551336 17.7112615148 38.4755978005
5102 1 17.3081714205 58.6747272038 21.4193967993
5103 1 27.5288686588 34.4584365632 28.4590585022
5104 1 29.6648645003 36.2101903687 6.5353904805
5105 1 37.5634339818 7.4194524902 29.5613469714
5106 1 11.5858187149 35.9302291786 46.877017037
5107 1 59.7817130084 55.3389731835 12.5930448589
5108 1 61.7564728121 24.0827859732 19.3809293841
5109 1 43.7622726474 38.6232702823 24.9112197884
5110 1 41.9442276961 32.5928898076 31.4489124867
5111 1 34.0899306008 11.995074062 15.2510908138
5112 1 46.3466291532 52.3438346966 6.060102341
5113 1 19.7238935853 55.3739683322 52.2736095323
5114 1 29.3240728168 11.1273587795 14.1081703934
5115 1 22.1237035264 50.6856752991 61.3729940931
5116 1 7.8289016023 14.9200461012 30.7056765924
5117 1 7.1562431725 3.9718842722 31.1049501018
5118 1 7.2313300789 14.0222091555 38.196869661
5119 1 38.8529699835 26.5872290605 61.1920292467
5120 1 25.3928141007 42.8892141459 43.8832290341
5121 1 13.8466462448 3.8354149354 11.7978446917
5122 1 54.0185522015 7.030489632 59.5331652488
5123 1 35.6382310666 29.5238857215 9.0536026321
5124 1 54.8112862675 37.0092071209 18.0865786136
5125 1 24.7736465777 39.0564233232 28.7383150919
5126 1 58.9966121123 47.203775431 7.149203041
5127 1 45.4153824094 34.5519722544 39.6313771766
5128 1 21.9237731883 10.6745943633 15.1924915546
5129 1 48.2714797683 7.9965906045 36.8578354875
5130 1 27.770429132 29.0615504844 53.5087151601
5131 1 49.1553421412 32.0732470786 47.6666978351
5132 1 13.2766833102 33.1842256182 54.0209595858
5133 1 48.7777938081 12.2412731538 58.1094028879
5134 1 26.3097339715 58.1038248021 22.1759613828
5135 1 34.6759231924 25.7492831411 59.8269835783
5136 1 52.4503467769 13.0600774314 48.2821074896
5137 1 48.4400553926 43.4869500761 34.7608862465
5138 1 37.2204697806 31.5147926157 17.1169898696
5139 1 54.4465968901 15.3427475709 36.5087647503
5140 1 53.0258877972 50.4847467772 39.3628070249
5141 1 16.008653581 3.2021624523 31.0151135622
5142 1 52.8947147061 51.9477906054 27.3142004309
5143 1 14.6211781361 40.1416839516 44.7168886349
5144 1 28.619707373 43.595634674 14.6356811592
5145 1 32.9248739873 51.9723341829 25.6442976948
5146 1 42.4750265967 23.7286068838 27.4334540335
5147 1 9.5977889386 7.2843571239 43.1331820035
5148 1 39.0071013015 10.837357035 52.377185778
5149 1 23.2915785412 49.9694490834 32.0996695902
5150 1 8.3335657031 17.3778681346 27.0031781105
5151 1 13.8892745635 54.0415104282 26.4790141961
5152 1 12.9307832744 25.8687128938 4.3587979178
5153 1 42.8766487737 57.9834555824 7.5847810814
5154 1 54.3619274195 12.9017185116 37.9038733652
5155 1 56.0476249458 58.0082927434 61.0816418647
5156 1 8.4624370999 41.5581067259 29.1892592907
5157 1 5.7482403719 3.9868629005 51.4701303115
5158 1 20.9147268268 5.787862396 9.3893446801
5159 1 54.5003813805 42.4538885874 56.0403440759
5160 1 49.9599956959 11.7899179382 4.018153026
5161 1 43.1284846681 36.642697526 21.5606104449
5162 1 33.2796402436 25.3215907526 52.4569817632
5163 1 24.7081187489 16.4378138869 6.8131615379
5164 1 33.8366855058 33.635933134 21.5246171123
5165 1 18.9103150933 4.7670844394 7.6629271275
5166 1 60.7187727047 32.0397198471 28.1908993673
5167 1 44.7478323318 21.0488357526 49.2469401816
5168 1 48.8828966878 19.9592888057 42.5342717395
5169 1 49.7199031401 52.4953824801 52.6673636726
5170 1 47.8144290335 38.3511184123 10.3656858438
5171 1 21.9698070752 9.1511897751 56.8233311711
5172 1 8.7304729297 19.9048584317 33.0883412593
5173 1 21.6728180443 61.5306484126 53.6304935804
5174 1 33.9387351175 9.6822822592 24.4348512618
5175 1 53.8845019924 19.9996858902 24.6815788038
5176 1 36.3791182931 5.0465054359 35.0621028793
5177 1 50.0973927564 9.227404042 52.9332328564
5178 1 61.8205327237 11.9835655902 42.8087722771
5179 1 41.1627085183 33.9298101802 11.8448180457
5180 1 26.5137157614 32.4015908233 47.6223080155
5181 1 49.5064679626 22.0195401138 40.8952539837
5182 1 47.1232161288 5.16924681 7.8542202401
5183 1 22.5468160129 24.4597471394 3.9092335613
5184 1 40.5007952432 22.0373312717 28.9242708572
5185 1 22.7943655887 45.1072959236 46.8311593001
5186 1 20.6886088438 25.7060676554 38.8040589786
5187 1 47.7133188889 49.4449915855 44.3177912756
5188 1 56.8564473857 61.0657883577 30.6954011712
5189 1 23.1803691255 21.4296135038 22.3935654453
5190 1 32.6163764846 37.1783699121 57.8029604695
5191 1 37.0857149712 55.0015870681 55.619991274
5192 1 47.5315907255 16.4149730935 8.8963064844
5193 1 10.1707464245 32.7290538176 32.944015629
5194 1 18.5017056299 11.4997987603 29.4425043857
5195 1 41.2311134651 4.4150485092 58.3184343134
5196 1 20.6017081389 3.8290500459 46.602575216
5197 1 19.3626684927 17.6409189172 6.0009041716
5198 1 56.7071895532 13.4948745397 39.3579922561
5199 1 22.2349129421 36.6284880864 48.8420885865
5200 1 44.7569334192 25.5315029285 58.4591782254
5201 1 26.9529753383 4.9594168375 36.1963332292
5202 1 40.7206892568 35.6897843226 38.5552763523
5203 1 38.1008678687 60.2027116939 48.7575952659
5204 1 45.1281990662 28.7773029758 21.7403422407
5205 1 35.2549872143 25.1685163351 33.0668509498
5206 1 13.0590792476 5.3263609359 59.727928518
5207 1 34.6348802243 27.5834164662 56.0052314938
5208 1 28.4680421561 35.4761729951 38.8990038705
5209 1 29.6055019242 41.9357724924 32.8496579041
5210 1 59.0218602901 17.3576695923 60.9428356035
5211 1 19.2886854601 23.0182523374 38.2217655387
5212 1 34.8885950528 7.971160405 50.9479627647
5213 1 28.5754349868 18.4506221074 24.6746502341
5214 1 21.3351383455 47.586314683 42.0500351761
5215 1 9.498792595 42.4062693497 47.4647124127
5216 1 11.9956612289 54.4884031752 20.3944969309
5217 1 46.9674407435 23.3814150808 26.7216315697
5218 1 21.5716491831 25.1891846109 15.8891651117
5219 1 36.7991187949 49.7610635415 23.5156414399
5220 1 59.6925810691 8.362096144 30.6083243162
5221 1 31.1128768552 33.096796463 12.2362822349
5222 1 53.5126491785 60.7286958258 26.8616708814
5223 1 34.9150762812 33.4376468633 6.7680260164
5224 1 19.944903216 20.1467124883 38.1331620496
5225 1 56.2511957189 51.102974833 52.5260913103
5226 1 59.5142584738 40.1658165122 23.7833895579
5227 1 43.7534064269 51.5923784654 55.1733921105
5228 1 11.1843139713 9.6613204 16.5497279029
5229 1 2.8715980422 55.1849592989 61.2717665151
5230 1 44.8069600412 23.2492438058 24.8523856625
5231 1 10.0663481452 55.3195966749 9.5091854496
5232 1 43.5872381869 54.1142016936 36.4966691116
5233 1 35.0348583339 60.9782417691 59.2076399053
5234 1 58.5699766243 12.1550183325 10.9379387293
5235 1 58.9207501455 23.2681505808 18.4553194428
5236 1 40.3826572578 4.0359441838 20.0793057253
5237 1 54.4484171076 4.4860780922 42.4475471846
5238 1 6.220410655 28.4120264314 13.748060918
5239 1 19.5068179729 15.9770640005 33.8820147925
5240 1 35.2477063444 35.1787729474 35.0862941566
5241 1 26.2614101335 37.0075043368 38.0424447596
5242 1 4.3229631203 48.9664505413 34.3912059502
5243 1 25.0197282362 61.6369843428 34.1094832594
5244 1 30.6871808343 25.3918159169 29.6535908954
5245 1 43.3041062955 52.7709399182 41.0478586677
5246 1 37.6621954587 54.0691659904 25.8200367556
5247 1 50.1743116237 56.5662107744 8.7311892733
5248 1 11.1949416926 28.411732848 25.3102584309
5249 1 17.2788130742 52.0258838065 36.4796412708
5250 1 9.4303876482 46.4576624188 20.756955074
5251 1 43.6951007512 29.8078396467 28.912292652
5252 1 46.3288967121 45.398648152 22.6297239828
5253 1 38.5577424534 32.0433015654 29.1388216518
5254 1 20.0741386563 19.7073941947 28.0899653728
5255 1 15.1527403538 47.4687638645 9.6513972789
5256 1 36.9619989 47.9893460606 15.9370779328
5257 1 61.1516321622 22.1091417866 8.1103835547
5258 1 6.4572385627 29.3732774051 5.8366500958
5259 1 55.398453193 49.3813426908 38.3579882654
5260 1 6.1959903825 37.0905884567 18.6820245927
5261 1 5.744670397 47.8781366449 61.6160812002
5262 1 61.2188627752 54.7273801139 27.5002736296
5263 1 30.9717806431 52.0666331911 7.9352727625
5264 1 40.540546444 6.1407379749 18.4087571056
5265 1 12.6767748624 11.7579173408 34.7412161545
5266 1 24.0215444629 7.0208307361 9.5301473088
5267 1 39.973930361 27.4741447014 36.1785420714
5268 1 53.472252094 15.5144351799 13.9990160619
5269 1 6.0792322394 47.7534811066 56.9793414232
5270 1 35.7047570792 13.5882340809 38.5737133938
5271 1 10.944691149 58.3719252203 39.2156042767
5272 1 31.1402975507 13.9909131583 47.770978681
5273 1 47.1679582486 49.3186332632 12.8953183921
5274 1 48.625423991 49.7011725151 22.1141327055
5275 1 12.0736957133 54.7961960776 24.4643857581
5276 1 49.3311399187 44.5777887902 57.2083952408
5277 1 52.1396767566 7.2273667022 12.0037641325
5278 1 49.6247233814 51.5046557267 32.593007241
5279 1 18.8829531146 38.4215197267 10.826846747
5280 1 18.9394385729 57.927968308 58.3810850243
5281 1 20.3091815766 44.1545001536 54.5318535277
5282 1 11.8858610138 10.0269492445 32.4950677978
5283 1 28.1331221418 29.9240399812 12.4388548242
5284 1 50.8812018853 58.9115316248 34.3039529451
5285 1 19.9729697951 24.849038811 48.9137229514
5286 1 34.6694643562 44.8864624429 26.3571770591
5287 1 44.3145031408 7.7769784311 8.5123404169
5288 1 10.1765006604 26.0390500188 12.4144286801
5289 1 50.0239381741 38.7693574133 48.2174604112
5290 1 15.218385616 26.5554046131 21.8380468171
5291 1 43.5121395372 34.7783838209 26.8522174939
5292 1 8.1859108363 4.0395317737 16.3902533659
5293 1 40.2238286044 13.8256256688 32.8168939897
5294 1 41.013039669 10.559098629 7.7498924208
5295 1 39.6580932717 35.671758298 15.5231839671
5296 1 19.851895975 54.0422150285 40.1413316514
5297 1 53.6430002359 20.9284665329 34.2080098695
5298 1 13.5777825096 17.2785782075 3.9822653835
5299 1 26.8961962966 45.2140428707 33.1257437925
5300 1 39.2703282342 27.8011379622 45.6430857431
5301 1 42.5228219844 42.4800175156 28.3802019841
5302 1 30.3276585258 26.5183543801 58.1493889555
5303 1 9.4651479302 15.0960200288 59.4258311348
5304 1 14.0714724605 14.2952417758 53.6058325695
5305 1 32.8275804277 55.3747316492 43.2537273733
5306 1 26.5950970973 33.9207678096 32.4318886366
5307 1 30.1976597685 41.3287006081 7.031076799
5308 1 11.6953840632 52.7099332746 41.9353027588
5309 1 41.826030994 61.777317238 5.8091354537
5310 1 29.3421575581 41.8849238366 16.9458894275
5311 1 15.049575125 8.901444195 4.7826502346
5312 1 5.3014826733 36.8195522039 14.6989777538
5313 1 14.726046149 50.5683006307 36.8356405777
5314 1 37.0971647263 50.1552874153 57.8155845584
5315 1 48.5816213383 26.6672599124 31.4814415344
5316 1 36.4609106458 17.8323353349 58.5547102842
5317 1 46.0863380551 25.7296717658 32.5335859481
5318 1 54.7053613542 17.8770774546 39.2081472568
5319 1 20.9072698069 49.8591791348 6.9324562422
5320 1 17.3603705602 36.976325773 25.745290406
5321 1 20.7466796528 49.4746435153 44.1495679515
5322 1 59.5351616164 56.597037038 42.8271506019
5323 1 38.0578872498 45.2638933426 33.2741795912
5324 1 12.0515008035 29.0814554432 30.2895513923
5325 1 57.4095586295 50.5875009891 6.0111267477
5326 1 58.5127865657 7.3587629167 50.1547589651
5327 1 47.4769254847 40.5904556327 18.6717491715
5328 1 14.7735479533 30.3951827222 14.1618374503
5329 1 32.5048147688 35.1917493364 48.6096879174
5330 1 48.9878821341 19.6098070517 36.2756007642
5331 1 48.4980674848 6.1423879139 19.3147556716
5332 1 59.294599327 40.8347170737 58.7631545427
5333 1 45.4949435278 3.5912721021 3.664397871
5334 1 17.936968481 17.3557319415 51.9495521062
5335 1 8.3905091515 53.0716281007 20.0695000376
5336 1 23.8738132645 10.469731823 58.3743326047
5337 1 36.7477416889 12.7285042686 19.8339286671
5338 1 15.2420484431 7.2918611172 54.8381785127
5339 1 27.3463771784 39.2817192725 29.7532331226
5340 1 38.6055965578 21.9453222144 51.6509777246
5341 1 44.0754674855 61.5573645077 14.5710927974
5342 1 30.5727420005 7.0300668719 22.3994371146
5343 1 50.4251493342 39.6452343161 10.1476120477
5344 1 28.4757340429 15.9547516573 6.365558319
5345 1 43.5882363707 10.3063819843 20.9583533294
5346 1 57.8450603381 40.6952649289 38.0617038348
5347 1 20.8389822935 43.6570523344 58.2566056361
5348 1 19.2704245687 9.1486062406 59.2817403713
5349 1 25.0359340434 58.0598459994 56.3434396429
5350 1 21.1272225372 9.2565275216 21.8618857943
5351 1 45.8093714164 36.055060867 53.815627312
5352 1 53.1890614858 20.4242075773 43.0863847995
5353 1 43.4068605074 20.4442886862 31.2606080537
5354 1 17.4267791394 22.3784165387 43.2857279707
5355 1 25.3153667832 24.5826998936 40.5637982543
5356 1 30.5946433268 32.388085984 8.0539802998
5357 1 13.8269174361 17.4482694489 39.4077840114
5358 1 15.4237766066 6.451819012 5.6943912931
5359 1 4.0063333557 37.9442704497 49.5007137268
5360 1 60.9171764088 15.693168792 57.6142450197
5361 1 19.6290074101 24.6051883868 33.5918368979
5362 1 19.5499160253 15.1796913157 4.7558225778
5363 1 13.9437049375 53.7120510664 7.2250356495
5364 1 53.2511250299 29.0240892346 7.8153497897
5365 1 31.0670191184 37.4369582261 60.1041850838
5366 1 10.3882330537 39.3430782162 17.7190121183
5367 1 54.5163523209 20.5912565676 17.2067089758
5368 1 57.438682109 3.57236474 61.6586508023
5369 1 6.0306911497 9.5722471774 23.0059218319
5370 1 5.2795461169 19.6016454314 3.4267444066
5371 1 6.92745358 15.18192255 60.6214791452
5372 1 29.2219644884 60.374575453 11.5741928098
5373 1 22.9099200396 5.9908636171 30.1004249257
5374 1 3.4827337088 11.3843617428 32.2579110766
5375 1 46.8241720137 29.4419759354 48.5557272769
5376 1 28.4863617642 52.8686444946 16.3977691026
5377 1 25.9967152835 39.0590655744 25.2878873711
5378 1 55.2799041908 47.1666664813 10.0006441662
5379 1 43.5574101071 45.7771946689 33.0797099055
5380 1 56.5685007254 6.1816282796 43.5663350444
5381 1 35.3367208503 14.7693790681 33.5506764964
5382 1 30.7671529695 32.1492851954 56.6672622023
5383 1 20.3343710377 37.1773717283 3.4587085997
5384 1 50.32474379 25.9877316296 14.1948362316
5385 1 31.3227303144 20.6520283444 21.8369312
5386 1 27.3231253682 61.4628306327 27.2082168008
5387 1 21.9112078161 36.3754191415 26.1754488956
5388 1 41.5992084107 29.9460587409 59.8771276338
5389 1 41.3901769852 59.958626403 26.9698857458
5390 1 49.4256737937 50.4281438856 50.8442690856
5391 1 35.2563964149 14.3708688758 18.0694920561
5392 1 19.8352204344 30.3859054848 30.114105915
5393 1 5.3876024462 50.2108334064 58.3807914409
5394 1 54.2062694675 58.6322163184 47.90485274
5395 1 44.7869963658 28.3933545232 50.4008993402
5396 1 45.0540398835 20.1437766537 7.5387295794
5397 1 42.217142883 46.2427593241 46.6132616541
5398 1 17.8524164437 9.0784397931 8.5524028162
5399 1 57.4850095794 39.1416212441 7.3037571192
5400 1 7.2459505353 52.9645288535 15.3654122142
5401 1 27.0291896053 22.7887875029 57.9156378025
5402 1 38.1910567085 56.6966792652 35.8308218181
5403 1 27.5801283314 5.6117123183 16.7824221554
5404 1 38.3337382713 21.0455476178 48.775327707
5405 1 35.8830796745 25.6127668309 23.0796699978
5406 1 15.107822084 59.322665906 50.69542227
5407 1 39.0227786584 34.7517851592 31.7677441272
5408 1 30.629168742 13.4452589345 29.4829014701
5409 1 40.7386565647 9.0004405387 57.9040706141
5410 1 43.7320922675 42.6985610452 48.641453648
5411 1 60.6653992312 56.5534105354 10.1776162775
5412 1 31.1561510577 14.5639880776 6.8492899188
5413 1 34.6641798539 35.9722116138 42.3905919928
5414 1 60.0513987772 54.3704413399 50.484394477
5415 1 53.1209501225 55.7760015261 32.9557589675
5416 1 16.0112958322 42.8540428471 27.4937560767
5417 1 11.6552805622 50.1059066769 44.2099287114
5418 1 35.8525469944 24.6738869171 41.0716976448
5419 1 37.693080439 26.0678799149 4.9981933413
5420 1 38.0876566129 10.0422743012 28.5723817188
5421 1 31.0914452625 25.8380040636 43.1383490724
5422 1 53.6044820856 52.1072651423 35.2457686936
5423 1 17.2339535211 16.5096244019 49.2091266316
5424 1 50.2613884787 23.1486621115 54.649052046
5425 1 29.123496595 15.6265840626 28.7711964398
5426 1 57.658106389 41.5005056505 32.194438332
5427 1 16.0076553973 42.1196144567 43.0294296077
5428 1 57.2887196762 50.070559228 47.0097167621
5429 1 37.4660817056 52.7448697067 32.2697718485
5430 1 35.4483999996 16.4052848392 52.5566239904
5431 1 23.2790718856 21.7913670466 18.245583417
5432 1 17.7343958917 22.8303589212 19.2613821981
5433 1 32.3069395149 51.6409371701 33.6648217467
5434 1 16.0977268036 10.735953307 51.7304801263
5435 1 21.2049047214 30.3423376989 61.3174481019
5436 1 16.4982920802 37.401258477 57.3740937472
5437 1 30.2543213768 48.3472243017 30.7234677503
5438 1 46.5711030688 60.1739405146 8.7296978693
5439 1 56.2167290204 49.5843850137 33.7276486078
5440 1 27.545074466 27.595101088 8.7667657173
5441 1 48.1927406836 19.3623161926 52.8913678546
5442 1 52.321992087 36.1181225948 23.9574845513
5443 1 43.1230827324 30.0853347357 5.3926638251
5444 1 45.6990427511 32.7215967977 37.5536282942
5445 1 60.0166384952 23.8251371263 36.9018730069
5446 1 17.3862646216 35.0590496113 60.302764938
5447 1 22.7362947797 40.3131954105 4.9938600493
5448 1 18.9076728422 36.6896121633 40.3002190214
5449 1 39.7633723015 43.5220626582 19.8504867744
5450 1 40.3572916466 9.6582084153 16.1444065742
5451 1 38.3409604245 42.9655458463 31.3351782532
5452 1 33.2915010155 21.6660656247 19.8277046977
5453 1 20.6288352508 56.9425847736 24.818858431
5454 1 8.829580835 37.5122917426 21.3669627928
5455 1 57.3565374561 52.5860997701 54.8971887887
5456 1 56.5875249338 9.3895795469 46.6022229159
5457 1 32.8364466483 32.868975696 44.2310667207
5458 1 40.5470052802 44.4573021371 42.4595841066
5459 1 25.1886561607 45.3208485344 50.6035893629
5460 1 16.8245807407 37.1631622887 51.9038118027
5461 1 51.9662276468 21.7017653737 8.7398264988
5462 1 45.5092704008 20.9055083061 38.1690379487
5463 1 16.2033581335 43.9736527406 36.3714264064
5464 1 7.6324942657 50.3858091502 48.171661391
5465 1 59.5023389852 7.0117707505 54.0740394759
5466 1 24.8611931663 24.7768172791 23.7634845992
5467 1 35.6971826259 29.4852501378 18.122219646
5468 1 44.401168979 58.1190324255 5.2858581614
5469 1 12.0828555173 22.6179806443 22.5260303037
5470 1 3.4477514777 28.7703156894 16.3051141617
5471 1 55.7196335012 4.4699486168 35.506764392
5472 1 46.9479468016 29.1321279489 6.8633232084
5473 1 52.7314235841 42.6380241352 9.6666049023
5474 1 17.3143953899 31.6691000837 3.6273693632
5475 1 9.5357841113 7.7770077894 52.8245482585
5476 1 59.3295944758 8.5624374989 25.2237687428
5477 1 49.4902034388 50.1123067964 36.4388331695
5478 1 41.1997587513 19.0967993089 53.7154566345
5479 1 56.6231659662 54.4724909515 23.562027627
5480 1 28.9110008847 19.3252659596 35.8656995335
5481 1 10.5950919616 31.6223615965 57.5446070223
5482 1 13.5352129075 53.7199778198 49.8470247794
5483 1 29.9437687899 38.3730197387 41.0661782757
5484 1 36.0998029867 18.2444677999 50.5204465262
5485 1 55.4515330831 61.0811721311 4.5410310448
5486 1 32.0304426097 34.1832901419 3.6045450105
5487 1 56.1399275865 29.6222361815 52.7752849535
5488 1 3.0444024427 4.229145589 52.9298860049
5489 1 38.1194223435 18.9470717429 42.2061628615
5490 1 39.0125032372 38.0743866404 28.652353854
5491 1 37.2135999276 49.996634912 4.3773289059
5492 1 39.7370085065 57.9819289484 53.7755825277
5493 1 32.8815997849 40.6315573175 46.9929237881
5494 1 53.837587355 44.798974571 31.1862727209
5495 1 38.4961486429 22.9975840616 58.7586333574
5496 1 28.5737322027 24.9009443672 51.6468675561
5497 1 50.74832601 17.2744093223 47.7269998783
5498 1 9.4113047231 25.0649400895 37.5631403983
5499 1 27.4857118898 55.8908513767 14.1597823661
5500 1 10.8059436045 10.8443443214 43.651004515
5501 1 59.510207022 58.5815438127 8.2996157114
5502 1 54.608948545 28.290071861 27.1923045772
5503 1 23.8625983762 35.85777278 20.4236791271
5504 1 47.9029738059 52.637476876 57.0220871753
5505 1 48.7918270977 15.9024938009 44.6239988273
5506 1 17.3755194669 42.4452572336 20.7159708226
5507 1 38.8566691352 6.7569050748 34.4132247099
5508 1 24.9816211028 15.2631864525 49.2248039885
5509 1 34.4840370412 25.6493473304 38.8111049818
5510 1 54.2902930546 40.2011639611 5.1396007519
5511 1 5.1332241191 25.6026088431 44.8695520355
5512 1 54.4855260573 26.2174313308 15.0681883165
5513 1 26.1892473184 31.5895389653 53.2074985273
5514 1 23.4080137425 58.6643343492 35.1766004298
5515 1 53.0183720606 17.1011363626 49.1453603035
5516 1 53.7314862916 9.3182387654 28.5659228826
5517 1 53.3677363813 41.2846630887 48.5198513778
5518 1 45.3571941671 49.1143578898 49.9960477451
5519 1 56.3616418176 39.4564014328 13.2022892607
5520 1 16.9633282852 21.7652381184 8.2659240733
5521 1 56.8100611985 42.1259558595 34.953300848
5522 1 12.7204600817 12.7063680755 18.9985662822
5523 1 46.7672755386 18.1108873243 6.8006607541
5524 1 59.6786652129 57.7536384478 39.1500764478
5525 1 3.03889834 60.9100129724 41.1605360007
5526 1 27.328879604 17.0322616822 49.1561641749
5527 1 7.5383772792 58.0408805077 26.2254755177
5528 1 38.8088737474 17.3718790319 49.5224976197
5529 1 50.1552286986 49.2664928402 29.6808354407
5530 1 33.4103436012 21.3447091664 58.4934687739
5531 1 57.9321371931 4.3264274052 41.859264642
5532 1 40.0977638655 7.3467670964 14.3802635466
5533 1 4.8209863632 26.801779855 54.9785701246
5534 1 19.1476479646 42.8360168225 29.8239867371
5535 1 5.4773920125 57.459291668 55.7942037008
5536 1 28.6239349749 6.5060673642 12.1305334717
5537 1 43.2586008588 40.0001767225 49.427141711
5538 1 56.4837725381 46.0538090075 34.9925235986
5539 1 50.2571021602 17.7975750529 39.5479407565
5540 1 16.9682604873 12.9397669284 38.757203058
5541 1 48.7522520469 7.8618123085 41.9739970592
5542 1 30.3194381889 30.0799328 38.426628079
5543 1 56.2214263558 15.1889098364 10.9145694857
5544 1 11.8067109123 61.4747501213 27.3219510343
5545 1 40.5589834855 54.9655937356 42.5072033442
5546 1 51.8190248986 41.1581286163 55.9120481027
5547 1 9.2797206151 42.5895241472 14.4558319299
5548 1 22.1320412967 42.5053831268 56.0478010959
5549 1 10.9192081044 19.3328404129 30.2377045528
5550 1 8.8842343325 21.0117268029 3.2372174921
5551 1 40.9338308507 24.9339431484 53.7904378509
5552 1 5.9059064347 9.7803391358 47.2133462519
5553 1 16.2841523025 18.266603993 11.5768937776
5554 1 16.2173327064 61.1303180028 20.3636119506
5555 1 39.9712293931 52.9114489635 10.1604122866
5556 1 41.5625104778 49.7818492507 11.1489078057
5557 1 57.5999768634 4.9559231943 19.7054565438
5558 1 59.6394424623 45.6001051242 61.1313749033
5559 1 61.6320521406 18.3919054148 37.9429786824
5560 1 44.4762089121 11.1616493279 10.6678419436
5561 1 44.0552102265 35.2733068224 23.9017036934
5562 1 22.9227202786 4.9095017772 52.1131368116
5563 1 54.0547216841 56.1513186249 46.2226194985
5564 1 58.1720535989 23.1175422644 30.3915422873
5565 1 38.9667629337 42.2080417957 57.2335259852
5566 1 22.7069951502 46.429360973 49.5200315186
5567 1 51.0917599447 43.6952181845 31.9814728881
5568 1 34.7950593616 60.4095118851 4.4716044275
5569 1 39.9751046948 47.1944394769 18.29009067
5570 1 60.3146257099 19.6948875392 32.0394262636
5571 1 7.7476142131 53.0390403364 5.2725647022
5572 1 29.7673838455 16.5314670115 10.3082609185
5573 1 49.6952421292 30.4315870716 51.7281901753
5574 1 50.2842292721 35.35873961 51.1700880126
5575 1 60.7422006651 19.7621181521 6.4827685806
5576 1 39.4555206825 24.2317502222 30.7889368625
5577 1 26.6424814681 9.5221618386 18.0842299459
5578 1 19.4243797366 13.5639253701 39.613938319
5579 1 47.6736851215 10.6231585406 38.1976916947
5580 1 11.3673926186 11.6595668807 56.7568051584
5581 1 21.734000838 30.8239907279 23.8681177453
5582 1 47.1942633268 52.9692261889 40.3754938213
5583 1 48.0284513778 46.0287369798 20.6153304115
5584 1 56.6518784288 31.8002144582 51.0759064377
5585 1 59.0744117299 14.8609771085 11.3935802635
5586 1 12.4507743128 56.2934130208 48.5798598376
5587 1 49.2801738296 30.616192353 57.2722790023
5588 1 14.5442005522 16.4416304719 31.2266110887
5589 1 19.7233651351 42.0078765908 41.1595378169
5590 1 37.2079044084 51.5843342785 53.9576042746
5591 1 17.8197699627 15.4684012929 21.7165619803
5592 1 30.7958654322 22.6024207207 9.5431824146
5593 1 40.7333720624 26.3246480114 24.2831273282
5594 1 39.1160794828 24.0284143159 8.0337817576
5595 1 10.5117729748 60.3658266658 22.0128464109
5596 1 43.7390795539 40.9765766029 61.0604451387
5597 1 15.2497403299 29.9792923889 20.9576487291
5598 1 14.544435419 20.5840344144 31.4462702355
5599 1 53.0281190316 53.447238783 22.289167166
5600 1 6.6443804052 46.1280856235 21.567656448
5601 1 27.2783245317 52.6327795406 19.0541122734
5602 1 31.2359470428 18.7622315947 10.9094024168
5603 1 35.7056965463 16.4595390631 48.4592557511
5604 1 21.0479550022 57.6988557736 47.4082856712
5605 1 28.1171512015 35.7493817656 9.7922586244
5606 1 3.7631581736 60.9283912971 31.436053531
5607 1 43.1620706162 53.0097407068 3.7433647765
5608 1 13.7036123817 39.5824661717 51.6557924933
5609 1 56.4146042742 56.0941285663 13.939418619
5610 1 40.3460180416 29.2915437691 26.3284058797
5611 1 35.543814625 7.7489588254 34.0431921135
5612 1 19.506994123 8.9405436406 30.2943661611
5613 1 4.0042900148 43.8238664579 30.6287577252
5614 1 23.6076504971 48.9239983726 4.161950206
5615 1 3.2834422083 46.6238306587 20.179241536
5616 1 58.3427430241 39.8293111472 35.4728848604
5617 1 40.7932630888 41.9035370281 61.102779874
5618 1 32.6541900346 51.0495426428 51.7361169287
5619 1 42.2708686567 52.9251299528 16.4587170294
5620 1 23.7506256435 28.2954150801 20.5812160132
5621 1 51.683741639 51.5623742355 37.2335048864
5622 1 43.9072441613 51.4728899961 32.2062991039
5623 1 22.6881470918 31.0916214125 12.8613801438
5624 1 3.9329668484 29.7605139925 58.8194638509
5625 1 13.774600863 38.3652104185 7.8564690894
5626 1 15.9784732011 21.2909833927 27.1854347241
5627 1 24.0181976114 40.5879308149 31.2567914687
5628 1 34.9838922448 7.774529945 13.9182806097
5629 1 40.175211183 26.1711625771 19.8948178773
5630 1 60.1008382324 45.0239769369 30.6092050666
5631 1 25.1385708219 16.9424838593 22.1625152602
5632 1 43.4870087928 9.9021762728 28.885928857
5633 1 56.2125601352 12.6023220963 23.7676534843
5634 1 35.7611251041 11.1072776706 7.4946039849
5635 1 34.9864170626 30.8756614174 31.0306734857
5636 1 37.1657458232 27.2084516676 42.0507984931
5637 1 29.1260801295 39.2475461575 32.2144607241
5638 1 8.399146377 6.5035660331 11.069405404
5639 1 22.4677833447 49.0778948237 46.3583724917
5640 1 54.3634540535 9.7323088813 49.7290042274
5641 1 39.2766109203 19.6520830703 20.4115834884
5642 1 48.0958581409 46.5409226888 58.9471726572
5643 1 15.1513311532 59.5077996376 18.4100488728
5644 1 50.0258171082 55.3019229505 42.2583620012
5645 1 3.6781475589 14.1310111868 33.0253382482
5646 1 14.3867810995 32.9025029274 9.4424245702
5647 1 57.4456106787 29.3907162628 30.9507013504
5648 1 7.5028771669 5.7483284469 39.4992059017
5649 1 9.1791976375 9.1976933956 14.5692138632
5650 1 4.1816261697 34.1913930455 34.8336362286
5651 1 50.7341752871 33.3015415699 45.6097933784
5652 1 59.3318257101 41.9087040971 43.0416426798
5653 1 38.0153763643 59.4956452823 56.4977471109
5654 1 11.5693193243 34.2147035724 52.0348674604
5655 1 33.8569427648 13.1876688043 48.2429434557
5656 1 20.4154000734 3.3542028688 50.1332099389
5657 1 36.3728943237 15.8874623276 14.8713699631
5658 1 44.4145563849 18.5159150695 39.2153106932
5659 1 14.0716486106 33.4698236108 43.0411729463
5660 1 47.2979570059 57.6655046923 11.2227734049
5661 1 33.1958515234 43.7990880137 24.2389136587
5662 1 26.6899245557 59.2169758594 40.9995348297
5663 1 59.054917788 25.1195466135 60.5169047158
5664 1 15.070008534 24.2158967152 40.5334417242
5665 1 57.3265919429 47.2539782031 32.4066404588
5666 1 39.1026333602 14.7670304004 15.100952231
5667 1 52.748451425 21.0439622671 49.3992512821
5668 1 38.344307276 18.5871384176 37.4334939412
5669 1 56.761854794 27.5742566622 34.3841012304
5670 1 50.0431972492 50.7465645092 56.1559572436
5671 1 44.7120738661 29.1827417378 57.5090834233
5672 1 17.0803506534 37.2979758148 12.9095865484
5673 1 23.4740113049 59.7413746406 12.4385025241
5674 1 13.0897293611 32.5521991397 4.0853601522
5675 1 52.6771106435 23.7806885901 33.9272853624
5676 1 36.8100400997 39.112615198 40.6477631246
5677 1 14.4396261228 50.3088315663 44.553010346
5678 1 13.9459948885 46.9594552733 40.0987620493
5679 1 28.8377811691 14.2885480729 60.9406043692
5680 1 50.5567921589 46.792406283 31.0478774766
5681 1 42.0781017551 32.9986221531 28.5537685273
5682 1 26.5046733907 14.5389160499 21.017833339
5683 1 11.723685509 20.4611990936 48.0609804255
5684 1 25.9261378191 55.0625937116 41.2171388923
5685 1 3.4191124109 17.8375024038 59.1438148605
5686 1 56.3738548896 26.8832199076 31.4657641775
5687 1 34.138019572 18.5549616701 34.1402508063
5688 1 59.5043940695 24.4020873473 54.4570484614
5689 1 20.358562315 18.4813896543 18.4191499602
5690 1 17.2540933467 20.0730817559 32.4174443303
5691 1 7.9777601612 26.7660213893 44.2532616305
5692 1 53.4765971292 39.3090812512 15.1385896309
5693 1 11.4883490053 15.8579278313 29.215740519
5694 1 47.5321191757 55.9196812728 29.0863876454
5695 1 37.3931555734 43.396819953 35.3130580232
5696 1 51.2703761235 51.8596568499 23.8180911232
5697 1 25.6064254281 18.1964375454 28.6972721238
5698 1 34.1290946347 31.7440225834 9.0604137684
5699 1 39.7346011221 7.4171918975 25.6808194776
5700 1 44.3779758855 13.4779641322 49.2862216489
5701 1 12.4741435565 11.9166872774 11.7968465079
5702 1 21.1127195141 52.9425688105 42.4581749059
5703 1 8.5324508841 43.1197358809 4.1961585511
5704 1 41.5465395375 52.5033679503 28.314909022
5705 1 31.6632871312 6.0722508247 48.981012281
5706 1 19.9155448698 25.57283948 44.3445073707
5707 1 25.647703263 5.0252030198 18.5968853885
5708 1 51.4367792301 10.5711942677 10.8694163491
5709 1 49.8448522618 37.37031478 6.3982517734
5710 1 27.8220998214 50.9621134876 49.170667198
5711 1 24.4887531855 7.1931231271 5.4537702871
5712 1 37.3975006087 51.2553446502 48.4672412213
5713 1 21.3157618369 16.9098373783 41.1958247329
5714 1 55.1682837582 31.3483895091 5.4876909203
5715 1 52.9106856465 18.3815125603 30.6728539613
5716 1 48.6348186618 53.0371026855 10.3739648974
5717 1 18.9743162882 60.7901722029 52.1403226402
5718 1 34.5531465883 24.3228785291 36.4129978247
5719 1 61.3260794557 41.0892539359 18.8482515493
5720 1 43.8928585717 43.3698689911 55.4995046209
5721 1 3.371372804 59.1104050625 18.1549835604
5722 1 16.236298198 54.5164697543 50.2537553087
5723 1 13.3452056904 10.5901597594 54.9692341705
5724 1 32.6712178755 16.1347183199 33.7326982433
5725 1 22.7836791506 22.8073419777 57.5453703393
5726 1 33.1865742859 41.513775623 58.5600535032
5727 1 43.3368702099 57.7938593822 55.9820384002
5728 1 48.4449288781 34.9395024253 35.7024084115
5729 1 50.3963781549 3.5953282512 31.6105595413
5730 1 11.3328672034 24.694907493 10.1729776588
5731 1 33.8240614169 45.8273387243 38.9233712979
5732 1 8.6099862766 16.3357642752 56.9523904613
5733 1 12.8203958924 15.1375914471 56.2074517829
5734 1 33.7826661487 47.3649527521 46.1060081471
5735 1 36.7402259523 40.862548786 8.5374359313
5736 1 18.402768003 50.8541922067 16.9177054151
5737 1 42.4025701981 18.0938594835 43.1650064508
5738 1 29.118153376 23.0271185579 6.4030841572
5739 1 19.5663566992 34.2980225592 57.155256634
5740 1 41.6201702699 13.8095960118 21.2225784459
5741 1 17.1858645499 22.6209164789 14.6258754716
5742 1 13.8279743365 10.6784109483 24.3509451081
5743 1 8.74633818 40.2067420469 56.5781889797
5744 1 28.799791469 53.1760263801 4.0943672929
5745 1 14.0172769533 60.0610283148 24.0069827232
5746 1 9.9466835258 9.4026146526 41.2806116369
5747 1 43.1115155439 24.5204014828 42.3301725162
5748 1 17.7990429702 52.6337190077 27.8208080542
5749 1 61.6171381007 46.6536000218 58.2053459635
5750 1 23.8193828905 17.1380691622 15.9852256207
5751 1 19.9990400066 32.2739994504 15.6854181886
5752 1 8.2194145811 23.3989126551 55.8229161634
5753 1 56.7862809381 52.4477045257 45.4566602443
5754 1 10.5187602612 48.6167926372 42.086322092
5755 1 40.4093733529 30.6587619551 34.1616823991
5756 1 57.6250488911 51.8923033309 40.7704810121
5757 1 61.8818329507 49.4690654295 47.2586755385
5758 1 43.1273690509 22.1122537713 58.1877896725
5759 1 58.1917824076 17.2301956528 26.4487750994
5760 1 49.531422557 34.9256452858 40.0349957212
5761 1 42.9578539595 27.9145786122 23.5087715869
5762 1 18.1118267914 53.5369578892 4.6183961589
5763 1 61.0765922291 57.6166524041 6.0488228643
5764 1 50.7898387117 12.4076762605 6.5929856842
5765 1 52.8621856584 23.8487999534 24.0803785888
5766 1 33.7941159037 22.0681575352 25.9084640946
5767 1 54.631495755 20.7778582165 8.7861246109
5768 1 6.891307584 44.2270739856 13.5898781482
5769 1 56.7953233087 17.0108300894 29.8525230497
5770 1 27.9272614178 52.2015054339 44.6707960312
5771 1 12.3644607748 57.290481177 6.4576848096
5772 1 27.942880058 35.0730829008 53.6904433235
5773 1 26.2352224886 32.5740417493 10.7878588632
5774 1 42.5451343276 34.4450491573 54.7506319241
5775 1 17.4011786615 36.1025626712 42.505911577
5776 1 27.7496434228 47.9612794816 49.4247343266
5777 1 30.3995864742 48.6869590848 37.9825537332
5778 1 53.2429634096 24.5990231341 5.998091642
5779 1 8.538363655 40.0995253663 48.920475371
5780 1 12.5470109719 7.9686590739 53.9570171077
5781 1 13.9140530078 27.7343183661 26.357764226
5782 1 40.2921748346 44.2758675571 46.8579341119
5783 1 11.3289919017 57.0465720361 33.3539168597
5784 1 39.649638068 52.6246179204 19.3007223821
5785 1 25.4697329679 9.9142131948 38.1503073238
5786 1 60.4255415421 14.5494263379 38.5717757429
5787 1 9.1354537015 7.1795419561 6.109365646
5788 1 40.8022467427 44.5756749893 33.2637280199
5789 1 16.8563464713 51.4804644494 52.2367354494
5790 1 55.784221863 8.9627033204 11.1380452175
5791 1 29.1961878604 42.9004290342 58.0843308602
5792 1 16.0745924268 19.3328404129 36.4044839043
5793 1 4.3915677039 29.1230855782 39.1005195593
5794 1 54.9015925407 14.3337012094 41.4063240757
5795 1 50.6168593354 20.9395052711 34.3129365991
5796 1 38.4943871422 28.0424048519 48.5217890286
5797 1 11.1122098728 52.016430419 31.0600905486
5798 1 43.4118514263 57.1545520337 49.4176883235
5799 1 6.1036936135 29.8994376871 19.4616648364
5800 1 50.9534234171 13.334401819 54.6880399299
5801 1 58.3073368585 55.0818527868 27.2284740598
5802 1 56.5794220302 48.753191514 8.061079148
5803 1 13.8035481924 14.9856326468 33.7208374714
5804 1 9.7423494357 35.989356888 44.8909249116
5805 1 8.4417629524 24.7709456099 49.412638688
5806 1 20.1370829507 24.0537799271 18.1663745988
5807 1 9.90346804 35.5382952559 15.0795206382
5808 1 52.7062928397 15.1874419191 34.2097126536
5809 1 45.5125585356 46.4890171326 38.900060771
5810 1 44.4810823976 44.8607445316 45.4447407557
5811 1 57.4941106667 23.7022430888 51.4650219593
5812 1 56.2001121964 27.3001671414 11.5382581939
5813 1 60.1951959573 4.7233287601 43.3974658366
5814 1 30.7834174934 26.8179269455 26.1804398145
5815 1 21.5149288581 13.361705081 6.3137467095
5816 1 21.2533459928 36.052770916 28.7531704151
5817 1 59.3879001515 55.0893685234 40.3078521915
5818 1 6.3136821211 43.3237176708 51.4110613188
5819 1 45.801620813 57.3430326168 61.5399843667
5820 1 35.6823860194 57.5795434544 56.2399808306
5821 1 32.4662966185 8.7867822378 59.2293650816
5822 1 41.6974414373 20.3209249151 37.4006713101
5823 1 50.8789119343 37.3590411751 29.8288602226
5824 1 14.5518924389 24.8579050316 57.3411536826
5825 1 9.4908071248 48.5507950747 58.5018065442
5826 1 28.6033254158 56.0853210624 44.1041212314
5827 1 49.8765592758 61.7981616638 11.1085107212
5828 1 8.6166330062 35.5316602696 23.4782976235
5829 1 51.7610128064 57.872950767 54.1927059115
5830 1 35.5254363002 52.1813656083 24.8178602472
5831 1 40.4961566245 12.2961145447 30.2968909789
5832 1 10.0749207823 22.8320617053 36.0007479264
5833 1 6.1466272591 36.5251467075 50.2940349598
5834 1 60.008476875 56.1694620828 22.2645061551
5835 1 20.3283232184 13.600623303 32.3805115307
5836 1 16.5097418352 35.1020889469 39.7710641882
5837 1 56.5484196166 27.7204025099 20.9830143403
5838 1 50.5328944651 28.5692697341 8.2723065777
5839 1 20.2576870372 22.678576271 43.4912363946
5840 1 22.3883396597 6.3387658921 11.861200003
5841 1 31.2323653246 5.8011675985 57.2775635046
5842 1 53.3971534442 48.3459912511 19.5876121419
5843 1 60.1010730991 28.5971601631 21.0456063345
5844 1 27.3587664005 50.8975251258 4.4822967372
5845 1 19.4077629126 29.3048137416 18.2726518123
5846 1 44.0205673779 17.7225938365 11.4487152378
5847 1 61.58519622 46.3962447584 23.0765580131
5848 1 19.4901424323 40.5704919572 46.9599837236
5849 1 53.958485025 56.2935891709 58.8251006534
5850 1 39.9118081002 16.2758145321 46.364420311
5851 1 11.3965748148 45.4149126759 43.3270645223
5852 1 48.1494664812 36.5793422147 37.9470888509
5853 1 55.9432266665 34.7423317717 58.9173445774
5854 1 5.6572764718 61.1114112278 41.872241031
5855 1 31.8487731629 23.4929180799 3.776216766
5856 1 15.3982348453 37.7860289633 48.1873387479
5857 1 25.1749164546 42.1089867354 49.0249323671
5858 1 17.4608348211 15.6340410826 11.0157970637
5859 1 15.3174406764 13.7015572975 60.4851389851
5860 1 45.7889967241 41.2282950639 38.4080148874
5861 1 19.8392131694 8.3052760006 43.2347031649
5862 1 32.3761077787 18.6764465069 44.3439202038
5863 1 33.3440524554 53.2282255198 56.8352506596
5864 1 34.962460652 7.1842627782 46.3717598976
5865 1 34.0478307322 9.0789095266 44.4260648567
5866 1 36.1268713819 17.4256635223 36.0847715134
5867 1 44.2668839032 7.313932722 41.7093022092
5868 1 61.0784124466 57.2835526072 28.9782314977
5869 1 30.3005314139 30.023975792 54.7939061265
5870 1 21.7183821977 55.6214591913 56.8252101052
5871 1 59.5378625842 24.5049589927 15.8640343673
5872 1 41.2511945739 3.8100551959 54.1940563955
5873 1 28.9734167289 13.4552994889 39.8006574013
5874 1 61.3185637191 24.1036303991 44.4910055186
5875 1 18.5248400068 44.4764437789 4.8993437894
5876 1 5.2576800206 30.8744870835 37.0917627906
5877 1 3.4220388509 61.2021285178 38.1867703899
5878 1 39.4951544499 40.3924042287 7.4693792938
5879 1 23.8996486092 31.5820232287 41.3544772361
5880 1 60.1665422113 16.4077509403 52.8279538267
5881 1 44.1153361197 53.3576958268 27.8400671293
5882 1 26.3365087833 16.7538271262 56.5035013468
5883 1 37.1043868795 8.8580290726 31.9694359661
5884 1 44.2769831743 24.4285685756 29.6631617162
5885 1 16.1127582769 22.162926277 21.5197436268
5886 1 32.2041853029 51.2376709257 13.5907001819
5887 1 12.3597634394 54.6681349711 59.2799788705
5888 1 18.4693527323 31.9185873104 41.8860394538
5889 1 43.5958695407 12.6827052484 5.1696930569
5890 1 20.8142038492 17.2862700942 15.7692656255
5891 1 25.0866652657 44.1589039056 19.4717641075
5892 1 51.3499372419 8.5499484584 40.6317921843
5893 1 61.9006222923 14.063545707 10.8136942079
5894 1 33.1817008005 54.0317047406 49.5545569338
5895 1 51.486453552 33.8517756958 33.9734953995
5896 1 45.2470416519 36.779624853 37.8096917904
5897 1 33.4286632093 11.7674881616 44.5768493231
5898 1 8.4447809904 41.9773439107 54.1561841288
5899 1 39.1336944906 4.7172222241 25.7675440325
5900 1 11.9243204474 42.1766870819 59.7309230693
5901 1 28.1925434347 3.7229636617 61.6072149797
5902 1 14.3601824378 24.1392127148 49.5751077762
5903 1 26.4761370782 57.9880354844 16.9291551701
5904 1 27.4329255832 49.0629807838 6.6656475912
5905 1 49.5544982172 61.2081763371 56.3151381971
5906 1 5.8327571791 29.5872997495 9.2901721864
5907 1 56.3777301913 36.99217928 4.7630564743
5908 1 31.5210753018 52.8551396553 29.0869160956
5909 1 10.8776954028 42.7322644268 55.0746306336
5910 1 6.2528516276 22.3871653259 57.4045089939
5911 1 56.4548252086 54.4127760752 40.8720021735
5912 1 59.3932433705 36.7396387854 19.5406975045
5913 1 57.0149237388 28.7379627918 41.9552664343
5914 1 12.5765454683 46.4332362747 23.1855949111
5915 1 17.7946392183 23.4847564596 26.6460631864
5916 1 59.9709569084 28.8424197878 32.0471181504
5917 1 9.9128039942 28.0375313664 58.7509414707
5918 1 47.7094435872 13.5874120472 3.7550317833
5919 1 39.0071600182 21.4888586466 40.8939034998
5920 1 59.7668576852 52.0857748329 45.1225622637
5921 1 35.7058726964 40.5639744044 38.5409494793
5922 1 18.9046782909 9.3034421589 33.7162575694
5923 1 8.0251445321 44.3152664578 49.275887511
5924 1 22.9817305546 32.4378777393 17.7269388717
5925 1 22.329270667 36.7268972631 43.4669276839
5926 1 39.3659777263 35.5961899147 34.494195029
5927 1 12.6572222038 31.1468151035 43.8125928529
5928 1 59.2784522365 45.3881378641 50.5747007502
5929 1 42.7288001419 43.6971558354 52.8465083015
5930 1 55.6609755254 14.7369087372 31.1446425859
5931 1 26.9413494332 31.5203119848 43.8855189851
5932 1 11.4452509529 49.2585660867 38.395684382
5933 1 14.5544172567 6.7426838919 39.2818954226
5934 1 53.5302054695 43.5379161652 6.9099677489
5935 1 25.977514925 23.7826849576 46.238003272
5936 1 21.678807147 19.4846230632 20.9201874792
5937 1 22.771583512 48.2484628248 58.7510589041
5938 1 46.1998961385 57.2280653328 58.7761896485
5939 1 45.5336965449 7.7868663221 17.837854704
5940 1 58.7731950972 17.3410527683 40.9875566244
5941 1 36.0303998561 40.8652497538 42.820456899
5942 1 8.105087309 45.305640911 45.6422049927
5943 1 25.8317213775 23.9278326216 54.5806470992
5944 1 28.4164889001 32.7511900107 12.467919587
5945 1 50.1180610322 45.1162795776 5.8567723064
5946 1 24.111087419 30.0583250571 52.2049697187
5947 1 44.5206574484 12.419419599 56.8767633613
5948 1 55.1487310996 18.0849932629 36.3636170863
5949 1 19.0828247361 43.917049849 43.2082806532
5950 1 20.4879739054 30.7034453581 52.203208218
5951 1 19.5598391463 38.3296281029 7.1887722201
5952 1 8.9158826297 55.1073945481 36.7184420594
5953 1 39.4495902965 44.9852826365 14.9509310815
5954 1 29.2383464457 26.7063652296 41.160653434
5955 1 59.9773570279 33.453735237 50.6556710692
5956 1 19.22779625 24.721271288 5.6805400254
5957 1 56.6408984073 35.1208195718 13.6726686847
5958 1 6.6082109226 21.0401456821 60.1388279324
5959 1 3.7342813042 58.540618278 11.5835287639
5960 1 4.7426582953 31.121332059 28.4391535434
5961 1 8.2146644007 10.6314963109 35.4456990317
5962 1 57.9198654044 19.943963749 27.3266483697
5963 1 17.7945217849 25.511539253 60.1481638866
5964 1 22.5383020925 6.0113439995 20.3639055341
5965 1 44.7866440656 46.8628663141 16.3076389795
5966 1 39.7519812631 14.264650379 7.1493439611
5967 1 38.3363805225 45.1277293326 6.873751293
5968 1 20.5199745028 50.5302522139 36.5573821717
5969 1 14.4783791399 31.3329470189 16.9822350602
5970 1 34.5991217586 29.1199148768 5.680581127
5971 1 50.792069946 12.9230913877 60.3351765523
5972 1 20.908972591 16.5354010299 44.8107766262
5973 1 48.9441381981 44.9113583206 51.6475721564
5974 1 41.7243336825 7.6957438869 40.8640167033
5975 1 29.5271151396 20.9842473908 25.868478027
5976 1 16.0832237806 41.613652717 16.2907872887
5977 1 35.5973642486 18.3156324312 26.672309548
5978 1 24.3239354295 7.9411150734 23.3928648358
5979 1 50.6479791825 41.7955570306 25.7820470556
5980 1 12.6571047704 21.5621957956 61.0013174293
5981 1 40.5194084347 32.4273674513 16.7877653745
5982 1 31.5022859602 45.8266928407 18.0337335903
5983 1 55.2273527509 59.3625345403 28.8926225599
5984 1 36.7957719434 12.4763747908 53.2451359272
5985 1 6.9070025559 11.1527831074 55.6666710446
5986 1 22.9395719693 54.1838984077 26.9940183064
5987 1 43.0033006796 40.9996522631 33.1368412474
5988 1 50.4714768047 11.7157587555 46.7155461325
5989 1 60.6069174054 36.2046122829 9.1026310704
5990 1 12.8674279631 9.0713350733 57.5149550926
5991 1 9.4295068978 5.70626968 59.8204073088
5992 1 14.4359269712 11.1802625195 41.7370164881
5993 1 54.2584686072 14.5204202917 18.7457909208
5994 1 30.7355046722 35.2201094989 22.5490472472
5995 1 15.195486106 42.7992014563 32.211231306
5996 1 7.8221315676 55.5117176929 41.7451193917
5997 1 20.4008970504 24.1220674406 25.9178000487
5998 1 13.0011845888 59.0552113715 48.6671128427
5999 1 41.4342732213 44.3097470887 49.5718196415
6000 1 55.64864502 41.2371025677 15.1930200049
6001 1 10.0544873733 38.4386062842 25.2996307096
6002 1 60.0132916438 59.4864854782 12.9737638933
6003 1 59.1048856934 36.2366128803 36.0820118288
6004 1 55.0224314939 54.1432077397 55.4352098425
6005 1 13.1850265531 18.3896741805 54.0763881436
6006 1 8.2763580295 9.7981302936 61.9288063047
6007 1 59.7933389135 45.8010923628 18.7479634385
6008 1 38.9957102631 18.2178104214 25.3262293713
6009 1 59.4354019557 21.7921303636 20.8119726149
6010 1 21.5808677038 15.5857172446 9.1065063721
6011 1 54.9238461671 11.1569519925 31.4253083763
6012 1 4.860631874 15.7114884001 28.4058611787
6013 1 52.7018890878 39.6043674981 19.6357011131
6014 1 50.7180281967 25.9232019844 5.4403593945
6015 1 33.3499828413 34.2333754807 32.2833354045
6016 1 46.3707617138 45.4739229519 47.2623159735
6017 1 11.391760046 20.3711276872 33.6998168955
6018 1 13.3840761409 49.0968015987 27.7137675237
6019 1 12.4622827846 12.2420951875 8.9321177952
6020 1 12.5635690792 22.1013324665 15.4463238165
6021 1 38.950087393 52.1190084809 35.9636976934
6022 1 51.4435903665 42.89837395 53.7042417462
6023 1 37.6172771889 56.5035013468 29.5372731274
6024 1 13.4587637738 10.6009636308 51.0184815124
6025 1 25.1701016858 12.0529100041 32.4584285817
6026 1 26.7152314502 15.0479897743 40.767427744
6027 1 8.9549996903 17.3919014241 22.9245992127
6028 1 22.2243439374 55.0322371816 5.6340129182
6029 1 16.103011306 36.1703217344 5.0100247548
6030 1 5.5495254693 37.5449969404 10.1545406174
6031 1 51.3937986112 8.8715926285 16.4322945178
6032 1 14.5722671313 24.461919657 28.14398473
6033 1 42.7024950636 56.0354118738 19.482744129
6034 1 30.9802945635 23.4481759602 16.739147953
6035 1 57.7039641259 14.392417902 45.5615282572
6036 1 53.3484773061 3.2997771921 36.1005663037
6037 1 41.3543598027 45.8064355818 61.4840273587
6038 1 56.3631684516 33.1818182338 35.8035185561
6039 1 44.3948275762 15.3494412738 56.5062610313
6040 1 11.8809288117 32.3003632453 6.7247341989
6041 1 25.6487601635 23.0240065732 5.9200747726
6042 1 24.0848410575 29.0045952926 26.9232059752
6043 1 11.1016995849 8.7462559766 27.972473271
6044 1 36.130687967 58.0974833993 18.7947019257
6045 1 54.085665381 18.2029550982 13.1258988437
6046 1 5.8623680072 46.5042834727 18.7107957721
6047 1 4.0010253667 15.4993449899 13.018329863
6048 1 44.8098958759 7.7559519835 5.5487445373
6049 1 54.9328885378 19.3014856991 58.7390806988
6050 1 56.9984243482 30.6104968338 59.6982178716
6051 1 23.520397492 59.6017463457 26.6803537348
6052 1 4.7499509085 43.9791721097 20.8107395643
6053 1 45.8771891963 15.0017797372 35.5550295132
6054 1 29.8804721954 32.6061597801 25.9547328483
6055 1 25.590219621 48.5370553687 35.3512825901
6056 1 53.5488186611 23.5095349039 50.789956145
6057 1 15.2480375458 30.5786723864 60.6533035925
6058 1 21.5857411893 22.7374103969 14.2349984493
6059 1 25.1804945404 22.4142924378 37.3010290828
6060 1 57.9187497872 17.0775322522 6.535807369
6061 1 26.2046898085 60.8561110486 24.6121169566
6062 1 36.5147538529 54.7009576022 41.5626866279
6063 1 31.814952348 34.4961326798 14.8398390992
6064 1 60.0610870315 57.5956905448 60.9572211932
6065 1 46.3103422372 54.8256718572 20.8738600088
6066 1 14.5385637497 27.6161803807 58.2008247782
6067 1 39.4337955062 13.7954452889 39.9020024126
6068 1 18.6317043872 28.6591062737 15.5612323838
6069 1 13.6330349173 52.5299078953 32.5732197156
6070 1 11.0882534623 35.58562091 12.3653415252
6071 1 58.5172490344 49.3058917409 13.8509325633
6072 1 22.9763286189 42.69421601 51.1670347446
6073 1 13.1249593767 13.8066014604 48.8420885865
6074 1 29.8312088903 51.4502840694 27.4268190472
6075 1 20.5011851612 58.4464954198 6.2858151788
6076 1 26.8199820297 23.3046136469 17.3973033598
6077 1 9.7887943395 36.4969039784 33.245584562
6078 1 10.6987269239 39.8021840353 6.0252833423
6079 1 9.2522999197 29.6935182463 21.7712859377
6080 1 43.990386998 4.9341158147 11.2087401154
6081 1 41.0537890536 44.7448964972 5.5085412179
6082 1 16.0636124053 25.6037244603 26.0297140647
6083 1 52.6386512099 32.9865265144 16.2219713251
6084 1 4.5099699144 51.6793378871 54.3356223412
6085 1 12.6564588868 3.6975810227 18.1658461485
6086 1 50.9600584034 33.144356984 49.619262729
6087 1 39.1026333602 3.8402414475 47.5561930197
6088 1 46.3646551778 11.6928005287 5.6730888771
6089 1 20.7118019374 42.2143244818 52.7021826712
6090 1 22.1094353701 52.3171773182 33.2372467916
6091 1 47.9522371109 35.0878207906 17.5375188216
6092 1 9.5850474164 51.2317992565 52.0229479718
6093 1 57.5694441833 58.8400146933 4.6274737595
6094 1 30.58677529 15.0395932872 26.334277549
6095 1 35.3213957936 20.2021410461 18.4049405206
6096 1 20.2709570098 14.3130916504 36.1071425733
6097 1 11.539197661 54.997594333 39.9880223672
6098 1 19.6690521944 38.2186535539 22.5927911832
6099 1 48.7590044665 52.454339512 27.1614195969
6100 1 54.7863316732 31.5786763772 61.3295437406
6101 1 48.6545474705 34.1037290235 29.0196267659
6102 1 19.0625674771 59.9102438484 16.9643264689
6103 1 15.2563753161 29.9132361098 43.676604993
6104 1 32.9069066793 47.6307632192 32.1421217589
6105 1 9.4199947936 48.1862231307 13.2979387529
6106 1 47.0316768052 12.6346162772 45.3205549509
6107 1 48.6612411734 29.9629691484 24.2942247831
6108 1 58.2093974153 39.384943218 20.4882087722
6109 1 9.3832968608 53.5799385081 47.6297063188
6110 1 10.32687411 23.3532310683 29.1067623377
6111 1 19.5566097282 52.1485429772 30.1691821726
6112 1 35.2287995694 13.8029610255 41.2161407085
6113 1 17.782661013 35.6176215075 30.0509267538
6114 1 30.8367322502 3.9129738146 5.3433418034
6115 1 38.0339308392 12.7159976131 8.7075440612
6116 1 7.4974693595 32.7857154259 38.9400468386
6117 1 55.3864749877 47.0487633627 30.2350623017
6118 1 38.6708895199 6.9413107194 58.4976963757
6119 1 59.1793384595 30.418904266 3.9867337238
6120 1 30.4327614055 36.3245117691 13.13253383
6121 1 60.3668835663 23.8156837388 48.1671402056
6122 1 30.5285870477 36.7209668771 31.0475838931
6123 1 24.5905092137 7.3264393775 48.9494814171
6124 1 10.5336155845 5.1004778197 19.5827973731
6125 1 31.9909262756 54.9631863512 37.0232404104
6126 1 25.5561639393 48.0845258192 50.9153750003
6127 1 59.1957791334 48.3058877501 17.3889655894
6128 1 44.1313657768 11.921736913 45.1786954217
6129 1 54.9021209909 29.9331410686 16.3601317026
6130 1 31.8898748477 42.1514389041 54.6727735898
6131 1 27.5530012195 41.2682811315 43.3521952667
6132 1 39.9675889582 19.2832248077 58.325010583
6133 1 7.3490687908 61.7038039389 33.8801358583
6134 1 20.0501822458 48.6470904505 50.9287624062
6135 1 15.5744436397 3.848949133 17.9615707752
6136 1 4.3409186849 56.9718844032 39.1516617985
6137 1 35.418337053 44.1259638411 17.0057217372
6138 1 42.0633051486 25.5449490511 59.0919093043
6139 1 58.5030395948 38.7518011223 32.633874059
6140 1 15.4035193476 39.6373075626 13.3852504747
6141 1 26.6800601514 21.3331419779 49.740160399
6142 1 26.3635771785 19.3516884712 47.645501109
6143 1 28.0591978259 15.4012881133 31.5457363127
6144 1 16.8517078526 50.9919415674 13.6273393981
6145 1 19.7868965964 37.8891941921 18.7590608933
6146 1 46.3435758852 51.6859728733 47.7490773547
6147 1 58.2470935319 43.5777847994 40.9089936898
6148 1 34.5151568882 39.0813192009 58.8016726931
6149 1 46.5869565758 42.8780579744 6.1933070297
6150 1 42.3340478179 30.2923697936 36.375125558
6151 1 12.7044891413 56.1642362972 10.7477553622
6152 1 19.0239906101 18.136546519 42.0932506618
6153 1 55.8333677347 47.139421936 24.3510625415
6154 1 5.3285804269 47.8889405164 13.8303817209
6155 1 19.2076564244 22.7813304829 12.6978541551
6156 1 8.5714974846 14.5198331248 52.1859455104
6157 1 32.7369218544 53.8931920629 19.2411836559
6158 1 42.7443600654 16.8820643827 60.5693387222
6159 1 8.0355667451 16.8706146276 4.0767170551
6160 1 32.6817868801 10.9654181415 26.9444027012
6161 1 61.5762712827 10.8849762727 55.964893126
6162 1 59.5254146454 12.2244801797 44.7512379
6163 1 30.4881899632 23.6146965002 49.9047432882
6164 1 54.5435968662 8.3246583808 42.9115264891
6165 1 8.5109429596 16.1860954259 8.565508382
6166 1 30.4409230257 45.5557740213 47.7808430854
6167 1 50.399607573 35.2561615482 21.6415807639
6168 1 30.3404587648 10.3909340216 35.8190784796
6169 1 28.5365058196 48.4082309452 13.2288292058
6170 1 50.5570270257 3.8474753441 36.3167611656
6171 1 32.1663717529 19.3608482753 56.6459480429
6172 1 56.627393568 6.1632499548 23.4393097396
6173 1 60.8857042616 60.8043816425 43.970129739
6174 1 59.6504224838 52.8059937837 30.1854466965
6175 1 21.5194500434 12.1293004211 34.5169771057
6176 1 9.3525293139 27.1213160959 54.5969703397
6177 1 40.7844555849 47.6527819789 5.9802946125
6178 1 50.1241088516 6.4443561204 23.7394107552
6179 1 14.2150347738 36.8826139317 23.2303957475
6180 1 45.912008195 29.6313959856 24.3269886975
6181 1 49.5196792185 37.768883689 13.7477086178
6182 1 16.6456709785 61.6115012982 50.8233659431
6183 1 35.1286288919 22.1057362185 40.0744533386
6184 1 16.8776019141 21.8635885784 11.1829634873
6185 1 18.689422896 23.0957583715 3.4979994617
6186 1 29.9861035253 57.8144689413 22.4984921749
6187 1 34.4079402076 58.0515082291 32.1311417374
6188 1 41.285367689 38.271733444 5.0238995093
6189 1 13.5092601294 4.1211421047 56.2008755134
6190 1 5.9494859639 30.8323872149 52.5516917882
6191 1 56.3539499308 34.6826756121 18.3884998467
6192 1 23.505307302 41.0023532309 39.9495042169
6193 1 41.8516314719 60.5220717847 16.0255639885
6194 1 48.0147703885 9.2421419319 31.7314572112
6195 1 21.0696801785 31.8531769149 45.9140045625
6196 1 49.4826289855 57.5612238463 14.7171799285
6197 1 60.3554925279 41.0395208973 49.9218885624
6198 1 19.1172914346 50.7275403009 25.605309811
6199 1 52.0765563121 56.7138245395 43.3949410188
6200 1 24.6774686354 41.1552514983 26.5183543801
6201 1 20.1454794378 8.5214826059 9.9391090724
6202 1 47.3068819431 42.8742413893 57.4128467642
6203 1 16.6511316309 52.942862394 8.0006596713
6204 1 40.5920997001 15.1644836923 23.6195699857
6205 1 56.6748366556 33.6903047913 61.3916072846
6206 1 61.3066442305 6.7456373415 19.6558996553
6207 1 27.2949413557 21.7684088198 42.416720921
6208 1 16.0740639765 55.5414870561 57.3763249815
6209 1 52.6946082179 49.8681627887 7.0509289127
6210 1 41.5520001899 7.4444716728 46.8055588222
6211 1 31.0007866892 43.2861977043 9.0516649813
6212 1 14.014282402 46.9248124247 30.5458497553
6213 1 43.6707333237 10.4042627108 61.5601829089
6214 1 35.6062304691 24.3124856745 53.7127556667
6215 1 49.0621587501 47.4792741524 33.4638345082
6216 1 53.9396369667 45.7945160932 12.1325885559
6217 1 50.1427220431 8.3087579005 59.7249339667
6218 1 49.2419492627 59.4773843909 53.994948091
6219 1 29.6541780623 55.9855026851 4.1063689848
6220 1 35.0499485239 23.4229864991 21.5259675963
6221 1 16.5551885553 58.7376127815 16.0058938965
6222 1 43.1297177186 48.9892913347 46.0107109551
6223 1 32.4303620026 4.0005145315 18.9191813139
6224 1 27.1251913976 30.3659418093 35.7627691715
6225 1 10.4021489098 38.0001100243 13.6488884243
6226 1 46.9874631357 38.1717389166 50.416987714
6227 1 11.9867950083 16.5850166351 17.9217608576
6228 1 50.2070755381 54.1785551886 5.0779129947
6229 1 57.5476602903 56.4097895054 48.8604669112
6230 1 5.9738827497 8.4326383784 31.292256351
6231 1 38.6606140988 50.3863963172 11.0795046751
6232 1 9.601546807 24.4539341868 60.4630615087
6233 1 19.509871241 22.2150667 30.6670410087
6234 1 60.9602157445 10.6350193125 50.0339200118
6235 1 24.7418221304 49.5008311602 6.5934378027
6236 1 45.6055657766 45.9198175151 26.3730892827
6237 1 28.9515154026 57.4356875576 9.4919814587
6238 1 58.0564991479 17.4739873603 36.8957664709
6239 1 40.9414640208 21.625903407 33.3176299437
6240 1 6.6780015833 40.51629645 20.6583697472
6241 1 24.6428845034 57.543902422 40.7448218174
6242 1 36.8106859834 12.2317610496 43.0685936417
6243 1 24.716691386 36.4919717762 7.7444904851
6244 1 28.2164411286 26.2932345809 36.2141831038
6245 1 59.7172420799 32.554430374 11.0800331253
6246 1 8.0963854952 23.2210597934 46.1614367049
6247 1 43.6982127359 49.6531422606 61.4004735052
6248 1 6.3778477227 30.6671584421 32.8868255705
6249 1 32.0365491457 4.0411171244 41.4474844771
6250 1 14.0361250116 54.3422573275 22.4534564717
6251 1 48.5342369674 27.2703977782 43.3580669359
6252 1 22.9248927962 5.297795265 3.9452738672
6253 1 30.4937093323 55.105104597 30.3362311629
6254 1 33.4359440792 7.4787269913 29.5161351181
6255 1 15.8099562935 40.7218635906 58.5693307406
6256 1 43.9600304679 48.323855058 10.0658196949
6257 1 28.4618769034 11.6112430428 60.2075264627
6258 1 42.8314369205 24.1478440686 17.7973401861
6259 1 20.077074491 12.9441706803 15.0041871216
6260 1 58.6126636597 4.4085133413 25.6186972169
6261 1 36.0664519053 36.0956341015 46.6814904508
6262 1 19.1842284641 5.9631375949 23.9640021042
6263 1 61.6982845698 21.5372999179 24.3943367439
6264 1 58.4690426298 47.608274726 39.1942901173
6265 1 40.5874023647 31.8349160235 5.8334206777
6266 1 20.6497383934 29.9432403397 55.7111195808
6267 1 9.6371878393 3.8515444108 54.0598300363
6268 1 25.8536814205 57.1980611029 34.9626955188
6269 1 4.7076103015 37.9820839997 46.6938796729
6270 1 56.8944958024 36.8139154014 45.0478159141
6271 1 35.9730923642 47.5147390347 53.5265063179
6272 1 6.0457695963 38.9675262507 40.0486767106
6273 1 48.1336716909 5.5939035455 43.5553550229
6274 1 22.8504400301 19.1058416795 28.6412563992
6275 1 55.2582964479 61.2841557373 16.7278156314
6276 1 58.8159408493 17.4328856755 20.3050126914
6277 1 25.6309102889 46.8467192236 18.4216160613
6278 1 53.5603858495 39.0343458468 12.2166708596
6279 1 12.0317719948 46.5248930318 28.4861268974
6280 1 28.6551722553 43.1746359884 53.4261007736
6281 1 53.0755034024 4.0390502968 32.2972512606
6282 1 52.5068322351 7.9975183283 55.6754198318
6283 1 56.5225842718 48.6098640674 18.2993679074
6284 1 41.2495505066 48.5827369555 3.431484018
6285 1 8.9870472611 11.3893526616 26.0012364688
6286 1 35.5610186159 49.5945430015 45.9938592644
6287 1 33.9232926273 26.6638543442 30.9393103121
6288 1 40.1770901172 54.7130532409 35.4524514513
6289 1 46.5549559784 4.3736591126 50.8746843324
6290 1 50.1187069158 25.5546373053 11.2720367099
6291 1 37.9551917545 40.1031070846 33.1641445094
6292 1 18.9402018899 59.4649951688 48.2577400622
6293 1 59.0583820729 19.8024565199 38.2664489417
6294 1 10.9978297557 33.0305640338 11.1634108287
6295 1 3.8833453715 55.5077249578 49.1544026741
6296 1 12.1221369846 34.4325425018 8.798549063
6297 1 51.4448821337 54.0846671973 61.211640622
6298 1 49.138960184 31.7344517626 15.3433347378
6299 1 29.152150341 54.2663953607 46.3474511869
6300 1 16.5396286317 3.7993335278 41.5594572098
6301 1 51.7712295109 22.8297130376 58.117036058
6302 1 60.9721939498 43.9423567435 39.750865646
6303 1 15.5398007911 34.2063070854 55.2151396789
6304 1 49.2158790512 33.2067728282 23.0613503897
6305 1 55.9057066999 24.1746775971 36.3225154015
6306 1 31.6737387025 31.1436444021 10.4778347265
6307 1 36.2394312816 5.6545520172 6.3061252828
6308 1 23.9832611794 49.33413447 39.3215879068
6309 1 29.3697544036 49.6778032715 61.6679867565
6310 1 29.3765655399 61.3188573026 37.3779479501
6311 1 22.6903196095 23.1222983165 24.5848724112
6312 1 61.1927925637 52.7678279335 25.5008528149
6313 1 14.7532906944 43.1513841782 25.0391047448
6314 1 29.2609523723 53.0860724071 25.4983279972
6315 1 45.9718992214 49.6902512103 55.7623205367
6316 1 14.0317799764 36.70476107 54.9714066881
6317 1 44.4761501954 27.1608911466 16.4414543218
6318 1 57.2900114434 45.158203296 38.7079984696
6319 1 22.3380781709 17.3826829033 22.7149219037
6320 1 24.5976726502 37.1064419637 26.7234517872
6321 1 11.8012502599 53.2074398106 10.1887724491
6322 1 24.0270051153 36.8576593374 10.3811283339
6323 1 32.8701500298 12.7818777421 38.2423750977
6324 1 58.573264759 56.4695630985 24.7314879925
6325 1 15.0569147115 30.962620839 38.2773702465
6326 1 14.4125577275 38.9305934511 60.170241363
6327 1 23.9691104565 24.6739456338 21.1439567945
6328 1 40.2222432537 53.4810008812 54.8675955757
6329 1 29.3405722074 35.0431373876 44.5272337179
6330 1 10.8630749463 27.8777045293 20.0392022243
6331 1 22.7513849697 13.2345834416 51.6465152559
6332 1 30.8003279008 42.0275466828 51.8635321516
6333 1 12.0819747669 20.8124423484 54.9146276464
6334 1 5.7918903611 32.1219819334 59.3093959335
6335 1 10.0444468188 12.8326676812 35.4747050778
6336 1 12.5174177589 31.066138368 32.4740472219
6337 1 12.1614771686 35.246825594 4.6061067551
6338 1 47.6772668397 58.5968101528 28.5096722912
6339 1 12.7997863333 31.2372388101 28.4634622541
6340 1 52.9138563479 29.6432567575 30.3863165017
6341 1 41.2331098326 13.7190548718 16.9332653386
6342 1 44.1722913115 54.3136622982 22.5247385365
6343 1 25.7108237075 55.7781740437 44.141054031
6344 1 13.3695144011 60.9058440872 9.5981412388
6345 1 60.9383144182 8.3085406487 57.2089824077
6346 1 54.1222458805 43.7215232628 58.6559378622
6347 1 32.1421804756 56.2133234522 10.3082022018
6348 1 38.8095783477 61.077942713 18.3055331601
6349 1 26.1493786841 4.1374301152 49.7455623347
6350 1 46.0477611881 24.7335430767 13.392648778
6351 1 50.3019617133 50.6808605303 46.2332472199
6352 1 24.7483984 7.8883992269 40.6902152933
6353 1 31.3401104554 27.4943432436 39.3627483082
6354 1 19.5163887938 9.0861903965 15.7355035273
6355 1 15.7398485626 58.9200455452 12.3178397209
6356 1 20.1856416555 15.9595664261 19.9551786372
6357 1 13.2455047465 6.8315809644 23.1423794254
6358 1 57.7325004385 11.2993986887 57.2927124113
6359 1 47.5634738896 13.4365101473 37.1553529686
6360 1 49.096566732 48.5446885387 27.3499588967
6361 1 9.1710360172 26.7206333859 31.2655989726
6362 1 17.8111973256 14.6854729145 7.251939638
6363 1 22.4130006706 56.3335752385 53.2661565032
6364 1 39.4236375184 31.7250570917 31.8357967739
6365 1 8.9552463004 31.1983096429 61.8536489383
6366 1 53.075973136 7.3009504613 36.3393670923
6367 1 50.5945469922 25.6251560531 40.0920096297
6368 1 3.7211017554 20.4954309254 35.9985754087
6369 1 54.0181411846 58.7950964235 14.4002859388
6370 1 55.8869173583 22.9837269221 43.1482134768
6371 1 31.16143556 61.7906459272 10.0595957255
6372 1 61.9299806386 27.3228317847 57.3773818819
6373 1 4.6017558482 58.8110086472 53.3989736617
6374 1 13.9910893084 38.9918936781 31.9436006214
6375 1 17.1513391347 23.81069282 36.5587326556
6376 1 28.7195257503 41.9906138832 24.9441011362
6377 1 33.4615445571 52.3333244086 11.3936976969
6378 1 9.6448210094 49.3942603632 28.0786917679
6379 1 25.0588335535 57.5134871753 12.0998246415
6380 1 29.3193167647 5.4500770071 37.8529072761
6381 1 45.2697650119 19.8766157026 10.3431386338
6382 1 17.3405243181 47.1475835562 55.1472044656
6383 1 9.1325178669 28.3455004188 50.8945305745
6384 1 30.0131132038 33.4738163459 29.7235224762
6385 1 28.5373278533 37.0221247932 28.9424730319
6386 1 30.5068031548 35.388156673 41.093246671
6387 1 41.9425836287 16.6922920324 51.2679687391
6388 1 31.2565566019 19.5127483589 53.8128676275
6389 1 33.8912333132 59.492826881 16.2931359564
6390 1 55.14215483 13.2364036591 54.0292973562
6391 1 5.191952555 13.7696686608 30.464938153
6392 1 3.3262484386 46.7459026625 3.7177038204
6393 1 47.1890962579 45.6747927571 11.8922611333
6394 1 34.7540163935 59.6512445175 29.6799546903
6395 1 11.242795797 18.6120930119 21.8989360273
6396 1 39.6991949565 3.7311986778 16.0397734281
6397 1 49.6567239789 28.1160355843 53.2982158173
6398 1 3.4015044491 26.9322483459 6.0319711736
6399 1 43.8108900689 42.8233927336 6.8213877465
6400 1 46.3478034871 29.4369262999 27.8826954481
6401 1 53.3266934132 27.8211016377 36.5091170504
6402 1 21.0994495416 55.1582432038 60.4081614012
6403 1 58.9379541365 38.2272849078 59.7897571952
6404 1 60.1418812005 14.7591036469 60.3321232843
6405 1 48.4709990896 33.0042589556 43.7084881571
6406 1 51.0758477211 14.132302954 51.8287718696
6407 1 50.5771668512 31.0010802726 4.7414428598
6408 1 36.7642410795 56.678770674 32.3562028199
6409 1 5.4991582904 5.712963383 47.9887588937
6410 1 45.6165457981 50.9351625257 37.8084000231
6411 1 18.5240766898 10.1228336034 44.8431295238
6412 1 57.2886609595 45.1762880374 54.7929079428
6413 1 27.1574268618 37.7882014809 6.858003476
6414 1 44.0668948484 3.6199974825 35.5438733416
6415 1 11.3902921287 24.3120159409 26.5334445701
6416 1 50.6781008457 55.5151819778 31.3857333255
6417 1 31.907196272 34.2947344244 6.4548664083
6418 1 51.9110926725 16.9151218806 42.5677989709
6419 1 32.9669151391 45.7836535051 28.5927564111
6420 1 35.1509412351 36.2946836892 21.4691885546
6421 1 34.6220799853 37.9725131788 33.0024974548
6422 1 3.9735165963 18.4863805732 21.1015633425
6423 1 43.0770488454 51.9208983602 51.1420214336
6424 1 44.0974275285 4.2794951528 28.4476087471
6425 1 33.7954663877 20.4283177458 47.6550719299
6426 1 45.2199145399 30.9956783369 51.4430619162
6427 1 38.0834877277 14.9485236971 52.9894247312
6428 1 41.4439614756 4.6654928179 8.1018285326
6429 1 50.2036112533 13.9071831548 25.4394351545
6430 1 40.4189441738 37.7024751098 40.4602220086
6431 1 38.7132242553 44.6433166191 50.4885046455
6432 1 31.9470061896 5.1952348181 29.3180249975
6433 1 34.969154355 16.0367788768 30.8775990682
6434 1 48.3341304792 35.1460090329 24.9377597334
6435 1 37.8786839041 11.4883490053 31.044178325
6436 1 53.1075039999 50.2397220192 58.0769912736
6437 1 36.7273082799 38.410774572 22.4066005511
6438 1 12.420946233 21.7136848623 30.1271410208
6439 1 55.6448284349 54.1514280767 47.5753346615
6440 1 38.7357127485 33.650260007 59.6973958379
6441 1 39.4131859471 60.4786214322 8.5006146934
6442 1 28.5302231335 31.6721533518 61.4594837812
6443 1 40.5056687287 42.0337119355 5.2367181614
6444 1 53.2825384604 38.9595994972 45.5485518681
6445 1 55.3884713553 50.78613956 59.6801331303
6446 1 54.9961851324 39.7951380322 17.7136688992
6447 1 40.532149957 3.5488956779 10.5239860469
6448 1 24.409603084 10.3245254423 25.1208970975
6449 1 4.5084491521 60.9488834228 13.2354054753
6450 1 29.0161624811 32.9534102998 41.4578773317
6451 1 28.8545154265 32.372995794 53.6730631825
6452 1 7.0567536086 24.4284511423 59.0856266182
6453 1 6.5642732215 16.2944277237 10.5279200653
6454 1 20.5533255842 24.3069075887 23.0480217005
6455 1 9.1168992267 59.4122675789 4.3494149903
6456 1 54.4169449604 22.2462452637 53.1554755377
6457 1 23.9822042789 14.870430496 30.7730246388
6458 1 39.4068445443 36.0227666861 20.8240095369
6459 1 51.6591393448 18.6632939678 17.5772113058
6460 1 57.6135404194 54.6084788115 43.5448447349
6461 1 3.900983866 25.2751458488 30.0479322025
6462 1 30.0688353451 16.2145730218 53.6322550812
6463 1 4.69279608 44.4625279227 61.3994753214
6464 1 43.7843501238 30.5250053295 39.819799043
6465 1 57.0253753101 6.7849657822 7.9829976902
6466 1 22.60065922 25.4433104563 41.0618919572
6467 1 21.676693346 27.748469089 32.0434777154
6468 1 8.0430531234 5.5485977455 8.3013184955
6469 1 15.213042397 18.6128563289 29.4283536628
6470 1 57.7930373485 52.9447413281 19.3122308538
6471 1 40.3980997479 49.8763831257 46.2364179213
6472 1 13.8671970871 51.9613541614 47.7045113851
6473 1 14.9932658168 6.1167815643 25.2277614779
6474 1 44.7534691343 27.4008075524 13.5413781602
6475 1 50.7257200834 42.6867002733 4.4637011607
6476 1 5.2179405631 33.8993362168 50.147712962
6477 1 37.8401657538 57.1301846063 61.2735280159
6478 1 13.9812249041 24.0945293117 46.6460255685
6479 1 19.0837054864 32.2963705102 59.001250731
6480 1 47.9594592641 5.3216401138 35.8349319866
6481 1 28.0795725182 56.916162262 24.7065921149
6482 1 52.7235555473 40.5640331211 42.1204364904
6483 1 50.0739647961 28.2722219865 40.1470858873
6484 1 6.9024050389 15.7476578827 6.2551650653
6485 1 8.6773930396 52.4888062105 60.0916197116
6486 1 46.8531193431 61.7956955627 30.1870320472
6487 1 2.899850166 42.1626537924 52.1973952654
6488 1 32.2074734377 55.6522854549 7.4649461835
6489 1 50.2452413883 58.6219996139 17.3029456349
6490 1 7.3178784837 48.8281727303 18.498065195
6491 1 13.0859714928 61.6476120641 40.3552952791
6492 1 34.5727579636 32.6938238021 51.2055528949
6493 1 7.7803017959 41.1920081479 40.0820277919
6494 1 39.2429662554 41.685463232 52.8884907367
6495 1 8.7329566458 36.4110014572 10.8677722817
6496 1 61.7706822517 28.8550438767 9.8154517179
6497 1 42.8879810954 56.9033033063 23.408483476
6498 1 49.7408062826 21.8332907651 16.9172943982
6499 1 36.9817277087 57.568152416 26.7585643693
6500 1 40.9220875122 39.9065823146 31.1170457404
6501 1 12.2752701188 18.2407099315 58.5885310991
6502 1 50.3414780474 37.1090254982 41.7192840469
6503 1 57.5709708173 52.9484991965 34.2681944794
6504 1 48.5332975004 4.6345256343 47.4693510314
6505 1 29.5756151277 5.5825242505 28.0173328241
6506 1 38.0287050536 14.6303966569 27.5968038721
6507 1 29.8151792333 28.2853745256 5.8349766701
6508 1 29.7221719923 29.071943339 10.0372833824
6509 1 58.646425758 49.3983705317 58.6359741867
6510 1 28.4713890076 19.4793385608 46.0119440057
6511 1 60.9934493925 43.771902185 22.3597446304
6512 1 20.0459546439 13.66192353 51.4159348043
6513 1 48.831284715 38.7165123901 35.9730336475
6514 1 19.3361285477 41.2407430027 58.2133901504
6515 1 42.3789660877 4.6973994687 13.4164290385
6516 1 7.7638904803 4.6408905238 24.1557708221
6517 1 43.7282169657 54.2494262365 56.0402853592
6518 1 32.458369865 12.1362877075 34.5621302423
6519 1 17.4452161809 34.9372124742 53.476068679
6520 1 52.8777455819 22.2310963571 55.5483569091
6521 1 47.4742245169 12.3348675617 15.2254316192
6522 1 10.4716694738 7.3306258777 21.8144427067
6523 1 57.9861565503 44.5281144683 48.2182824448
6524 1 44.3246611286 59.8016179671 34.0714348426
6525 1 21.1819464946 38.635542071 24.9930708578
6526 1 59.737088322 3.3032678995 54.7858619397
6527 1 25.4765441042 35.9610554422 16.6927617659
6528 1 60.0912674115 12.0713470456 47.5877826003
6529 1 50.3183436705 55.9004809143 28.5287552162
6530 1 32.7655168837 27.4880018408 23.3874629001
6531 1 59.0581472061 22.6265532814 56.8502821329
6532 1 50.9304064736 41.7438863411 29.7988559927
6533 1 33.8831304096 16.212811521 45.004659145
6534 1 40.7622019584 9.5275050577 29.6879988772
6535 1 41.3833071322 47.032087822 12.0276031096
6536 1 36.4220401954 12.6657361242 26.1401601634
6537 1 48.4268441368 23.6547412846 60.2761075596
6538 1 52.5701875464 11.4504767386 13.2304732732
6539 1 12.2449135888 20.308535693 52.0025145628
6540 1 60.5874234635 26.4777224289 19.0835880531
6541 1 8.7517753457 48.0346753473 61.0357254111
6542 1 54.1819607568 9.5537514192 61.1619663001
6543 1 17.4119825329 31.1956673917 15.101128381
6544 1 60.0869810929 32.211818473 17.9946282731
6545 1 51.3454747732 37.3440684185 11.4276359452
6546 1 19.2609711812 6.7046941918 52.5047771509
6547 1 11.8479300304 24.7556792698 34.7645853982
6548 1 20.2158220354 37.8780967372 57.5231167128
6549 1 38.6677188186 51.9833729211 5.670658006
6550 1 27.2523717536 22.2044976953 8.2793173508
6551 1 12.81493524 43.3391601609 53.3222896612
6552 1 57.5097293069 10.0153233393 23.3816499475
6553 1 31.7775498149 26.2573586817 50.0817153995
6554 1 9.669716887 55.1176699692 45.137769887
6555 1 46.3508567551 42.8546887307 17.6028705004
6556 1 24.4426605819 15.4912420863 28.0846221538
6557 1 8.0237294598 26.3824839535 23.5861601877
6558 1 39.7413535418 14.0023041967 12.5473632721
6559 1 8.2800747962 22.0188942302 12.3258251911
6560 1 14.328827724 4.7295351145 32.7447311745
6561 1 4.7700789907 16.3002406762 35.9326952797
6562 1 18.8160160851 57.6166524041 4.0802987733
6563 1 50.8585959586 12.9229152376 36.0940487508
6564 1 32.2660726969 4.7247262174 23.3615688387
6565 1 9.24537135 50.9225384368 16.2064114015
6566 1 16.2515058214 35.0229975621 17.1235661391
6567 1 52.2144231062 15.8601590656 20.0337415719
6568 1 5.7592908534 48.0991462757 47.5984103216
6569 1 56.594747087 35.3884502565 56.1515534916
6570 1 12.290125442 10.4974461018 46.0906243737
6571 1 52.3162965678 60.8091964113 59.8933921576
6572 1 52.280361952 42.1310054951 50.9618199041
6573 1 22.5623172197 11.7568604403 28.4304634729
6574 1 35.789015533 43.5889996877 38.8061140629
6575 1 55.9734657631 50.2132407908 49.6261325821
6576 1 5.5136025968 5.6649918452 13.8740669402
6577 1 48.874265334 24.717454703 42.1985296915
6578 1 10.5932717441 33.1943248894 28.2481481425
6579 1 53.5975535159 42.5997408517 22.2939232181
6580 1 10.0904807058 54.8292535755 18.3069423607
6581 1 41.7710134531 33.8999821004 14.6130752326
6582 1 31.510153997 8.9195759097 33.6339954832
6583 1 42.9790506855 17.7028650278 36.8923609027
6584 1 14.1112236614 42.329820216 51.0092629917
6585 1 17.6988722927 27.0085800462 20.8264169212
6586 1 13.4547710387 8.6296622402 17.583082975
6587 1 16.0425918293 41.5808300859 9.8373530442
6588 1 37.2633329662 40.8819252945 21.255401077
6589 1 26.9491587533 13.4064472007 48.938618829
6590 1 30.26154353 57.7027310753 12.0122780529
6591 1 27.4744970015 43.3447382467 50.8847248868
6592 1 51.1536473387 19.2216897139 5.3458724928
6593 1 48.4081135119 15.9089526371 15.8513515617
6594 1 58.2331776758 50.4105875945 35.4751748114
6595 1 45.1453443404 10.8114629736 14.1358846722
6596 1 27.5417276145 54.6887445302 30.8409598521
6597 1 30.8200567095 14.1829754597 36.8617107892
6598 1 39.1502525979 56.9045363569 7.5265869674
6599 1 11.7278543942 58.8610352692 10.5227529963
6600 1 54.1179595619 29.4254765448 39.6566840711
6601 1 29.1610752783 22.1062646687 46.1798150297
6602 1 34.5270763768 47.8119042157 61.4207307641
6603 1 39.5669062482 17.8675653504 34.2791745009
6604 1 23.0874206012 28.8856939902 48.346402268
6605 1 42.5029170257 57.6943345883 30.9552225358
6606 1 39.2448451896 35.3469962715 44.9022572332
6607 1 48.0301541619 56.7828753699 46.6696296789
6608 1 56.2122665517 49.3428245405 27.5029745974
6609 1 24.4261611913 52.1574679145 7.2820378146
6610 1 20.0200018658 39.9449830315 13.0069388246
6611 1 23.3437776808 40.4139532549 52.700127587
6612 1 3.9182759319 53.3197061268 9.7472816379
6613 1 5.5786019754 14.5076787695 43.9815207774
6614 1 12.4859456117 54.7253837463 46.0262708787
6615 1 24.7369486449 50.2266869134 56.5148336684
6616 1 16.117514329 48.1088932466 32.0670231091
6617 1 48.0035555002 61.3709390089 58.6279299998
6618 1 46.5892465268 25.4878764259 17.3170376411
6619 1 31.9422501375 31.4537859722 51.1887599208
6620 1 57.5292232489 55.0876657394 32.2602010276
6621 1 55.0046403361 55.8205674957 36.6476884448
6622 1 37.7352390242 56.8787010121 38.5880402668
6623 1 17.2602585994 8.2063383737 50.7715191036
6624 1 16.9329717551 30.2897275424 8.7505481669
6625 1 33.9250541281 58.1576680092 53.2666262367
6626 1 50.5080573041 13.5600500684 22.5424122609
6627 1 20.6823261577 48.9294003083 19.0494736547
6628 1 5.2422023005 36.6116363956 60.1856251364
6629 1 5.3668402237 30.7975094996 45.3783321764
6630 1 41.1764482243 51.2520565154 30.9034344129
6631 1 41.2106800561 16.4575426956 26.3176020083
6632 1 25.7345452513 14.6161285006 33.2232135021
6633 1 26.768546207 8.5785728461 12.756688281
6634 1 40.4011530159 55.3161911068 22.670355934
6635 1 46.9100158182 4.4160701797 27.6131858293
6636 1 28.3410966669 3.5363620128 21.2231656128
6637 1 49.7389860651 49.181353636 6.8334716419
6638 1 9.3928676816 35.868283068 38.310310311
6639 1 56.8728293429 4.4967527869 32.7296997012
6640 1 34.300547377 48.4131631474 23.3613926886
6641 1 51.5118778799 21.7297732361 11.5235203041
6642 1 38.1376832349 40.7047770331 44.8030847395
6643 1 51.9987566945 29.0102908118 21.0881759366
6644 1 53.7758761112 35.7275978726 47.9239943818
6645 1 45.3163273491 39.4069619777 56.7474692043
6646 1 43.5703277795 5.3354326649 43.5827757183
6647 1 6.7098906191 15.1495696524 54.2151944048
6648 1 23.7371208042 54.6583880001 16.5883634866
6649 1 29.4410364683 24.348479007 32.2075908711
6650 1 27.9597904654 14.5390334833 57.180093795
6651 1 43.814295637 26.2749736895 3.3841789147
6652 1 35.5373557888 5.4144712047 50.3626160567
6653 1 61.763753682 9.4275692469 41.6521121507
6654 1 18.3019514419 45.0381276598 11.337153522
6655 1 46.6387446986 42.5223522509 48.3197448896
6656 1 46.6096212191 51.5950207166 30.7712044213
6657 1 40.9463962229 9.9392852225 60.5361050742
6658 1 24.9147427899 41.2377484514 23.0524254524
6659 1 56.0772181589 45.85546402 14.0875021176
6660 1 10.4678528888 35.1704938937 60.8956273827
6661 1 60.5580651172 50.5859743551 55.1382795283
6662 1 12.2420364708 58.6646279327 51.9240690616
6663 1 39.8242615117 21.755960881 6.5163192987
6664 1 20.6386996552 27.0468633297 34.4318379015
6665 1 22.8794460762 36.9799074913 57.3066869841
6666 1 61.4406944396 14.2462133375 27.1591296459
6667 1 52.2174763743 51.5592035341 13.6409029541
6668 1 3.9753955304 40.7964925069 43.6643919209
6669 1 9.3201764163 26.477311412 26.3070330036
6670 1 31.542624328 43.985983246 33.3321916835
6671 1 37.6442281508 21.2659700817 28.6088447849
6672 1 17.8113147589 17.3884958559 30.0788758995
6673 1 59.6767275621 10.8037123702 21.6770456462
6674 1 5.9557099333 18.096619168 37.8944786944
6675 1 30.8070803205 13.6374973859 53.7893222337
6676 1 45.4093345901 21.4435293599 14.030135909
6677 1 28.6821819339 5.9972989666 45.1814551063
6678 1 18.1119442248 33.542162576 7.2183830482
6679 1 39.2594069294 10.2275841829 33.37734482
6680 1 47.7692758969 29.851701016 61.5523148721
6681 1 32.539340184 22.3659098831 39.0739208976
6682 1 56.9313698853 16.3471553136 39.2824825895
6683 1 40.6523430267 60.8799500258 31.3705257021
6684 1 17.7890024158 14.4773809561 27.4237657792
6685 1 53.4011461793 27.0553185334 11.0120391953
6686 1 31.8723772733 47.4998249948 55.5674398342
6687 1 47.7161372902 20.3804049247 48.7879517959
6688 1 19.4785752438 17.7712112579 22.0109674767
6689 1 25.3245853039 26.6885740718 35.5727619544
6690 1 9.2210626393 24.6435891038 40.520876352
6691 1 21.5519790911 24.8456919595 46.5243058649
6692 1 52.6759363097 56.7376047999 24.6867458728
6693 1 15.8251639168 5.254016099 49.3761169052
6694 1 44.7022681784 31.0300276021 47.05023128
6695 1 20.3044255245 34.5162137887 46.7747912753
6696 1 40.8132854809 22.3663209 44.5242391666
6697 1 14.4622907661 36.8782688965 29.5644002394
6698 1 38.1561789931 32.0226920063 46.825639931
6699 1 51.0338065692 43.9806987437 40.9917255096
6700 1 40.464156027 44.714950984 58.0481613776
6701 1 14.4944675136 24.8970103488 43.1431051245
6702 1 13.9942012931 43.8686085776 60.9264536463
6703 1 10.2733244864 51.0015123883 13.5836541788
6704 1 34.9729122233 7.7016214279 8.9527743277
6705 1 57.4557099498 42.991381191 9.0238919857
6706 1 7.330549546 60.3910161269 50.9516619163
6707 1 27.8088298489 23.5417703681 37.244073891
6708 1 21.5418798199 30.250093775 16.5267696761
6709 1 43.7807096889 61.5718675308 42.548305029
6710 1 22.3818221068 47.9594592641 12.191011665
6711 1 45.8433683814 58.795390007 22.9120338405
6712 1 52.6835694797 46.2501576274 6.6587248932
6713 1 27.2780309483 30.5820779546 21.3821704162
6714 1 55.1637625729 11.7256231599 35.4029532795
6715 1 6.947246977 55.3202425585 44.3988203113
6716 1 46.9228747739 7.2382586486 30.0753528979
6717 1 10.02436571 12.9475762485 22.4766495653
6718 1 16.9633870019 13.9364827844 47.9900506609
6719 1 43.2503805218 33.8357460387 61.5241895764
6720 1 48.3543877382 12.0549650884 34.7401005374
6721 1 41.4533561464 27.431633816 61.1906787627
6722 1 13.4156657215 39.0523131547 36.2209942401
6723 1 11.5894591498 34.0044390964 25.6132952812
6724 1 59.8299194129 57.1358214088 50.6315972252
6725 1 12.313435969 34.8841913009 29.7288656952
6726 1 25.6895682648 37.9995228574 46.3488603875
6727 1 24.5491726621 49.2305582244 17.2716496377
6728 1 40.753688038 5.6341597099 42.8607952667
6729 1 39.8869709393 31.8606926515 25.1421525402
6730 1 22.1094353701 24.419526205 36.8606538887
6731 1 31.1136988889 14.1522079128 3.932015638
6732 1 53.351354424 13.0084067419 15.4336410109
6733 1 9.6859814108 41.0340602449 26.6158828064
6734 1 30.6032746806 58.0267297848 30.7906983632
6735 1 53.4596867218 47.627181501 47.8839495975
6736 1 49.1069008699 20.3678395525 30.9741880274
6737 1 14.2098677049 37.9974090564 15.6606397443
6738 1 44.6534746069 40.8766407922 44.8845247921
6739 1 14.3362847439 29.4546000243 33.8916443301
6740 1 7.9115159887 3.928163823 42.9243267281
6741 1 11.1871910892 60.1236790258 57.1541997336
6742 1 35.3698370649 20.3006089395 30.2901385593
6743 1 51.4697780114 41.0112781682 12.5115460896
6744 1 42.3767935701 4.7519355327 46.0669615466
6745 1 35.2552807978 42.1237833419 56.8963747366
6746 1 54.2093814522 4.1698299861 59.7924581631
6747 1 16.5618235415 42.3518389757 38.5683114581
6748 1 10.7526875644 10.5680235663 19.2960250467
6749 1 47.1652572807 26.7461164305 20.934749219
6750 1 38.5698380921 59.8321506473 27.321246434
6751 1 36.2888707367 24.3080819225 14.8141211879
6752 1 45.0147584162 44.3931835088 58.018861748
6753 1 24.9954195255 52.2167130573 26.4413180795
6754 1 19.0006800832 58.1303647472 50.6601335378
6755 1 13.2137390158 49.5199728019 49.2161726347
6756 1 36.2048471496 4.1349757574 61.0065432149
6757 1 23.5083018534 6.1940057583 43.6558780005
6758 1 31.9585146613 59.8165907237 23.0955235047
6759 1 28.2593043141 13.1435138515 54.8045338479
6760 1 23.5586807756 12.1513191808 4.7120023101
6761 1 9.5057211647 51.5993657518 10.7026609423
6762 1 45.2276651433 9.6022514073 57.5265809977
6763 1 37.4222790529 29.771494014 20.5003044108
6764 1 61.5083360694 9.3948053325 34.2359590151
6765 1 20.9514247597 60.3200863623 20.2488795334
6766 1 4.4035752675 48.1289156388 6.8159623241
6767 1 52.855961689 28.1075216639 23.5743581325
6768 1 43.0192129032 9.2164240205 45.0339587746
6769 1 11.74869882 39.2309293335 60.115223822
6770 1 28.9985474733 18.3418200761 8.0260487692
6771 1 51.9828444708 52.7965403962 7.1047075314
6772 1 18.0949163839 3.5674460426 48.3432902833
6773 1 46.9197627892 54.3855902466 50.0704417946
6774 1 58.6306896844 48.9969245047 21.9609995713
6775 1 52.3701397749 5.9049317376 20.5516815168
6776 1 9.1474319068 19.9362718622 26.1159101694
6777 1 61.9628619864 29.0370656236 29.9960266463
6778 1 22.3896314269 6.8888590979 34.4457537576
6779 1 60.8092551279 58.964200498 32.2951374597
6780 1 40.6933272781 23.6679525404 14.9923850664
6781 1 36.2209942401 3.2883820436 17.3417573686
6782 1 37.5266773323 10.953087636 14.2772744679
6783 1 36.8756266453 60.6547715099 51.4983730406
6784 1 41.6722519762 54.6913867814 25.1835478084
6785 1 17.9177681225 45.2583739735 30.2401119372
6786 1 29.3091587769 46.7739105249 61.6576526186
6787 1 42.8851039775 6.3231061502 38.4438320699
6788 1 54.4001519863 6.6014467596 7.8975649026
6789 1 41.4152490129 48.4096401459 15.9803521352
6790 1 12.2132652915 9.6906787462 5.2155801521
6791 1 26.3352757327 57.8331995662 9.5451787821
6792 1 35.2595083996 15.6840677046 21.4388320245
6793 1 50.4422946085 50.7733980377 58.9663730157
6794 1 46.2276691341 17.5971749812 15.9658491122
6795 1 3.4450452253 7.3898181754 4.7164354204
6796 1 12.4254087016 44.9556307068 6.3583948825
6797 1 31.4166183058 29.462879078 35.6825621694
6798 1 58.2141534674 36.7604244945 27.7295035973
6799 1 17.9901070877 24.3992102294 21.8052829027
6800 1 38.8075232635 27.6700235877 8.8980386269
6801 1 44.2008863408 45.2041784663 20.4957245088
6802 1 19.0578701417 32.2817500538 55.3178938908
6803 1 20.1802984365 31.497177608 36.3936213162
6804 1 31.4069887682 14.7049081397 11.9424639054
6805 1 54.8873243844 49.7561900561 5.1186212777
6806 1 48.55514011 36.8987023055 54.3555273
6807 1 47.0467669951 47.2294346257 56.2739190789
6808 1 27.8806403639 4.6178735803 58.1914301074
6809 1 7.9518367415 17.651840222 54.490927993
6810 1 42.827326752 36.8595382716 41.9313100237
6811 1 31.6776727209 29.4836060704 25.1739769875
6812 1 50.3094187332 46.4073422133 17.5903638449
6813 1 43.7639167148 27.9704769035 19.3138749212
6814 1 13.7936250714 23.7476898089 5.9381007972
6815 1 59.9014363445 16.3847339968 4.7977756546
6816 1 49.3057155908 53.3126601236 45.7783690027
6817 1 26.5918089625 20.5463382978 17.9812408672
6818 1 13.4402680156 28.6943362892 6.4275103013
6819 1 7.4126413538 35.8415669729 41.7526351283
6820 1 49.6060514732 47.457783843 4.4420112144
6821 1 37.9634120914 49.3437052909 18.1793509878
6822 1 15.6393843016 56.0818567776 41.3403852299
6823 1 37.251530911 57.1118062815 52.7446935566
6824 1 20.9937007783 38.5266813231 45.4997582966
6825 1 19.2175795455 17.1604989387 24.7697125593
6826 1 45.3545519159 48.083234052 47.3768722406
6827 1 24.2893512976 56.7552198077 18.4293666647
6828 1 38.5002588114 39.901356529 60.7256425578
6829 1 41.0732242788 29.9685472342 13.5995076858
6830 1 52.5081827191 31.1725330149 46.3254911439
6831 1 43.7149469932 34.9048595766 47.4431046698
6832 1 26.4270499232 12.2260068138 19.0253998107
6833 1 59.3743365955 50.7459186256 28.3791450836
6834 1 49.8920604826 58.719762907 40.2926445681
6835 1 9.0353417407 12.3545376537 61.6400963275
6836 1 46.3698809635 30.1407632934 31.8546448322
6837 1 7.8451778695 29.9462936077 56.3130831128
6838 1 50.0610471238 4.5856674744 41.7019039059
6839 1 20.7554871567 13.3590628298 20.8408612276
6840 1 35.1748976457 55.4581093526 7.2264389784
6841 1 5.0966964647 27.4400890197 49.9276427983
6842 1 52.2953934253 22.3388414879 41.2921201086
6843 1 60.5596504679 6.2677832825 26.51817823
6844 1 39.5287991148 56.3645189355 26.4676818744
6845 1 31.9770691362 18.3390016749 8.1381389353
6846 1 59.03677433 36.3801751936 12.9164564014
6847 1 9.3682653875 21.2057854718 43.5993925423
6848 1 59.635684594 42.9063594202 28.7743084245
6849 1 38.165749814 21.0425530665 55.2776142397
6850 1 19.5528518599 21.2619186299 21.0864731525
6851 1 56.671137504 24.1318144115 57.224777198
6852 1 50.1339732559 28.3933545232 18.9192987473
6853 1 17.834977586 22.914617375 55.7713629074
6854 1 48.469589889 42.4223577235 31.3702908354
6855 1 41.4035643911 20.8898309492 8.6961001779
6856 1 17.6724497811 31.0035463737 31.7837737843
6857 1 16.3997067534 14.0108768338 14.7166514782
6858 1 10.7267935029 23.2433134199 50.0434908327
6859 1 59.8613328435 21.6321860931 28.8543979931
6860 1 49.1199359756 10.6271512757 44.5759685727
6861 1 32.6938238021 40.2853636982 21.4279694364
6862 1 16.064610589 29.3126230617 36.1776026043
6863 1 42.8476427276 12.4944008154 15.0363638691
6864 1 34.7084522401 50.0980973568 53.4881643177
6865 1 50.8422727181 24.1305226443 44.4219546882
6866 1 25.2568262407 29.0156340308 29.7244619433
6867 1 27.0342979575 44.1232041565 60.8844712111
6868 1 46.3150395726 54.6532796479 43.8770637814
6869 1 16.2939579901 35.1489448676 8.8169567461
6870 1 58.3338768035 47.8056802463 36.460499629
6871 1 51.4919142044 30.7115482617 60.7918162703
6872 1 14.3560722693 21.438362291 12.1256599862
6873 1 10.5529333763 31.0075391088 40.8703581061
6874 1 58.079985825 29.5242967384 14.3463252983
6875 1 59.321902589 14.835670214 14.1304240198
6876 1 22.3708420853 34.6665285216 11.1356378331
6877 1 23.6497503657 37.7115761971 59.9754780938
6878 1 47.2932596705 45.7076153882 5.2253917114
6879 1 59.1167464653 32.2380061178 60.465292743
6880 1 46.0774131179 27.5101380339 52.6114066646
6881 1 3.4878414739 25.8287268261 33.6960003105
6882 1 52.9985845352 33.0659701994 41.827557628
6883 1 26.0253103128 53.7127556667 54.3241138695
6884 1 51.3881618087 47.4918395247 49.9142553924
6885 1 21.2365530187 52.4676094845 55.3297546627
6886 1 7.7009285709 16.2916680391 50.1877577463
6887 1 26.0389325855 11.721395558 3.2687154746
6888 1 55.9756382808 8.9529739644 54.4786562043
6889 1 11.5517043165 37.6816894006 27.6041434587
6890 1 7.8712187226 36.1164198107 4.873520188
6891 1 21.7728712884 10.7977232675 8.9739593103
6892 1 52.7410531217 58.678308922 18.8562370195
6893 1 9.3747829403 36.3144124979 58.5963991359
6894 1 9.0775590427 22.8995859017 25.8579090223
6895 1 33.6427442703 59.247625973 57.4966942012
6896 1 24.1469046015 12.7908613961 45.0284394055
6897 1 47.8130198329 42.5492444961 25.4253431483
6898 1 47.7452607697 6.8884833111 39.4222283178
6899 1 5.7625143998 8.6890952764 40.9195626944
6900 1 16.2195639407 18.2789932151 26.8124662931
6901 1 10.2685097176 61.6287640058 61.7989836975
6902 1 55.2826638753 21.0087322516 56.3311091374
6903 1 29.8808832122 28.6407279489 14.3950014365
6904 1 23.0396839301 43.9735353072 3.1180800311
6905 1 36.6781036916 37.759723885 16.1948442131
6906 1 56.2918276701 50.3771777964 42.6360277677
6907 1 15.6789593524 48.0256329766 60.587893197
6908 1 47.5222547714 31.5267121043 50.1120132129
6909 1 32.6206628032 35.6350016485 35.7633563384
6910 1 4.4075445159 31.6144935597 31.2180384516
6911 1 33.3690070497 16.1112903596 55.9062351502
6912 1 6.4368814854 4.4504664182 56.2462048
6913 1 35.2211663994 50.89194704 33.3519204922
6914 1 27.6700235877 42.0970085301 34.9666882539
6915 1 38.7523882892 13.0210895475 58.9953203451
6916 1 54.0396314941 40.5884005485 27.9879744779
6917 1 9.8950128363 52.5276179443 43.970129739
6918 1 46.7778445433 37.7384684423 60.9554596924
6919 1 50.3364871285 4.0137551457 20.2098916495
6920 1 13.1066397686 58.8853439799 13.077340139
6921 1 44.0326042999 8.1075357951 23.0063915655
6922 1 45.8362636616 10.7210392671 47.3547947642
6923 1 26.4721443431 53.8397598726 28.2296523844
6924 1 22.318584229 59.8009133668 22.6454600564
6925 1 52.4489375763 6.2330230005 16.6715650399
6926 1 53.778577079 52.2453080865 31.003487657
6927 1 46.4615964372 34.4620182815 22.6201531619
6928 1 49.9671591324 58.3589488313 31.7579384396
6929 1 33.1509332536 4.6925612132 14.980054561
6930 1 3.7114898328 17.4918372348 54.2243542088
6931 1 28.2303569847 11.1587134933 33.9970407932
6932 1 58.8825842954 21.2895154754 59.4689291872
6933 1 58.3675801851 6.7101842025 10.5094243071
6934 1 45.2128098201 18.1001421696 49.5358263089
6935 1 24.8388808232 56.6905727292 14.7490630925
6936 1 27.3528360146 62.0333220175 5.3716960942
6937 1 45.3825597783 15.9376650998 31.8037374598
6938 1 55.9770474814 60.4093944517 33.3186281275
6939 1 13.1918964062 14.8414244499 43.0527401347
6940 1 29.6775473059 52.4605047647 13.783760667
6941 1 40.6669634831 40.6951474955 55.2071542087
6942 1 23.167099153 13.2048727952 8.7923838103
6943 1 52.6782849774 38.6631976332 26.7829317967
6944 1 14.465167884 55.1243636722 31.6110879915
6945 1 16.5952920563 16.6288192877 54.7849224726
6946 1 46.6487852531 8.0373165025 20.3775865234
6947 1 5.7794776523 51.4499317693 8.6362737398
6948 1 26.1672285587 61.1412393076 58.0482200943
6949 1 44.0707701501 61.0841666825 23.8752811818
6950 1 49.4906731724 61.566465595 24.8478057604
6951 1 28.6459537346 7.8438684872 29.2539650859
6952 1 42.5080253779 41.6854045153 13.3207795463
6953 1 49.0665625021 38.7253198939 52.1113165941
6954 1 49.7621791587 54.4293928992 49.7379878814
6955 1 34.6496768308 53.2637491188 43.1365288549
6956 1 57.3348709965 36.1417267052 31.8049117936
6957 1 23.6454640471 53.5322605538 21.5648380467
6958 1 8.3938266446 13.1795659007 33.0208170629
6959 1 52.1319848699 21.797591016 5.8013496203
6960 1 60.9682599314 25.3535326333 26.3636358952
6961 1 46.3594881089 6.5272699619 47.7251796608
6962 1 40.8876208137 50.0928715711 43.332466458
6963 1 34.6235479027 47.5545489523 56.2413313145
6964 1 38.2375016123 42.7036106808 12.2087441061
6965 1 7.4381772434 21.6204427546 31.0459985424
6966 1 58.2568992196 39.6944976211 11.1704568318
6967 1 25.1046325736 5.1569221762 41.5228767104
6968 1 19.9846544169 33.8739706056 29.7880521213
6969 1 54.1518390935 57.390358271 26.9991266587
6970 1 10.9665924753 5.9724618057 51.3519336094
6971 1 28.9299076597 45.8783048134 45.4447994724
6972 1 11.0357020224 38.438077834 57.4714460234
6973 1 23.6529210671 52.3098964483 10.0241308432
6974 1 22.9007602356 32.3740526945 43.7853483076
6975 1 30.1384733424 38.8323017078 11.6218707641
6976 1 53.4038471472 61.4694656189 29.7801840845
6977 1 45.8420178975 49.1176460246 22.7859691016
6978 1 9.9591314646 38.2635718237 41.8009002496
6979 1 47.9140125441 49.28123073 31.628174549
6980 1 48.7668725033 30.5553031428 35.8068066909
6981 1 33.4927818376 58.0105239777 44.2878457624
6982 1 41.5172986246 29.2695837261 44.721644687
6983 1 9.1172515268 41.2398035356 12.0959493398
6984 1 37.2996198822 21.7135087123 13.9278514305
6985 1 21.6439294316 34.85953029 50.9435002961
6986 1 15.3864327901 18.1102414407 43.2189670913
6987 1 40.6646735321 36.6544408645 12.2034596038
6988 1 47.0506422969 23.1568824485 22.9458546554
6989 1 29.670090286 59.6088510655 52.5597946918
6990 1 44.3245436953 42.4972215065 19.4479251303
6991 1 57.760097284 10.8347735005 36.4133501249
6992 1 61.6962294856 14.1522079128 44.650597489
6993 1 12.3079753165 33.6314119487 56.5759577454
6994 1 14.5415583011 51.8790920751 29.9583892464
6995 1 51.947673172 57.7872831126 21.4076534608
6996 1 59.816355857 44.4755043118 16.2265512271
6997 1 58.9004341699 21.0178920556 24.855908664
6998 1 33.5064041102 13.0997699156 9.3475971117
6999 1 12.3201296719 56.2840770667 3.870785871
7000 1 50.7809137744 27.6314467207 30.0280859604
7001 1 28.5439628396 19.645271934 51.1134264043
7002 1 6.6025095317 43.6163029498 35.1953897714
7003 1 7.3313363496 37.4823462294 25.2851276865
7004 1 4.105957968 55.0065779869 55.4958641859
7005 1 13.9377745516 49.6436301564 33.2764108255
7006 1 45.1729999026 54.9161542804 41.2642883964
7007 1 50.6785705793 52.3204067363 18.5424550145
7008 1 55.8004863869 48.5753973689 61.3012422948
7009 1 44.1238500401 18.2293776099 20.1158862247
7010 1 58.5466073806 12.839185234 61.7463148243
7011 1 48.9565274202 43.3229543538 28.0475719208
7012 1 45.6351589896 51.7240800068 12.9750556606
7013 1 44.9361367648 19.3191007069 35.7504973827
7014 1 12.4975128001 35.3679581308 58.9570957782
7015 1 7.9630868598 29.5178966189 17.1531006355
7016 1 27.9382414393 22.1325110303 29.2652386909
7017 1 7.1284877919 23.8846171359 27.3908844314
7018 1 53.2890560132 32.9493001314 25.790560976
7019 1 28.9614385236 61.5130921215 47.1687802823
7020 1 19.537174503 38.2505954347 51.8717524885
7021 1 28.1249605216 20.4691845638 15.5345750054
7022 1 40.6236892807 40.0763322728 58.7270437768
7023 1 8.4214352335 55.714525149 30.6171318201
7024 1 57.5418473378 32.2400024854 14.1980656496
7025 1 49.6087524411 7.4988139718 56.1811467047
7026 1 55.5630360822 14.0931976368 26.0626541292
7027 1 27.7997287616 51.4303791107 41.9023039776
7028 1 50.5314852644 56.9441701243 5.899118785
7029 1 15.2940714327 36.7396387854 36.0161316998
7030 1 46.9608057573 41.5149499569 13.0560846963
7031 1 25.6034895935 39.175442059 10.3327457793
7032 1 60.5052788106 17.5024062394 28.2169108621
7033 1 58.9321411839 29.4140855065 52.0024558461
7034 1 11.9021842544 46.4130964492 32.4490339109
7035 1 54.3916967826 22.1094353701 14.0698871098
7036 1 43.8916842378 49.129037063 17.6408602005
7037 1 51.7557870208 57.8508732906 51.1775450325
7038 1 8.3715319165 13.6222897625 24.5991405675
7039 1 45.2351221633 20.0943959153 55.1686360584
7040 1 20.6367620043 34.7020521206 39.8082905713
7041 1 10.1168445008 53.540246024 22.4394231822
7042 1 23.8138635214 51.8565448652 54.2569419732
7043 1 56.027543837 10.4394340096 25.7289671655
7044 1 46.5552495618 17.7494860817 27.0441623619
7045 1 6.2849285568 49.2568633026 30.812129956
7046 1 39.0021690993 25.3260532212 33.2624949694
7047 1 17.7518934661 22.5745890085 46.7743215417
7048 1 25.4768376877 11.1219568438 49.6441586067
7049 1 27.5896404356 58.2890759671 19.6340570457
7050 1 18.5770391465 29.4021660179 61.0546321861
7051 1 51.955130192 3.2493096077 39.6257990908
7052 1 45.2997692418 26.4269324898 10.1136150827
7053 1 46.8493614748 44.3566617261 8.6235204742
7054 1 46.2537393456 46.96714716 7.6016621305
7055 1 30.6961057715 17.8990962143 15.0427052719
7056 1 49.3807555239 21.9091527318 37.9637643916
7057 1 7.787488719 59.2687052656 18.6097443442
7058 1 36.2820596003 51.7818572322 18.1512844088
7059 1 31.321086247 59.5775550684 38.4169985414
7060 1 47.3396458576 60.170417513 40.8498072637
7061 1 14.6523566999 17.2540933467 8.3512041975
7062 1 25.316364967 49.1130661226 43.4363950038
7063 1 42.4794890653 7.5548062098 25.6084217957
7064 1 6.1006814472 5.7538067143 27.7859890555
7065 1 14.1923114138 21.3939137547 35.9839549523
7066 1 39.0420964502 23.7057660904 47.5577196537
7067 1 38.2471311498 9.8457495313 8.1486198649
7068 1 20.2144128348 46.56611215 24.1560644055
7069 1 35.8332879192 36.8423929973 50.5513315065
7070 1 20.4119945052 58.1112818221 15.2706434724
7071 1 27.1839668068 43.7461842737 45.8313901761
7072 1 35.719318819 56.2806714985 9.7283748629
7073 1 4.3175670563 24.8936047806 48.8705661824
7074 1 52.863418709 34.5308342451 44.1648342915
7075 1 7.4610884968 44.3183784425 58.5836576136
7076 1 19.4995371031 45.5665778927 13.789691053
7077 1 55.4537643174 11.7481116531 42.3486095577
7078 1 57.8258012629 42.8286185192 17.7063880294
7079 1 59.898089493 28.6332122123 58.9078911899
7080 1 9.1759095027 12.4510091796 58.6541763614
7081 1 6.6428478995 35.6877879551 39.0667574611
7082 1 52.746337624 61.0304409088 20.3367197054
7083 1 3.9540402694 9.1064476554 59.2903717251
7084 1 36.2542278881 59.3288898754 46.5329959354
7085 1 58.9777053373 56.3672199033 4.5621396957
7086 1 23.8726976473 24.6614389783 50.1740180402
7087 1 40.499503476 15.1164534378 10.0034038508
7088 1 4.7546482439 21.976148478 5.0310746891
7089 1 45.6257056021 28.9798168484 11.3377406889
7090 1 24.6945551929 8.2348159695 14.8094825691
7091 1 27.7871046727 57.2840223408 48.9868839503
7092 1 7.4290350544 28.0404084843 46.662348809
7093 1 43.4500759932 31.0883919945 61.4471532758
7094 1 3.6913981549 36.3163501488 6.7464769902
7095 1 11.8681872894 43.0282552739 49.3430006906
7096 1 23.1895876462 38.7845650367 47.2506900684
7097 1 29.8120672485 34.8999273745 17.8829491238
7098 1 35.7667031899 14.4196624473 46.4330601246
7099 1 21.919428153 30.1801621941 19.4805716114
7100 1 47.2294933424 27.3628178523 4.1224808453
7101 1 29.2954190708 3.6118898815 42.4190695887
7102 1 13.4863019026 42.7174091035 4.7634968495
7103 1 55.2129084446 6.402784702 19.6974123569
7104 1 24.1557708221 45.7933417593 39.4176484158
7105 1 9.7122277724 52.2554073576 7.2078962469
7106 1 58.1190911422 39.1329898903 26.0940675598
7107 1 14.4762653389 44.6913468736 13.2563673346
7108 1 24.2564699498 28.1239036211 6.4115452326
7109 1 6.8340411938 57.4278782375 46.4635928048
7110 1 12.3983403064 57.617239571 57.0054116346
7111 1 18.8742043274 53.0409192705 11.52164137
7112 1 33.6102739394 21.0692691616 51.673994668
7113 1 24.7786374966 55.9977744738 21.130686822
7114 1 51.5283185538 48.733521422 54.9684708535
7115 1 46.1913822181 51.9851931385 23.9673489557
7116 1 16.2623096928 19.7148512146 56.7340817984
7117 1 8.2128970282 47.5417487133 5.8104565793
7118 1 30.8935112919 45.4384580696 10.9804496147
7119 1 28.9271479752 46.3625413769 15.2200296834
7120 1 15.3365236015 30.0964909072 46.7950485342
7121 1 37.1988033211 43.5047999506 9.7058276529
7122 1 61.8900532877 5.8843632802 23.7781050556
7123 1 7.8978173843 38.1706820161 45.2951893398
7124 1 10.3237034086 14.193603181 19.9057391821
7125 1 23.0315810266 34.2932077904 24.5309117708
7126 1 59.9772395945 42.6520574247 37.5031319386
7127 1 51.2500601478 20.0942197652 58.5752611266
7128 1 7.8212038439 45.3876094138 30.8091354047
7129 1 46.3522659557 34.3771726607 27.0828566623
7130 1 15.659171827 57.0189751906 19.6948288225
7131 1 58.6269905327 23.7587872638 46.0758277672
7132 1 47.1346071672 14.2386388842 33.2651959373
7133 1 3.8814664374 40.7509870701 40.0135054117
7134 1 51.728425042 29.6493632935 56.126657614
7135 1 56.6861689773 14.3532538681 17.4668239238
7136 1 54.9452190432 18.5371117955 51.7120430848
7137 1 9.0856619462 4.484146313 29.2812096312
7138 1 15.3948292772 21.7571939315 4.4784742805
7139 1 20.7406318334 25.9187395158 60.7780765642
7140 1 47.2994249232 31.7163083046 26.1988181393
7141 1 5.6659724139 60.0560373959 16.7098483234
7142 1 7.5629737017 38.2130754682 59.4334643049
7143 1 22.225576988 43.4895923272 41.0673526096
7144 1 45.7291056977 29.7184141239 44.6874128552
7145 1 61.031732676 22.1976278423 33.1646729596
7146 1 26.287480345 14.2532593406 52.9795603268
7147 1 43.2890161055 31.3129833434 14.9183433171
7148 1 36.1140124263 24.5796466256 48.0376698986
7149 1 32.8188316405 56.4351551166 40.7411813825
7150 1 46.0060136197 36.7806230368 33.5668235869
7151 1 24.144321067 18.4695288824 3.7903968472
7152 1 6.3339804817 53.5178162474 61.3714087424
7153 1 6.7082524233 49.2256847389 36.1343284019
7154 1 39.2372707363 8.0655651033 10.3898771211
7155 1 14.1068199094 7.7544429645 60.8405511251
7156 1 20.6083431251 34.4375921374 22.9392196692
7157 1 6.2516949088 14.337987528 34.4611962478
7158 1 40.7826353674 30.9333212094 49.680386806
7159 1 55.7381292594 6.8573986941 46.3011237165
7160 1 32.4143910623 39.3534710708 17.493892319
7161 1 60.8852932448 7.0763767273 32.9179454175
7162 1 42.0397597549 10.9926039701 42.8794084583
7163 1 25.9753424074 59.2483305733 7.059231453
7164 1 31.2652466724 51.8860206448 3.6719717372
7165 1 30.6786669139 4.8364229816 61.4506175606
7166 1 54.630145271 50.8910075729 8.8375369469
7167 1 18.6843145437 13.5458406288 54.077268894
7168 1 22.3636199321 8.5485979745 50.1763079912
7169 1 32.1875097622 36.8175558364 33.2653133706
7170 1 20.5393510114 51.4852205015 22.1169511067
7171 1 7.9032428067 6.8637518402 16.2522691384
7172 1 5.5412875173 44.9286210282 43.0454005481
7173 1 58.1064083366 36.6199154493 47.6497874276
7174 1 20.180004853 36.2120693028 10.1877155487
7175 1 32.1890363963 58.7471836024 35.9508387377
7176 1 46.1185148027 43.5638102266 53.7651309564
7177 1 16.733804734 45.3173842495 32.6563625522
7178 1 33.9498325724 6.0696027018 54.3521217318
7179 1 32.8320428963 11.9355353357 3.7591419518
7180 1 29.8370218429 33.9537078741 49.4359492149
7181 1 10.2426156562 30.1458716457 38.2006275293
7182 1 47.6414496573 50.6445148976 9.1914107095
7183 1 4.4726260979 13.2842577635 25.1154364451
7184 1 14.6586981027 32.993866101 40.4542916227
7185 1 49.3779958394 31.2747587766 19.1570426354
7186 1 31.0243907996 26.6078973362 36.6637768186
7187 1 13.5120198139 45.1381809039 8.9479419439
7188 1 41.1945329656 7.7000478205 22.3394873715
7189 1 59.9124750827 26.0450978382 38.7835668529
7190 1 16.4310614672 28.595457379 32.2181598758
7191 1 6.3849172125 28.7025566262 59.9603291871
7192 1 6.849765524 60.7599918229 3.1052744489
7193 1 19.2613234814 50.0137214696 32.9851173138
7194 1 36.5314293936 44.9145877387 54.4060236556
7195 1 38.3913393467 6.2928905403 16.6069179614
7196 1 3.3391884233 27.3915890317 22.8217275674
7197 1 25.9608981011 37.2817700077 4.2255932291
7198 1 38.2629259401 33.3790476041 4.5741590027
7199 1 59.9217523201 20.9858327415 17.0996684453
7200 1 32.0436538655 59.4063959096 7.4784510228
7201 1 39.6043674981 37.190994001 58.5176013345
7202 1 20.1943904427 44.1997120069 34.5678257614
7203 1 11.3407939569 28.8595063454 12.4504220127
7204 1 38.5654343401 5.954970103 31.7140183535
7205 1 27.9629024502 26.6078386195 21.9146721009
7206 1 51.908332988 39.2998040138 38.906930624
7207 1 34.9541228817 38.4569258923 44.0301969155
7208 1 47.8024508282 22.2507077324 19.0633307941
7209 1 4.4806702848 14.2657072795 37.8724599347
7210 1 35.8204289635 56.8161090179 45.5100337178
7211 1 4.9480375425 3.9744560634 6.5641557882
7212 1 45.8747230952 36.3492902133 9.2540027038
7213 1 26.6701370303 47.9356202869 56.5847652492
7214 1 23.1375646566 34.449687776 47.2874467179
7215 1 17.1924995362 12.9618444048 50.4942588814
7216 1 7.7198705759 15.9889247723 46.644029201
7217 1 18.1693104334 20.9498981257 60.4141505038
7218 1 59.9606814873 47.4729914663 42.5935168823
7219 1 58.0657763854 34.1746000714 37.8556669606
7220 1 38.7842714533 7.7606669339 52.47248297
7221 1 19.2727145198 32.1048366591 39.1454965458
7222 1 17.9455411181 47.2310199764 9.50260918
7223 1 29.1499778234 45.7205917773 50.2876348403
7224 1 15.5658122858 50.3819925652 17.2236780999
7225 1 50.5123436227 19.664354859 21.5656013637
7226 1 19.472821008 55.5081946914 5.8878451801
7227 1 28.101767428 38.9603040975 17.514325728
7228 1 43.7202902123 36.7620098452 5.4127742923
7229 1 27.6259860683 26.3933465417 59.2123372407
7230 1 46.8224692296 14.6730249757 13.7208750893
7231 1 35.5502147444 33.3667758154 53.9479160203
7232 1 52.657146968 46.7271720376 32.934855825
7233 1 35.9294071449 39.2437295724 5.6041437367
7234 1 46.7293445552 8.1281277392 9.8186224193
7235 1 61.5789135339 7.7804720743 17.068783465
7236 1 25.9143944806 39.8344782162 35.1417814311
7237 1 5.5175248718 33.5027049586 4.1382110472
7238 1 45.2291917773 47.3919624306 3.8906027547
7239 1 5.1867443844 40.3395004888 34.2714238974
7240 1 43.219789125 57.2473831246 58.7193518901
7241 1 39.3060279832 10.9284266251 39.1140243986
7242 1 50.1872880127 7.4974047712 5.3922880383
7243 1 41.8575618579 45.0821651792 18.6722776218
7244 1 48.1834047295 32.3812748477 3.9587493481
7245 1 42.3447929726 12.1642955699 19.058398592
7246 1 19.1806467458 45.9710771877 51.3493500749
7247 1 57.4922904493 59.570743932 16.9251037183
7248 1 18.1265646812 6.1958318475 45.6547703649
7249 1 33.7165511529 4.0858416291 5.2997211725
7250 1 57.9390657628 51.1864112531 60.742787832
7251 1 55.3188333579 16.0286759732 21.9832531978
7252 1 23.4219883153 14.8278021772 17.5412766899
7253 1 44.9692529794 32.5176737244 29.0374179238
7254 1 32.1347821723 45.0406524776 59.6245871391
7255 1 40.2696276246 57.2330562517 20.4146954731
7256 1 52.7996523809 25.5677311278 30.6006324295
7257 1 30.3204950893 41.2621745955 28.8993162629
7258 1 60.3294810331 23.0461427663 52.1093202266
7259 1 40.2446730303 16.9389608578 12.488176846
7260 1 26.886390609 55.4325675914 19.2763549547
7261 1 16.1751154044 27.9380065725 14.3394554453
7262 1 21.4806970263 53.8863809265 31.1561510577
7263 1 9.9514982945 15.92310336 24.9576646922
7264 1 55.8888550092 48.818308326 21.1845300291
7265 1 12.9051827964 9.8053524468 14.0894397684
7266 1 3.6950550305 52.8117480195 48.3573235728
7267 1 46.15033925 18.0080743957 29.7693802131
7268 1 20.4463437704 28.4998078868 27.7468250216
7269 1 31.3846177084 46.4948888019 36.250235153
7270 1 61.6099746642 35.4350713104 49.2353729932
7271 1 16.9172356815 27.5308063097 11.5138320498
7272 1 14.9994310695 57.6718460951 30.8370845503
7273 1 5.6024174659 46.224439716 59.3643547577
7274 1 44.3775061519 44.1641296912 9.9393439392
7275 1 44.3479129389 40.4030319501 8.1141179363
7276 1 16.6065069446 50.6812128304 60.5513714143
7277 1 10.1165509173 19.6029371986 16.4690511673
7278 1 42.8688394536 17.8545889613 56.4189493095
7279 1 59.2162125424 7.3954197479 43.9658434205
7280 1 57.4183074166 46.734922641 59.4996967341
7281 1 3.8962395572 27.1382265033 27.843766281
7282 1 24.1824869172 6.4538623529 38.2532376859
7283 1 7.7491408471 55.9718216957 54.8106991006
7284 1 39.7294927699 47.383683377 50.0119012521
7285 1 23.6365978266 33.0986166805 27.0595461353
7286 1 13.0516222277 48.9281672577 61.4527900783
7287 1 28.253784945 21.6128683012 39.4886368971
7288 1 33.3752310191 44.6831852533 45.4510234418
7289 1 53.9181466572 55.3830694196 53.2251135351
7290 1 27.5719667112 40.6332013849 6.0972289057
7291 1 29.9816410566 12.1601854014 7.6552528558
7292 1 50.5121674726 37.7973612849 58.5796061618
7293 1 61.6123820486 18.2489302685 3.3146730299
7294 1 58.7912798385 14.5332205307 51.2354984081
7295 1 6.4568275459 40.4737855646 50.807160136
7296 1 28.0119308884 35.4391227621 15.5201894157
7297 1 37.9687553105 45.6941692656 28.5312213173
7298 1 52.6665416389 52.367438807 45.8410784304
7299 1 36.9936471973 17.694996991 61.5342888475
7300 1 8.3328141294 10.5667905157 21.8788549185
7301 1 15.7863521831 60.9140057075 39.3786605319
7302 1 44.9962039413 19.5139226927 25.5063134674
7303 1 10.6481131349 59.7404351735 15.7231730219
7304 1 6.3141166246 20.4435253691 34.5604274582
7305 1 17.5617688156 25.8365948629 31.8372646912
7306 1 38.9834971911 30.6574701878 22.7630695915
7307 1 46.1223313877 24.6606756613 42.2796174439
7308 1 10.9240228732 42.5524151975 29.9737143031
7309 1 43.9600891846 27.0020037766 48.0483563366
7310 1 21.0188902394 17.5358747542 60.720827789
7311 1 61.1323143703 54.8655992081 6.9647210647
7312 1 31.0561565302 21.1108992966 61.202656968
7313 1 55.1821408977 53.7908488678 16.3758090595
7314 1 5.4307416002 41.9971901528 54.0295909397
7315 1 11.9741122027 12.1762150585 52.9438018611
7316 1 22.1274613947 13.4341614796 61.344751364
7317 1 14.6100219646 51.4306726941 22.5200412011
7318 1 30.5604702118 14.0875021176 33.9226467437
7319 1 51.1265789434 43.8377235973 43.7265728984
7320 1 47.4432221032 37.7569642004 17.9488879696
7321 1 8.2184281407 44.180981382 40.0748056388
7322 1 21.9309953415 56.0575480669 40.0202578314
7323 1 32.3448117816 7.5202279496 52.3785949786
7324 1 50.715855679 25.6808781943 18.1556881607
7325 1 27.1979413796 12.2263591139 8.0684304779
7326 1 44.1540304201 12.1314729388 36.6833294772
7327 1 59.8521143227 51.2221697189 47.9488315427
7328 1 26.8026606054 18.0850519796 31.2079391805
7329 1 43.5475457028 38.2498908344 32.774441821
7330 1 7.2495146386 44.2428100592 18.0849345462
7331 1 4.5670542829 15.6493074227 41.5712005483
7332 1 35.9130251877 50.2130059241 41.7484075264
7333 1 39.2503645587 18.4769271857 55.6270372771
7334 1 21.7890770956 9.3438979601 53.8703512695
7335 1 38.7810420352 39.6649631248 4.8528284255
7336 1 45.7707945494 39.8872645228 59.450433429
7337 1 32.3055303143 32.0804692317 30.5261209466
7338 1 20.527196656 21.9816091304 54.4911041431
7339 1 39.6863947176 41.8020745834 36.0923459667
7340 1 49.8501954808 51.8981750002 40.9170378767
7341 1 45.8152430857 5.7411532671 45.1650144324
7342 1 36.3882193805 41.8871550709 46.8124873919
7343 1 14.5579402583 18.0738370913 46.0112981221
7344 1 16.780778088 44.8626234658 52.2057330357
7345 1 56.5647428571 25.9456904777 59.3629455571
7346 1 49.6654140494 59.1078802447 22.4105932862
7347 1 3.8769041504 49.3314335022 20.5638358722
7348 1 57.9334876771 38.3045560751 50.5984810106
7349 1 28.0710585978 48.1432425118 19.2355468534
7350 1 60.6914694427 28.1012389778 34.6687010392
7351 1 31.9148294421 26.3665130132 14.5315177466
7352 1 60.3911335603 32.5267748118 37.7331252233
7353 1 36.8935352365 28.18197443 6.8817250198
7354 1 45.9282727188 23.0035731642 58.9741823358
7355 1 59.0635491418 12.9986010543 32.8211803082
7356 1 20.8843115801 59.8414278847 25.2843056528
7357 1 45.9158834967 42.3747384858 3.4942081248
7358 1 19.7368112576 13.8319083549 23.4467667596
7359 1 24.0975238631 15.893510147 51.9224837109
7360 1 36.8031702467 48.1468829467 43.7242829473
7361 1 28.7909839652 38.2321583932 49.7676398111
7362 1 33.8897653959 20.1080181879 14.9467034796
7363 1 58.6831824075 23.3703763426 43.1098127598
7364 1 20.5738764266 6.1279847092 15.8996753997
7365 1 24.5779438415 46.2647780838 3.6312340959
7366 1 27.4380926522 60.2063521289 30.8283357632
7367 1 8.2091215449 44.863915233 24.9732246157
7368 1 42.9179853253 40.748520969 4.9841424367
7369 1 43.3808490126 14.3093924987 24.221474801
7370 1 36.9525455125 59.5622887283 38.4836419874
7371 1 23.3221112213 3.3362267534 49.9056240386
7372 1 26.6262169443 16.7247036467 15.4631167906
7373 1 57.573495635 35.6145682395 52.0401519628
7374 1 54.3968638515 26.0128036573 34.5146871547
7375 1 10.7158134814 14.2940087253 31.454960306
7376 1 8.6621795446 50.1570489161 38.3060239925
7377 1 57.3152596212 26.0299489315 44.9286797449
7378 1 51.3748331195 19.9889994521 61.3958348865
7379 1 43.4705681189 20.9308152006 23.4487044104
7380 1 21.7123930951 60.8680892539 16.7154851259
7381 1 10.0759776827 32.114994647 52.9127994474
7382 1 4.826670139 20.7358170646 9.270384661
7383 1 24.9002397669 54.4144788593 57.6108394515
7384 1 60.4560742223 15.1466925344 20.4423510353
7385 1 35.9736795311 38.1871814067 37.020069709
7386 1 43.6236425363 57.006879552 11.0459187269
7387 1 34.5635981596 5.7751972054 18.1568037779
7388 1 10.6766494475 4.9104236292 14.9091835131
7389 1 32.5293583463 61.2268482453 55.7612636363
7390 1 21.8727483824 39.231399067 8.5786961511
7391 1 36.3518150311 29.230067392 34.1258064999
7392 1 57.2625320313 28.6445445339 16.9672623036
7393 1 60.568046955 38.6004294889 30.6756723625
7394 1 49.0273397515 23.0753249625 57.4487813801
7395 1 57.2019364046 28.5947527787 57.5332747006
7396 1 13.0835053917 4.4890550285 44.1732894953
7397 1 26.9756986984 40.6832280069 54.3348590242
7398 1 4.8406447118 33.7819615484 18.4199719939
7399 1 19.9190678713 33.4208538892 52.8890191869
7400 1 18.5899568188 27.9535077793 44.8625647491
7401 1 23.4599780154 14.1738156556 39.1147289989
7402 1 33.05974623 36.0002781928 55.1206645206
7403 1 45.1371827201 12.9815732135 18.90274064
7404 1 42.9163999746 20.2696065258 15.0310793668
7405 1 61.2971321263 49.2295600406 23.1011603072
7406 1 9.7888530562 41.8114105375 7.8482663675
7407 1 8.4947841258 51.2334433239 30.2297190826
7408 1 32.1209837496 29.7861731871 28.6566401726
7409 1 50.7386964724 51.7779232138 48.8422060199
7410 1 13.7062546329 43.5771976325 35.3473485717
7411 1 10.0870751376 55.0281270131 28.2613593984
7412 1 41.6301521076 7.0527256435 51.8392821576
7413 1 23.0631118905 13.3863073752 15.0206865122
7414 1 52.1197717979 3.589364984 44.9213401583
7415 1 49.1915116238 3.1924171841 44.9643207773
7416 1 54.2116714032 33.5637703189 13.8109464957
7417 1 15.51478748 60.7966897557 5.3752132241
7418 1 13.727040342 60.1208019078 30.3480919348
7419 1 31.6277635322 39.2631647977 30.482318294
7420 1 41.2520166076 26.2743278059 51.3351406353
7421 1 53.4099536832 17.9463631518 34.1436563745
7422 1 10.093122957 54.4151834596 4.4135453619
7423 1 21.6069379153 7.599131441 38.167452598
7424 1 23.1474877776 9.972988604 20.071144105
7425 1 12.3572973383 17.4672349406 24.3295135153
7426 1 7.1671468623 59.0152253039 36.2646794594
7427 1 26.604315618 12.8515157395 23.3272782902
7428 1 37.4583898188 22.6605502464 38.8129839159
7429 1 11.3826589587 40.2011639611 38.107502855
7430 1 16.2479241032 9.3790692589 48.3033042157
7431 1 35.5362988883 59.9381342773 7.8678072828
7432 1 21.8176721248 45.0725943583 43.4040421062
7433 1 28.8633816471 50.3314962096 59.0293173101
7434 1 43.6718489409 51.4454693006 47.0825254609
7435 1 24.6747089508 18.8770814454 40.7546275051
7436 1 40.2986923874 45.7705009659 24.9209667594
7437 1 49.5061743792 8.7852497322 20.1331489323
7438 1 6.5081107051 55.9847393681 21.7287163356
7439 1 27.7631482621 5.0458771673 33.3610802962
7440 1 57.3924133552 59.6609327718 27.1672325494
7441 1 37.107733731 60.7616358903 30.3761585139
7442 1 34.2443555022 41.8370697322 44.8005599217
7443 1 15.2941301494 30.8920433746 25.3388534602
7444 1 28.0401736175 50.3895083019 38.2134277683
7445 1 10.5445368893 48.4095814292 46.4411043115
7446 1 61.2272005455 4.1023234047 12.9880907663
7447 1 11.0467407606 59.9333195085 54.201983149
7448 1 46.8356217687 27.517771204 26.1011135629
7449 1 61.7726199026 35.0448401717 59.2197942607
7450 1 15.1279031928 51.4693082778 11.5285699397
7451 1 35.5739362882 28.0112262881 24.6256805125
7452 1 10.3773117489 5.9802593825 48.6847278504
7453 1 22.7111053186 10.0082773362 37.4892160824
7454 1 48.6434500156 22.7979473069 47.4604260941
7455 1 29.3498494448 41.4288712856 55.6271547105
7456 1 9.2830087499 34.0007986615 8.9953732881
7457 1 40.76572496 25.7649017813 41.0729306954
7458 1 15.6381512511 57.1965931856 59.605328064
7459 1 21.4400650751 9.5409511803 6.3821281696
7460 1 27.7532838578 9.2718525783 22.4218081745
7461 1 18.7181353586 29.0673047203 22.5940242337
7462 1 48.5216128785 27.9254412003 11.0214925828
7463 1 43.8378997474 15.0484007911 37.4179927344
7464 1 14.9046623278 51.5223294512 39.7291991864
7465 1 56.8200430363 55.1346978101 61.3257858723
7466 1 27.1455073732 17.7134927492 39.651164702
7467 1 58.0801032583 26.3531256073 56.1135637915
7468 1 26.0626541292 42.4793129153 32.4411658741
7469 1 21.0403805489 54.3069685952 17.2111127277
7470 1 56.5118391171 22.2502379988 15.9132389557
7471 1 30.7719090216 10.1505478823 17.8877051759
7472 1 33.1473515353 23.8575487406 30.1513322981
7473 1 42.628512031 13.5291063715 12.3999843738
7474 1 11.6022593888 31.5933555504 17.6499612878
7475 1 15.1087615511 47.3014800074 12.5160672749
7476 1 31.3358241368 33.2910899987 34.2377205159
7477 1 34.764233098 31.3236110648 20.2228093219
7478 1 20.7763902992 47.5958855038 9.8483330657
7479 1 60.8700856214 38.758729692 10.3437258008
7480 1 25.4740780031 34.4060612735 60.6200699446
7481 1 26.6970879922 40.8648974537 19.3151079718
7482 1 20.1221689108 47.9073775578 21.6855595666
7483 1 20.7111560538 7.1553448071 40.846695279
7484 1 9.9564892134 48.1434186619 8.849215697
7485 1 18.8440826642 18.349100946 46.1980172044
7486 1 13.1366439985 39.3836514508 29.2150359187
7487 1 36.3158216986 59.433053288 54.1144365604
7488 1 22.021419048 45.3641814535 28.0512123557
7489 1 45.096726919 34.2435334685 56.0644179199
7490 1 60.8793041422 13.2812632122 18.3399998586
7491 1 8.9245492136 3.3281432263 38.6476377097
7492 1 32.5341143984 38.3806529087 10.0067507022
7493 1 41.3972229883 22.0816623745 47.3590223661
7494 1 23.6294343901 8.3926288241 27.1251326809
7495 1 16.6420305436 51.4930885383 5.5530191125
7496 1 4.2850380086 19.1868707152 31.1173980406
7497 1 10.7070646942 28.9652551086 56.3299348036
7498 1 51.3678458331 50.5044168692 61.7391513878
7499 1 53.0955845113 7.5165522846 45.3301844885
7500 1 56.4142519741 48.4731128905 53.7656594067
7501 1 32.8341566973 41.9978947531 6.1967595712
7502 1 57.6426051822 18.4036487534 55.0990567777
7503 1 21.6533828191 39.7989546172 59.3430405983
7504 1 41.2711582494 58.6959239298 9.9969450146
7505 1 43.9089469454 31.4737496476 34.41340086
7506 1 44.7606912875 7.004660159 33.7753852788
7507 1 14.319080753 6.7404585292 57.4807819775
7508 1 43.5237654423 30.2880247583 31.8450152946
7509 1 49.9387989699 12.1742774076 14.029372592
7510 1 11.2707449427 54.7136404078 6.9967451488
7511 1 43.9825189612 16.2643060604 27.3323438889
7512 1 55.4638048718 55.7943211342 50.8696346968
7513 1 44.2963009661 35.5169223798 14.579959018
7514 1 32.8460174692 31.8998566855 36.3360202408
7515 1 28.5351553357 43.8463549512 20.6018842889
7516 1 53.7948416028 30.3615967741 57.6518237029
7517 1 46.0054264528 59.8943903414 16.043237713
7518 1 15.5267069686 41.5589874763 48.5254294636
7519 1 38.9520837606 60.7939300712 53.9088694198
7520 1 34.6528475322 34.3037180783 14.5103210206
7521 1 49.510401981 28.5881765091 5.6422391268
7522 1 23.1418509752 47.230902543 24.2261721364
7523 1 18.7518387402 35.1966815386 4.8503447094
7524 1 54.2163687386 58.1349446492 22.8981179844
7525 1 9.2771957973 18.203189965 58.8879275144
7526 1 30.9619162387 58.687292576 3.6118640462
7527 1 31.109295137 25.721803729 54.3663898881
7528 1 12.9238547047 47.0155297147 37.4275048386
7529 1 4.4202331932 6.5486721963 56.2917689534
7530 1 39.5751265852 19.849429874 44.5845999266
7531 1 28.0526802731 45.2377644145 56.8715962923
7532 1 16.0277365061 8.710867426 24.2692701888
7533 1 48.202781238 40.9239077297 7.1525616358
7534 1 54.5886912861 18.668989487 61.3819190304
7535 1 49.3081229752 24.4711968944 25.5155319881
7536 1 47.8567050521 7.8100418006 25.2140217719
7537 1 46.9932760882 54.2107319362 47.2054782151
7538 1 60.0217468475 15.6380338177 32.1091816944
7539 1 52.3284509232 52.1055623583 9.9622434493
7540 1 30.0220381411 55.0850234882 59.1013039751
7541 1 56.9981894815 28.3888920546 25.6100658631
7542 1 21.9585334703 50.8021105004 11.8614935864
7543 1 5.7316118045 7.5913162492 17.8247021648
7544 1 27.1447440562 24.756794887 33.9727907992
7545 1 31.5366352254 28.1946572356 16.7217090953
7546 1 56.4712658825 27.1346447851 49.2814068801
7547 1 17.7359812424 29.4688681806 26.9968367077
7548 1 55.0968842601 38.2192407209 50.6120445666
7549 1 15.0316078171 13.7386075305 26.9995376755
7550 1 34.0586933203 41.733023753 16.9151218806
7551 1 28.4437334454 10.2112022257 56.7145291398
7552 1 60.3755149201 31.2463986141 53.6019572678
7553 1 24.5128857461 44.8807669238 11.2512510008
7554 1 4.0228151313 36.8093942161 39.8580823266
7555 1 13.4589399239 60.7524760863 37.5302590505
7556 1 8.7718623263 26.2409180078 19.2531618611
7557 1 37.5616137643 15.5802565922 41.2896540076
7558 1 52.1072064256 44.0336612004 60.7676837096
7559 1 19.3680117118 36.7011206351 48.3966050401
7560 1 11.3264083672 58.4722133312 30.9318532921
7561 1 43.529930695 28.4433811453 41.7804081239
7562 1 23.8807418342 53.978155117 29.6459577253
7563 1 53.6882120892 59.261365679 61.8101398691
7564 1 57.2356985028 30.6868872508 27.0293070387
7565 1 13.5292238048 42.9557988753 41.4945752646
7566 1 28.2217256309 58.8529323657 28.4618769034
7567 1 44.1734656453 42.2537820992 25.9454556109
7568 1 26.1021704633 46.4546678675 15.4237178899
7569 1 20.9086790075 29.8545194173 9.1430281549
7570 1 34.225859744 8.4906387273 26.9974238746
7571 1 4.3648105071 39.529327565 15.6608746111
7572 1 27.8745925446 19.0362623989 43.4022806054
7573 1 12.8885072558 6.4045638178 12.093424522
7574 1 9.7418797021 61.6895944993 11.7390692825
7575 1 39.446830612 29.9454128573 10.3622802756
7576 1 20.9593515132 42.9166935581 47.1860429899
7577 1 41.7887458942 60.5205451507 44.2160352474
7578 1 24.7146363017 10.0029341172 29.2986484889
7579 1 47.1643765303 40.7804628498 53.0567727775
7580 1 3.3950127316 54.591568404 23.5698956638
7581 1 25.1948214134 11.542838096 52.4394254721
7582 1 10.8792807535 26.4104918159 52.1963970816
7583 1 26.3885317729 33.9723210656 35.2831712267
7584 1 41.6971478538 3.7641504857 48.6024070475
7585 1 24.8836229429 16.9879305793 45.2076427512
7586 1 24.4445982327 47.2488698509 45.5592383061
7587 1 37.8884308751 36.4869221406 40.8499834138
7588 1 17.9922208887 56.4972773773 10.2531846609
7589 1 24.8609582996 15.0231526133 11.8158119996
7590 1 56.4104353891 13.0209721142 33.2189859002
7591 1 36.4724778343 52.8738702802 35.1091936667
7592 1 16.0112958322 55.0897795403 34.1036115901
7593 1 32.8231766758 44.6953396087 53.6410038684
7594 1 29.7309794961 37.6680671279 15.482904316
7595 1 37.3307397292 14.7683808844 44.079753804
7596 1 37.6017172654 48.4813919442 51.3181127945
7597 1 19.8107942903 50.0517111696 55.962603175
7598 1 15.0051853054 5.5166676081 8.5463315102
7599 1 31.2190953521 53.2686813209 54.8523879523
7600 1 28.8649669978 55.2499586776 21.3932091544
7601 1 58.7746042978 19.0922781236 29.8906888999
7602 1 24.4923349038 29.4349299323 35.4337795431
7603 1 46.9764243975 46.9148893037 28.5262303985
7604 1 45.7308671985 60.1945500737 11.4345645149
7605 1 21.8826127868 17.4135678836 34.6388729594
7606 1 3.7376105406 11.9921382273 28.6106650023
7607 1 26.7907411168 21.3374870132 25.4400223215
7608 1 26.6105983041 58.7283355441 37.1672137405
7609 1 54.9909593467 53.428332008 33.0649720157
7610 1 57.8478200226 57.1532015498 59.1566738162
7611 1 47.4180326421 58.500514777 32.6004642609
7612 1 51.0792532892 41.5040286521 37.4853407807
7613 1 43.648538414 30.9387231451 43.3381619772
7614 1 10.1254171379 35.2972045163 42.1167960555
7615 1 19.3472847193 10.6235695574 56.801194978
7616 1 20.5224406039 29.4295867133 49.6325914182
7617 1 33.0514084597 35.7107461819 29.6447246748
7618 1 24.2513615975 9.504135814 61.037839212
7619 1 44.7075526807 48.1404828272 20.2840508322
7620 1 12.4241756511 16.6288780044 14.9132349649
7621 1 29.3637065843 19.1376661269 40.9294270988
7622 1 6.5634218295 4.746463137 3.9937327535
7623 1 8.5469010621 19.0107793543 8.8406724183
7624 1 28.7469464457 25.9120458129 6.7037253663
7625 1 59.2368221015 5.1954285832 22.8514969305
7626 1 31.2811001794 23.0336361108 58.9506956587
7627 1 33.2355440075 24.0594167296 18.3122268631
7628 1 20.2626779561 22.2481829146 6.9066913575
7629 1 5.0905723136 33.7910626357 37.485105914
7630 1 59.6073244315 29.9800557059 38.2299271589
7631 1 32.4344721711 25.3813056289 11.0028206746
7632 1 11.6583925469 25.2389763662 30.865033696
7633 1 42.5037390594 48.7816103931 53.7048876299
7634 1 61.567992229 50.9193090187 61.1663113353
7635 1 28.3200760909 7.9292954032 5.5468010147
7636 1 54.6351361899 55.5310942015 4.5254828646
7637 1 34.2388361331 14.808366952 58.4902393558
7638 1 38.5789391794 15.6275235297 58.2583671369
7639 1 17.6089770364 50.4289659193 57.6908115868
7640 1 37.8041724213 19.3817514178 15.6066791039
7641 1 26.2959355487 48.208711624 21.4930862484
7642 1 4.9965199155 40.3536512117 31.4275396106
7643 1 61.4906036283 43.1088732928 26.5810050911
7644 1 47.4382311844 53.1394458806 37.4535163334
7645 1 21.0632213423 30.6543582031 6.4408566055
7646 1 54.822090139 30.2547323937 22.9088631391
7647 1 57.8378969016 46.3993567431 4.5646997435
7648 1 27.2851356681 60.8139524633 35.2990247337
7649 1 36.3879845137 51.1635704597 51.144604968
7650 1 33.2142885648 36.5308422267 61.6931762176
7651 1 25.3567620514 44.1067047659 56.7866332382
7652 1 28.302108783 28.8224561124 50.3530452358
7653 1 30.0673674277 32.4237857331 23.1730882556
7654 1 5.2632933364 50.8560711408 28.4626402204
7655 1 28.1378194773 44.6082627536 36.6489214954
7656 1 34.9866519294 3.2167447429 54.4070218393
7657 1 60.4634138088 52.5003733989 18.4894338412
7658 1 56.103347087 8.2266132476 21.5973670944
7659 1 28.4929380338 38.4823502202 9.4669094309
7660 1 5.8039977431 3.1391757233 23.0722129778
7661 1 7.1676929275 49.2355491432 43.7989118636
7662 1 20.7163231227 39.9614824221 39.3874093191
7663 1 14.2438059531 60.4466208348 33.1275640099
7664 1 37.7945428837 38.3892255458 46.3610147429
7665 1 34.6559595169 13.1687620293 29.723170176
7666 1 18.9092581929 45.8153018023 20.4680102299
7667 1 51.185295636 26.8987211144 56.5059674478
7668 1 33.8510710955 10.1987542869 9.5462356826
7669 1 9.039099609 3.2099189274 56.741597535
7670 1 17.1345461606 37.791430899 8.4835281358
7671 1 10.6311440108 7.6087492353 56.1646473141
7672 1 37.2058493242 42.1707566959 54.880513248
7673 1 30.5271778471 25.3296936562 8.817385378
7674 1 37.3728983145 14.1841497935 30.2613086632
7675 1 33.6604179948 54.2195981567 33.0741318197
7676 1 20.8368097758 57.8713654163 55.143505314
7677 1 56.9984830649 10.7227420512 50.333903594
7678 1 23.0455555994 3.8568876299 12.8402421345
7679 1 31.2373562434 42.918044042 13.8511087134
7680 1 26.0446868213 56.3754402403 26.6839354531
7681 1 21.7657078519 41.0160342203 26.354123791
7682 1 19.0709052475 36.4481691236 32.4896658621
7683 1 12.904889213 35.8993441983 42.6076088885
7684 1 41.9332476746 11.2695118922 56.7917415905
7685 1 39.7719449386 5.6877034618 56.0345311234
7686 1 6.0464037366 31.9518209584 47.8772558945
7687 1 14.5409124174 10.5784751376 31.2005995939
7688 1 13.9429416205 41.1118011458 34.0312726249
7689 1 58.7640940098 19.0092527203 45.1243237644
7690 1 5.8174497374 9.0614706689 25.8243817909
7691 1 49.3617900322 40.6522255933 14.2840268875
7692 1 28.9240947072 4.6359407066 51.919606593
7693 1 56.5608675554 10.0301786626 59.5589418768
7694 1 36.0618132866 39.4800055433 11.0466820439
7695 1 54.4098989573 21.4134664133 31.6995740472
7696 1 52.6857419973 18.1775307704 57.475732342
7697 1 39.5191108605 10.3174794392 26.0110421565
7698 1 48.1659658718 31.0435324413 21.7909560297
7699 1 19.6915406877 30.2779842039 43.9276188536
7700 1 56.2516654524 12.9320750416 15.1340097289
7701 1 20.0461895107 3.838368385 22.0442598414
7702 1 13.3253007316 42.5147190809 9.5584487546
7703 1 12.5746665341 8.4296496988 20.2265671902
7704 1 7.9146632034 55.8405311712 61.9382009756
7705 1 41.6488240159 55.8999524641 54.884917
7706 1 15.1707663784 8.1124151523 33.8177200141
7707 1 54.8337747608 34.8392730311 24.2180692329
7708 1 45.6651632195 20.9767903709 29.6936943964
7709 1 59.4107409449 33.1992570915 30.4767989249
7710 1 5.2958752291 43.9762362751 9.3811243431
7711 1 36.2423671162 23.5851620039 50.8573041914
7712 1 61.1102956106 37.7131615478 37.8451566727
7713 1 21.0155433879 29.0424675593 14.0155154525
7714 1 43.1607201323 31.9175891266 53.1644591917
7715 1 40.7229204911 49.2369583439 8.3940967414
7716 1 61.1169305969 20.8510192154 56.126657614
7717 1 24.6358385003 6.488158773 58.565631589
7718 1 14.1116346782 15.3555478098 45.607973161
7719 1 17.1549795696 6.6433411197 27.0349438411
7720 1 19.3183373899 5.5753020973 60.0382462381
7721 1 61.790880794 30.7119592785 20.7568376406
7722 1 58.6846503248 21.1315675724 14.6462501639
7723 1 58.1298950136 25.4844708577 19.9811314153
7724 1 40.7100615354 31.8368536744 8.592794029
7725 1 49.5976549862 39.9530272184 5.0039123471
7726 1 36.6683567206 31.7860050186 32.8992735093
7727 1 11.7559209732 20.5832123807 36.5362441624
7728 1 35.7462110642 21.1171232661 56.8294964238
7729 1 12.0730498297 32.5986440435 23.0035144475
7730 1 61.0905668019 61.6499607318 7.0369484682
7731 1 25.7411802375 18.7710978153 19.9847718503
7732 1 44.7746071436 31.3850287252 55.4208829696
7733 1 22.2618051873 56.6792991242 33.4936038713
7734 1 42.7249835569 19.1947974687 59.0134638031
7735 1 4.800963971 11.5635063717 49.2166423682
7736 1 11.3260560671 44.7924570182 17.3056466027
7737 1 52.2748425829 12.1131533307 25.4329176017
7738 1 56.2441497158 53.0913569094 50.2921560256
7739 1 13.0546754957 33.4904918866 49.790950338
7740 1 35.6426935352 5.1684541346 40.653047627
7741 1 54.5047264157 27.8165217356 42.8683110034
7742 1 19.0438955689 54.6491694794 48.1298551059
7743 1 36.7607767947 49.8834878455 39.0501993538
7744 1 13.9824579546 54.1741514367 38.6076516421
7745 1 44.6008644504 18.4276051639 32.9902256661
7746 1 57.0729358311 42.0261961989 20.9296995834
7747 1 43.2449198694 44.1889081355 13.8316734882
7748 1 48.852305291 16.6622878025 33.3027159038
7749 1 42.757806188 14.8904528882 31.983586689
7750 1 30.4204309 8.2268833444 10.893314043
7751 1 49.5256096044 58.9986084799 10.2807815063
7752 1 45.2505059367 50.8785009174 40.5892812989
7753 1 7.0533715271 24.5141775134 36.1682666502
7754 1 46.0630862449 13.7635621248 24.9004746337
7755 1 47.1766483191 17.5430381907 35.6062304691
7756 1 11.3346287042 48.5392278863 34.346757414
7757 1 58.002244924 50.9678677235 23.8082267189
7758 1 31.1678356795 30.7605179833 32.9696748237
7759 1 43.338572994 37.0414425851 45.4509060084
7760 1 7.1421805246 24.9132748726 4.8710306002
7761 1 19.7722761399 35.348816489 44.0997761962
7762 1 53.6207466094 25.302038094 46.4735159258
7763 1 9.6199251317 8.0217037339 35.1498843346
7764 1 19.6631218085 24.9029407347 41.4823621925
7765 1 12.1630625193 4.2804346199 23.8436916012
7766 1 35.0837106221 24.8407597573 56.4326890155
7767 1 8.1755708268 48.9736139778 10.8458122387
7768 1 23.7103459924 40.8373593249 42.925677212
7769 1 48.1378405761 53.7896158172 15.6853007552
7770 1 37.7955997841 15.4465586833 34.6224322855
7771 1 26.8842180914 26.2614101335 3.3045843278
7772 1 37.5233304808 9.2535916869 16.4943580618
7773 1 51.8622403843 5.5231029576 46.9929825048
7774 1 23.7927842287 58.3110360101 48.1652612715
7775 1 52.3252215051 21.8337017819 27.9177493136
7776 1 42.5502426799 29.6791326566 8.3601350064
7777 1 26.9685939786 26.2824894261 53.4799439807
7778 1 8.0993037148 59.1689456049 22.7585484062
7779 1 36.6682980039 8.0291548822 38.0337546891
7780 1 32.9194133349 18.8470772155 36.9696907868
7781 1 37.572182769 58.5735583425 9.3918107812
7782 1 15.8631536169 48.6857260342 38.8139820997
7783 1 52.9255409697 16.5652878264 51.7991786565
7784 1 39.1758530759 60.805614693 60.7430814154
7785 1 61.454375429 29.6394988892 5.9018314962
7786 1 52.7245537311 61.0444154816 42.2789128436
7787 1 33.0125967259 47.6803788244 52.9294162714
7788 1 5.3566293909 16.4843175074 51.9082742713
7789 1 36.7376424178 54.1639934489 12.833842015
7790 1 24.0948228952 17.6020484667 47.9167135119
7791 1 18.7608811108 54.6869830294 8.3318922773
7792 1 17.1537465191 14.3488501161 56.57143656
7793 1 59.6119630502 20.7007044825 43.0161596352
7794 1 42.6422517371 60.0013134385 49.9332796008
7795 1 31.3405214723 44.4957615707 38.2932824702
7796 1 37.3392536497 25.5014986986 9.7702985813
7797 1 29.7649764611 49.8342245404 23.7473375087
7798 1 35.276242657 6.0858143807 57.4429097108
7799 1 54.1622319481 24.8670061189 55.6719555469
7800 1 4.5389172438 40.1745652994 9.4033779696
7801 1 32.9305107897 14.5578228249 52.0082687987
7802 1 35.0352106341 52.7037680219 5.8909336781
7803 1 49.0825334425 14.4819021414 6.113822243
7804 1 18.1307335664 49.2496998661 37.1248202885
7805 1 42.7094236334 6.9962284419 57.5921088266
7806 1 32.7292299677 16.0542177345 36.5147538529
7807 1 33.0164133109 59.1631913691 41.6910413178
7808 1 4.5621396957 6.3949812536 39.7439370763
7809 1 28.2913636283 9.5913301025 38.9559003456
7810 1 13.013926111 4.8244800064 38.0518394304
7811 1 26.3611697942 37.0738541994 60.0681330346
7812 1 54.2504244203 33.7173144699 21.5354209838
7813 1 29.8458293468 31.9412519537 20.4621385607
7814 1 12.0271333761 47.7641675447 6.7781722608
7815 1 31.0687219024 13.8453544775 16.3052903118
7816 1 20.3061283086 51.8409262249 4.7402509109
7817 1 52.4241004153 35.4296693746 36.0849476635
7818 1 6.8432655862 26.7684874904 17.1026629966
7819 1 47.0379007746 60.5208974508 34.4137531602
7820 1 31.7774323815 19.5604850299 18.3380622078
7821 1 5.5941853856 50.7666456181 61.1257968175
7822 1 26.5693204692 43.2967079922 24.0537799271
7823 1 4.6746291353 18.7837806209 46.0534567073
7824 1 4.7951157884 42.7205210883 18.2503394691
7825 1 40.4423721341 40.5287443888 48.8182496093
7826 1 45.1854478414 49.1469456542 52.9139737813
7827 1 6.4614368062 15.1365345466 26.1068677987
7828 1 12.6431889143 32.9347971083 34.5200890904
7829 1 33.1757116978 61.1240940334 39.5690787658
7830 1 30.0774079822 30.232889784 18.0827620286
7831 1 30.762279484 29.8109516314 45.1350102025
7832 1 12.8723014486 12.0268985093 4.1080776406
7833 1 44.0256757302 46.7899988986 23.5568018414
7834 1 38.0765004413 53.9105134872 22.9048116873
7835 1 47.2533910362 59.0683051939 13.6975058457
7836 1 42.8868067615 31.3885517268 57.6948043218
7837 1 20.5590211034 55.7555681171 20.3822838588
7838 1 4.0217875892 44.7524122339 12.9356567599
7839 1 48.4550281492 40.4742552982 38.2327455602
7840 1 20.7173800232 3.6460001697 34.5165073721
7841 1 6.4939482389 23.8158598889 16.7931085935
7842 1 25.8727056289 7.1750501291 25.9409931423
7843 1 48.9001593954 10.277786955 56.0523222812
7844 1 5.7305960057 54.2449050512 19.5684117834
7845 1 33.5778036084 21.5519790911 36.548163651
7846 1 40.4959804744 26.6744820656 29.7301574624
7847 1 60.4280663599 6.2723279545 39.3974498735
7848 1 31.2227945037 6.3046103921 39.7715926384
7849 1 5.5196386728 18.9163629127 55.8509827425
7850 1 38.8919578674 30.4810852434 52.0523650348
7851 1 32.6203692197 16.5818459337 40.4029732334
7852 1 10.8122850073 44.6320430141 57.2349939025
7853 1 30.1711198235 23.245192354 27.6311531373
7854 1 41.8372458823 26.1160863195 16.0796420623
7855 1 13.846411378 48.9871188171 23.8522642383
7856 1 17.7434382624 46.2177460131 42.1543747387
7857 1 6.3227538501 49.5805097119 5.3326201353
7858 1 51.2781854436 9.5409511803 25.4753110537
7859 1 21.0045633664 28.9571522051 41.763204133
7860 1 27.8651978738 8.8394980844 60.060617298
7861 1 28.8737745016 29.5767307448 31.836149074
7862 1 24.4137132524 31.6502520254 60.6549476599
7863 1 4.3084424822 34.3411206115 30.4753897243
7864 1 49.7731591802 37.3405454169 23.6523926169
7865 1 25.3795441281 53.5223961494 51.5490455463
7866 1 38.0974035838 40.2023970117 30.287320158
7867 1 42.2207246013 60.292841817 20.3311416196
7868 1 41.8822815854 53.5783531574 20.8051027619
7869 1 50.4469332272 7.8669382757 31.3910178278
7870 1 45.7412013364 36.7034105861 57.4798425104
7871 1 36.664657569 48.3995995914 48.4751092581
7872 1 32.1345473056 14.0993041728 45.22009069
7873 1 38.2201214713 37.715803799 31.6035722549
7874 1 11.7613816256 3.6886367089 30.0371870478
7875 1 50.3410670305 38.5221601377 61.3644801727
7876 1 13.7840542505 14.8488814698 9.6812253587
7877 1 47.6782063068 31.7986291075 6.6302238106
7878 1 26.957613957 47.2000175627 46.9254583083
7879 1 12.6827052484 33.1775319153 20.1313287149
7880 1 17.5645285002 54.1803166894 44.8607445316
7881 1 53.6157556906 59.9148237504 51.3113016582
7882 1 28.4493115312 52.1742021718 31.5443271121
7883 1 43.5972787414 37.1465454647 49.0637441008
7884 1 47.9766045383 48.6816745824 52.7274895657
7885 1 51.717738604 29.6494807269 38.2160113028
7886 1 50.0908164869 42.2126216977 8.6635300285
7887 1 24.0045166221 54.0716908082 39.4409589427
7888 1 44.4764437789 38.3470669605 54.3008620592
7889 1 39.3074371839 54.3877040475 14.1375287396
7890 1 33.2449386783 37.4250974542 23.4157643459
7891 1 12.9592021536 45.3909562653 25.7855113404
7892 1 35.605114852 22.8920701651 31.4989978254
7893 1 56.9384158885 33.0300943003 44.1655388918
7894 1 43.2020566838 7.5907055956 14.0580263379
7895 1 51.1001564318 22.1727319647 25.2776706666
7896 1 33.2890349144 23.567958013 50.3149381023
7897 1 23.6946686355 49.8282941545 52.4177590125
7898 1 53.6400644013 8.1680374751 22.8731046734
7899 1 19.8898856751 28.0227347599 59.0902652369
7900 1 8.2072837124 52.8893714871 28.1532032507
7901 1 26.1336426105 56.1776237031 51.0037436226
7902 1 56.1625335131 32.2931410921 57.5605779627
7903 1 23.8346492305 50.8414506844 59.2725805673
7904 1 6.4244394182 57.6781874979 15.3545496261
7905 1 22.8631228356 36.0912890663 17.6423281178
7906 1 29.0380638074 58.1214398099 41.9788705447
7907 1 11.9002466035 36.9710412707 35.0798940371
7908 1 32.1201617159 23.4829949589 32.9704968574
7909 1 5.1012411367 13.7112455517 18.3287262537
7910 1 52.538950266 30.5022819694 14.651769533
7911 1 18.4286620644 11.4311589467 16.7437865717
7912 1 51.7004171797 35.2424218421 26.4963943371
7913 1 50.8048114683 46.9889897697 20.6012384053
7914 1 23.5298508795 37.054066674 30.2617196801
7915 1 44.0466963061 55.2187801138 60.7822454494
7916 1 38.0496669128 58.7707877128 33.9703246981
7917 1 31.7598760904 4.724644014 51.4910921707
7918 1 41.9064728628 59.2337688335 24.4504111853
7919 1 60.3998236308 50.7176171798 12.4355079728
7920 1 37.3787112671 20.4102917212 26.0222570448
7921 1 10.2014552547 30.2880247583 27.2971138734
7922 1 48.2728302522 14.0958986046 55.0572504926
7923 1 4.561940059 11.092128764 61.4493845101
7924 1 19.4223833691 52.0399758127 44.6760218168
7925 1 33.8153126297 40.1472033207 55.2399768398
7926 1 57.4834242287 20.9875942423 46.5317628848
7927 1 18.0684351556 39.4950370165 30.8734888997
7928 1 30.2222620627 49.8238316859 6.6057448215
7929 1 17.2222688993 19.9232367565 15.2920163485
7930 1 11.9471612408 19.5422828552 14.2954766426
7931 1 17.1613796891 9.6946714813 18.8015130621
7932 1 44.7208226533 56.5005655121 29.6280491341
7933 1 24.3360310682 10.0390448831 6.2530512644
7934 1 56.9828644247 31.8373234079 11.5046135291
7935 1 5.2214283347 52.0048045138 5.9921025393
7936 1 61.4376998883 43.9603240514 59.3821459156
7937 1 21.5469294555 33.3479864738 8.5933518376
7938 1 6.771760398 14.3428610135 20.6962420139
7939 1 15.1732911962 42.1609510083 54.4384352699
7940 1 43.918576483 26.1892473184 7.6623399605
7941 1 52.8018836152 5.4349574588 23.1918775972
7942 1 12.6408402466 20.8189011846 57.5239387465
7943 1 50.5494525724 28.4888278653 49.959584679
7944 1 30.8191759591 50.6671795409 20.3694249032
7945 1 23.0407995473 18.1617359801 9.6195141149
7946 1 22.9647027137 48.1220457858 15.2399933589
7947 1 55.6093048359 54.9037650583 26.1759186292
7948 1 52.3993806878 48.2929700778 4.531830139
7949 1 20.904392689 25.280841368 29.2692314259
7950 1 25.2298752788 11.6214597473 14.455244763
7951 1 10.0613572263 47.946482875 54.9478612944
7952 1 42.6989133454 47.2264400743 38.7978937259
7953 1 49.8890072146 59.4968783328 26.7221013032
7954 1 8.3158450053 21.5079415716 53.4832908322
7955 1 16.7753174356 28.1129235996 50.3437679984
7956 1 58.4058047519 36.0086746798 61.640389911
7957 1 52.7357099027 49.5214994359 11.5135384664
7958 1 12.1546660323 47.6699859698 58.9308494167
7959 1 60.8334464053 30.4122692798 14.5874160379
7960 1 6.9305479497 27.6583389659 11.1354029664
7961 1 14.2118053557 51.2539354496 25.61065303
7962 1 38.5006698283 36.3043719435 50.1750749407
7963 1 41.273917934 49.7033450328 28.3069235518
7964 1 9.5178168034 50.2978515448 32.8422008842
7965 1 3.5214667622 6.9708041141 53.5495232614
7966 1 28.1884332662 35.6722280316 50.9325789912
7967 1 51.3112429415 61.5833760025 22.7228486571
7968 1 26.092306059 50.8313514133 32.4074624925
7969 1 29.8764794603 37.8645331812 47.1152893753
7970 1 60.0728890867 58.2980596211 45.0161676168
7971 1 12.8485211881 23.1155458969 51.8755690735
7972 1 27.5471295502 9.5425952476 9.1112037075
7973 1 23.928713372 57.8855748559 37.7923703661
7974 1 6.4324307601 25.2830138856 40.0678183523
7975 1 29.4294692799 5.6277772054 6.9945608879
7976 1 16.5110923192 31.4119209704 49.1088972374
7977 1 59.4488480783 27.7263916126 45.6128466464
7978 1 45.3534362988 13.6387891531 11.4094337705
7979 1 24.5653197526 51.3189935449 29.6934008129
7980 1 5.5825594805 8.4265259707 61.4895467278
7981 1 33.1735978969 29.3315298367 12.1130358973
7982 1 13.7704906945 60.7476613175 54.2405012993
7983 1 44.1829777495 59.9743624766 59.4220732665
7984 1 27.1826163229 14.0621365064 4.5540602788
7985 1 30.2078177563 7.2578171789 59.6772560123
7986 1 49.3035430732 36.5421745483 27.42570343
7987 1 32.8541790894 7.9581840159 17.7277609054
7988 1 35.1215828888 60.8240517345 48.9260534568
7989 1 17.551199811 51.1061455344 46.7656901879
7990 1 30.4139720639 23.3096632825 21.256927711
7991 1 38.492508208 41.744473508 27.7468837383
7992 1 37.3408977171 12.6175297197 23.3801820302
7993 1 42.068002484 20.2163504857 27.7041967028
7994 1 40.6078944904 37.6803389167 46.3427538515
7995 1 8.1522485565 55.4215288532 25.2242384764
7996 1 51.1918131888 25.1171392292 51.1897581046
7997 1 24.6583269936 60.3527328434 20.947549458
7998 1 55.3716196645 44.5492524776 49.0892271454
7999 1 32.7509551439 35.9566516903 8.7736649287
8000 1 8.9492982995 58.213096567 29.463642395
