# LAMMPS data file written by OVITO Basic 3.7.6
8000 atoms
1 atom types
-8.3994896876 73.3994896876 xlo xhi
11.1993957602 53.8006042398 ylo yhi
-2.0073388506 67.0073388506 zlo zhi
0.0 0.0 14.4132121124 xy xz yz

Masses

1 18.0153

Atoms  # atomic

5671 1 -4.5153 21.4932915203 4.21097
6740 1 5.97234 21.4478915203 10.7949
1047 1 -0.737382 17.9238915203 3.93052
7351 1 1.09882 20.6503915203 0.901282
1709 1 -5.83917 15.4425370096 2.7858222987
630 1 7.57023 11.6433285299 -0.9273777013
1903 1 -3.22494 19.2454915203 3.50768
3862 1 -4.6744793752 17.1567915203 4.58633
5813 1 -5.7738793752 19.1715370096 0.2367222987
6177 1 7.73737 21.5082915203 3.717
3487 1 -1.05356 21.9639915203 6.40507
1887 1 -0.944385 14.1263915203 1.44105
131 1 7.9583 17.1233285299 3.0747222987
706 1 -1.80392 16.586 -0.1104
618 1 -4.9245793752 23.1255830407 14.8938
2307 1 1.00252 16.0735830407 9.71858
2166 1 7.91782 15.3478 -1.2858
6437 1 -3.16441 18.8418915203 0.826489
361 1 1.40611 21.7627915203 5.15646
1156 1 10.5616 19.2772915203 0.445431
4746 1 6.87535 23.7062915203 9.33096
221 1 4.83221 24.5482915203 13.0804
2450 1 6.31708 20.4293 1.74194
3423 1 1.32352 19.7673 3.40585
7004 1 -6.7276793752 18.7585830407 12.4121
2847 1 -4.4127793752 20.1513915203 8.67587
412 1 10.4278 20.5025915203 9.56755
5662 1 -2.67062 24.2975830407 13.2234
3798 1 0.132042 15.2406915203 3.59379
5836 1 -8.1754793752 22.6915915203 7.30407
2269 1 -3.64103 12.2505370096 -1.7934777013
3642 1 -7.8238793752 14.5143285299 4.6216222987
3346 1 3.46249 17.9336 3.80414
7002 1 -0.767485 21.3636915203 9.23508
4058 1 4.26389 17.0765370096 -0.4541777013
3680 1 5.44724 17.9409915203 2.06694
6641 1 5.83425 21.2644915203 5.76461
1499 1 -5.4117793752 21.8822915203 6.78273
1233 1 9.58424 16.7845370096 0.5885222987
4597 1 -1.5397 20.9148915203 -0.0113947
2812 1 0.490297 17.1462915203 14.6203
107 1 3.85719 14.8382915203 1.00051
501 1 11.2152 23.0997915203 8.35508
284 1 3.32398 21.3817915203 7.08597
4526 1 -6.4192 21.1621915203 2.09033
2034 1 5.42761 15.8125830407 14.4968
3319 1 10.1466 20.0868915203 4.5768
7977 1 -0.587405 19.1558915203 6.43968
6995 1 1.99204 18.8845915203 7.18875
2915 1 2.71498 23.4875830407 14.4078
1663 1 11.2592 22.1364 0.629315
5181 1 -3.87282 13.8065370096 1.4327222987
3774 1 10.3059 13.9255915203 2.91345
519 1 11.5708 19.7555830407 13.883
3007 1 -1.37146 14.5708915203 6.00517
4595 1 -3.95819 14.9175370096 -1.1216777013
6158 1 -2.57954 18.3694915203 7.98289
7858 1 7.7821 19.7426915203 9.20853
4651 1 2.23866 18.8742 -0.942599
5408 1 3.86325 17.9485830407 11.8757
800 1 6.24729 16.5207915203 9.71007
5915 1 1.5437 13.7025370096 -0.0859777013
4297 1 9.08141 23.7745830407 12.6834
4228 1 1.60712 21.9781915203 12.3607
7690 1 9.96468 15.0854915203 6.68151
7525 1 -0.0643177 24.2489915203 12.0307
506 1 -4.85259 15.4327915203 9.10702
1808 1 0.0196364 23.9948915203 9.30963
2418 1 -5.6122793752 12.9199915203 5.29171
3821 1 8.96732 17.2437915203 9.6717
3091 1 -4.2871793752 17.7635830407 13.0726
2304 1 -7.2890793752 17.0521915203 5.6489
262 1 4.54016 15.2075830407 11.955
396 1 9.38374 17.5100915203 5.35629
4358 1 -1.24718 17.5184915203 10.1983
3249 1 -3.44813 16.1941915203 6.80987
3770 1 8.00347 19.9505370096 -0.3257777013
7119 1 -6.59977 23.6543915203 12.4805
6339 1 3.8479 12.7444915203 4.57694
301 1 6.43121 18.6595830407 11.5831
5413 1 6.65725 22.6111915203 13.2187
7224 1 3.10314 16.4219915203 6.24777
6407 1 -6.7270793752 15.1875370096 -1.4357777013
4018 1 1.98932 19.4405830407 13.567
50 1 7.74307 14.5389915203 3.07909
5407 1 6.26377 14.1377915203 5.47349
4564 1 9.43201 16.7605830407 12.522
4790 1 10.7139 24.4325830407 14.6948
7999 1 7.43495 17.8765830407 14.1029
2985 1 -3.19039 21.5684915203 10.6486
156 1 6.41569 13.6629915203 0.74846
5610 1 -6.7151793752 21.1135830407 13.7702
6962 1 1.07816 14.7735915203 7.343
6661 1 8.77797 14.1946915203 12.2145
6701 1 -2.31632 20.0955830407 13.1205
4495 1 7.15843 18.8001915203 6.70333
298 1 -0.0661281 19.7667915203 11.4032
2939 1 5.64743 16.4621915203 6.94152
6300 1 -7.07251 16.8126915203 8.39792
6203 1 2.21485 18.7122915203 9.90979
5189 1 3.28109 21.4319915203 10.089
6825 1 6.64811 17.7749 -1.37454
2351 1 2.80107 15.1631915203 3.675
5682 1 2.59296 23.8641915203 8.72807
4108 1 -6.73301 19.2147915203 9.73963
7165 1 11.3917 15.8976915203 8.87289
7097 1 -3.17966 16.0342915203 11.2057
7816 1 -7.02618 16.7605370096 0.7708222987
7374 1 -7.62907 12.7165370096 -0.4468777013
5651 1 10.7415 21.7345915203 12.151
1098 1 0.144493 17.4308 -1.88504
219 1 11.6233 14.9185370096 0.7134222987
1636 1 -3.13962 13.1393285299 4.1321222987
3459 1 11.9087 21.3048915203 6.32208
5663 1 -4.31598 24.1337915203 10.8055
7039 1 -2.26007 22.1355830407 15.1672
7562 1 11.8606 18.1271 -1.77144
7398 1 -2.12079 17.9995830407 15.2289
4360 1 3.59864 20.8975830407 15.4489
5452 1 -3.91305 25.217374561 29.8737
779 1 11.5739 19.471374561 23.8289
2789 1 -4.77378 24.6505830407 17.255
5364 1 -0.767034 19.679374561 28.0694
2706 1 11.6576 20.784374561 31.794
4235 1 -7.2181793752 16.9075830407 19.5766
6634 1 3.84588 15.9695830407 16.5747
5392 1 2.41108 23.3065830407 21.1116
1758 1 -7.30667 23.568374561 30.649
1631 1 -1.08968 25.263374561 23.3598
2254 1 -6.7726793752 23.843374561 23.8899
2367 1 8.65825 23.045374561 25.3316
6327 1 8.17245 25.093374561 29.3713
338 1 11.8866 20.174374561 26.4417
3119 1 0.27763 17.0845830407 19.2623
2243 1 7.96012 18.212374561 27.4369
7271 1 6.61355 23.6715830407 17.8143
1664 1 -3.63679 20.1055830407 16.7245
2964 1 0.601148 25.3355830407 21.0529
345 1 7.46109 18.4905830407 18.7783
4319 1 -2.5689793752 22.4465830407 20.3644
2910 1 -6.05183 23.1775830407 21.3823
5321 1 6.06823 28.459374561 32.0155
7240 1 1.60012 21.351374561 23.0654
5496 1 9.23548 23.8465830407 18.938
6453 1 4.55446 25.048374561 26.6003
7080 1 6.51608 25.9145830407 23.3866
6352 1 5.23964 19.9355830407 19.7066
6040 1 7.86381 19.4785830407 16.2994
1686 1 9.54584 20.6625830407 22.4331
3076 1 10.4031 20.3429915203 16.3992
2096 1 -8.1363793752 19.4935830407 20.0009
6826 1 10.4594 23.2395830407 21.4648
2850 1 -7.6963793752 27.217374561 28.8149
3310 1 -2.12934 27.080374561 28.6423
5868 1 9.18718 24.938374561 23.3522
5311 1 1.16335 20.7875830407 20.1698
6162 1 2.97612 20.0505830407 18.1077
4381 1 4.54001 23.8095830407 22.764
451 1 1.54783 25.656374561 24.7703
3814 1 -2.51259 20.997374561 26.3889
6379 1 -4.99404 24.855374561 25.8415
3622 1 -0.0867793752 23.1955830407 19.2688
2893 1 10.4411 16.109374561 20.999
6456 1 2.941 23.181374561 25.0093
5755 1 1.7383 17.7445830407 17.0229
2397 1 3.86872 24.3195830407 18.9457
4773 1 -7.35743 15.4565830407 17.1743
4743 1 11.0351 22.943374561 26.46
60 1 -2.16551 25.644374561 26.0219
4341 1 -2.09606 22.731374561 23.1197
321 1 -5.73254 20.505374561 21.0489
318 1 -3.54982 20.0975830407 19.4473
6836 1 5.55581 16.3625830407 18.7204
45 1 -1.13138 19.0355830407 20.3514
2793 1 5.76751 21.428374561 22.0421
7995 1 -4.16772 24.5705830407 20.026
6609 1 -0.704493 20.680374561 24.2905
7754 1 3.35326 17.248374561 24.8504
6211 1 6.88014 23.832374561 27.3065
7653 1 9.55752 18.7245830407 20.5333
3383 1 5.89431 22.315374561 29.2451
6292 1 -1.29465 18.396374561 22.9924
496 1 1.64824 23.102374561 27.5013
6973 1 -7.01474 20.815374561 30.7915
2729 1 6.28284 21.6715830407 15.8693
3883 1 -7.8967793752 25.0675830407 20.2471
559 1 4.47406 24.123374561 30.7431
7513 1 3.35121 18.703374561 27.3747
620 1 -3.4596 16.2755830407 17.1261
1043 1 -3.74099 17.615374561 23.9303
4366 1 4.55208 20.823374561 25.5517
2471 1 -4.82319 26.920374561 32.1299
1721 1 -4.35643 17.4505830407 19.3498
1115 1 -1.79455 23.4831660814 29.7661
6098 1 5.69809 19.616374561 28.5686
6231 1 10.2926 17.014374561 23.7819
6505 1 9.65793 21.283374561 30.2274
7250 1 7.92177 18.095374561 24.77
7446 1 7.47554 22.084374561 31.6386
3729 1 3.73952 19.696374561 23.2015
6042 1 6.41878 25.782374561 31.5078
728 1 10.5048 23.647374561 29.0671
7344 1 10.1676 19.315374561 28.3913
5282 1 2.7961 25.218374561 28.7973
2441 1 11.5021 19.5925830407 18.9343
894 1 -0.0946536 28.443374561 30.1954
2230 1 1.75022 20.629374561 28.7005
4694 1 7.29347 20.854374561 24.3359
3793 1 0.0974405 25.555374561 29.83
4528 1 4.51774 17.584374561 21.28
3306 1 8.92057 27.798374561 28.7579
2328 1 1.70851 21.501374561 31.4931
1888 1 10.7543 23.0005830407 16.9211
1025 1 -6.34759 19.5475830407 16.1572
305 1 2.15116 22.7555830407 17.1946
6386 1 -7.6283793752 26.3385830407 22.7793
3211 1 -4.86343 19.681374561 29.7038
7262 1 -5.29535 19.8185830407 23.6492
6406 1 -4.44967 22.2445830407 24.5272
5155 1 -6.49616 24.892374561 28.2539
767 1 -4.64171 19.186374561 27.033
2764 1 -1.15588 23.225374561 27.1879
3611 1 -2.45437 20.744374561 30.0986
5703 1 -0.466648 23.9895830407 16.4581
4099 1 -7.1074793752 19.233374561 25.5852
4655 1 2.23311 16.233374561 21.023
5794 1 4.74222 25.9605830407 21.1102
1002 1 -3.21668 26.3265830407 21.9604
3569 1 5.44238 27.333374561 25.5422
4265 1 2.53567 27.978374561 28.9208
7945 1 8.60268 15.7995830407 18.8391
2017 1 -5.8467793752 16.8665830407 15.4322
2500 1 -0.381541 23.0861660814 32.3201
5356 1 -5.0861793752 27.0695830407 24.1067
984 1 5.52142 18.375374561 30.9986
1140 1 5.88997 16.610374561 23.4968
1591 1 -7.5350793752 25.7811660814 35.0383
1281 1 12.0378 22.7709576017 48.7572
6002 1 2.89158 21.1491660814 42.8284
5973 1 -1.74893 27.1399576017 49.3777
5138 1 10.326 29.8479576017 47.527
5472 1 -7.99119 25.9131660814 40.4481
2121 1 -2.42522 21.3561660814 32.8365
2068 1 -4.93098 22.4081660814 45.0252
2124 1 -7.71195 22.7929576017 47.8074
691 1 2.59668 19.341374561 35.7477
7967 1 7.75384 30.4929576017 46.5676
5527 1 -7.1541793752 19.8661660814 37.4014
5418 1 8.1765 21.4121660814 42.1454
1946 1 8.04312 24.3361660814 33.3454
2576 1 10.6482 25.0111660814 32.9213
6397 1 -6.59993 24.2711660814 43.8179
7498 1 1.70191 28.7731660814 36.8081
6226 1 8.91961 21.2839576017 44.9568
7028 1 11.6386 25.2489576017 47.7487
1354 1 -5.41229 30.5839576017 45.8791
5 1 -0.970075 19.4171660814 34.0691
4186 1 1.29684 20.7381660814 37.9677
2297 1 -7.06025 21.7331660814 39.4115
4322 1 6.52964 19.881374561 33.0541
5460 1 -2.68618 22.6099576017 46.6803
2094 1 2.14226 31.7739576017 47.9263
1999 1 3.25821 22.5179576017 48.5246
6739 1 9.26927 22.1529576017 49.5592
3104 1 11.4069 30.4451660814 41.2942
310 1 3.51344 22.6229576017 44.9545
4222 1 7.73883 22.6421660814 37.9684
1067 1 11.9768 23.9561660814 40.4063
5244 1 1.4551 23.4529576017 46.7259
2587 1 -5.42934 26.7761660814 43.6759
4187 1 0.252363 28.1551660814 45.2039
3193 1 7.61954 20.1451660814 36.5825
1257 1 -2.65046 31.4169576017 45.591
2808 1 -1.054 21.0441660814 36.3233
7697 1 1.67169 27.5411660814 49.3095
5035 1 -3.5067 23.0309576017 42.6353
1899 1 1.50409 19.2081660814 32.83
2357 1 7.39398 23.1841660814 46.1809
5647 1 11.1886 22.9589576017 44.1479
2954 1 3.3839 23.2421660814 33.0748
4203 1 5.55403 24.2759576017 44.3588
958 1 5.87897 23.1601660814 41.8824
2266 1 -3.92204 21.6511660814 36.6195
4587 1 -4.25871 22.9011660814 34.0941
2620 1 2.78182 23.0931660814 38.2038
1578 1 -1.26254 23.3511660814 41.0757
6863 1 10.4191 23.5401660814 38.1111
3979 1 3.11984 23.2911660814 41.0509
4227 1 0.231106 25.1229576017 48.7382
7610 1 -2.78824 24.6509576017 48.5194
2292 1 7.79643 24.3049576017 48.7422
6194 1 -5.81377 23.9901660814 41.0768
2969 1 -0.743012 20.6041660814 40.1883
2492 1 9.78903 23.9591660814 42.0783
2796 1 4.60564 21.141374561 34.4432
6983 1 7.77208 24.3211660814 40.2653
4586 1 -8.28075 21.5921660814 35.3337
4048 1 0.37149 25.3509576017 44.8023
5501 1 -0.841931 23.5091660814 35.2435
1136 1 5.03537 22.7871660814 36.6478
4288 1 1.03727 24.9031660814 42.0944
3572 1 9.40568 26.1851660814 43.8449
5411 1 -5.19013 26.3129576017 48.1138
5054 1 -2.1979 24.5979576017 44.7821
2303 1 9.14477 25.6379576017 46.662
8 1 -2.25917 29.8279576017 48.0985
1487 1 -3.07647 24.7361660814 39.492
3297 1 -6.91704 25.0059576017 46.4425
3432 1 -5.13488 29.1679576017 48.2989
3827 1 6.5699 28.2451660814 38.5142
3025 1 3.79829 30.4811660814 45.9568
4716 1 4.43466 26.9311660814 48.9296
5819 1 -6.20696 27.7361660814 39.0952
557 1 5.39263 27.2141660814 44.1132
6281 1 -5.37339 23.6381660814 37.9651
2309 1 1.19511 24.7701660814 36.8532
5767 1 -3.69198 26.6291660814 45.652
4107 1 10.9715 27.8051660814 41.0884
7481 1 7.68075 28.1251660814 42.847
2151 1 8.41094 27.0161660814 40.1982
3278 1 2.28537 25.3641660814 34.4418
5524 1 -4.49908 26.7441660814 41.022
3184 1 11.7748 27.4651660814 43.7997
6656 1 -1.48997 25.8981660814 37.5752
6902 1 -3.11431 25.3141660814 35.3407
1732 1 7.05223 24.7811660814 35.9528
7328 1 9.11303 26.0341660814 37.4134
5613 1 5.61688 28.4211660814 46.6174
5492 1 -2.32774 27.025374561 33.2995
5619 1 -8.12367 23.9231660814 36.8782
2426 1 11.0399 26.5971660814 35.1985
1270 1 -7.1807793752 28.7091660814 44.5407
5412 1 -2.26767 28.8691660814 44.5706
4825 1 -5.30226 26.4131660814 36.8344
87 1 2.03929 29.9911660814 44.0422
4753 1 -6.12424 24.6791660814 32.7761
1003 1 -3.0246 28.9411660814 41.7708
3677 1 -0.595606 28.8561660814 40.8508
4951 1 2.44428 26.6651660814 38.3869
4428 1 -6.43591 21.2451660814 33.4364
6817 1 1.71655 27.2311660814 40.9722
591 1 5.09717 26.4471660814 37.3089
994 1 3.86466 28.6311660814 42.2289
1512 1 0.565654 29.4469576017 47.7799
189 1 7.77624 30.7801660814 43.7916
5121 1 -7.76399 29.4809576017 48.9684
6272 1 -0.965733 28.4071660814 38.1216
4233 1 3.67395 27.5821660814 35.2166
7023 1 8.20761 27.9481660814 47.9316
5369 1 4.7307 30.0891660814 39.72
6294 1 -5.5618793752 29.198374561 35.9362
1697 1 10.3482 29.3671660814 35.1953
2349 1 0.0604389 25.819374561 32.577
3515 1 -6.3407793752 28.991374561 33.3286
4745 1 5.71546 29.280374561 34.5787
1489 1 11.056 32.2961660814 48.5048
4671 1 -0.37346 21.3899576017 46.4687
7676 1 7.89628 29.5181660814 36.3171
5953 1 -3.30407 20.3771660814 41.5897
2116 1 5.17221 24.4279576017 49.5294
3330 1 -5.40314 18.8381660814 34.2928
5058 1 9.68112 23.2739576017 53.9782
1294 1 4.70425 26.4499576017 52.9086
964 1 7.73689 33.3239576017 58.5306
7317 1 -4.30089 27.382749122 63.7328
2814 1 8.33832 28.7039576017 50.7291
7358 1 6.82998 25.237749122 63.5061
5693 1 -5.35153 27.3489576017 61.0144
1583 1 11.6756 24.7319576017 55.2085
6429 1 -1.74307 33.0889576017 54.1629
3321 1 3.00453 27.465749122 63.0212
1168 1 -0.510491 24.109749122 58.2653
7178 1 4.29675 32.9249576017 55.9789
5817 1 10.3796 27.567749122 63.3153
2182 1 7.11296 27.148749122 65.4316
1247 1 -8.0214793752 27.191749122 61.8805
3740 1 1.19261 29.398749122 66.5509
7338 1 10.9277 31.6259576017 58.0077
803 1 1.9023 26.903749122 60.5323
3089 1 -2.07855 31.0049576017 50.5826
4284 1 -4.77962 26.1409576017 58.4438
3544 1 -5.33068 25.3089576017 50.9186
6820 1 5.56947 23.8369576017 52.256
3989 1 0.593844 33.3109576017 55.7311
5901 1 11.6161 29.658749122 66.7525
1305 1 8.89183 25.7488121124 61.8304777013
7609 1 7.56838 26.929749122 59.5714
3526 1 2.4016 26.106749122 57.623
5086 1 -3.66444 29.725749122 65.087
558 1 8.65174 34.767749122 61.9038
5764 1 -7.9424793752 31.8939576017 58.7552
4975 1 -4.43723 29.9389576017 60.2366
6682 1 -7.58522 30.164749122 65.0576
6925 1 1.55371 29.921749122 62.8052
2257 1 -0.930521 26.934749122 60.8159
7532 1 -1.95196 26.510749122 58.0092
1380 1 8.86939 26.0029576017 50.7788
7657 1 -7.23516 27.1999576017 52.3674
2992 1 7.97411 25.1659576017 53.1962
6917 1 -1.75338 24.3719576017 52.1221
1577 1 8.49968 27.5859576017 57.0957
2060 1 -5.01045 34.153749122 58.8776
730 1 5.07442 28.719749122 64.5463
374 1 -1.53796 26.0319576017 55.2846
5736 1 -1.69207 27.0369576017 63.3308
4602 1 4.9408 25.3859576017 56.528
7238 1 -5.2049793752 31.5279576017 57.9204
3655 1 9.32797 29.105749122 65.2816
6736 1 9.64332 30.748749122 61.1512
3541 1 -3.58086 22.9559576017 50.6212
6627 1 -5.96087 27.8139576017 56.637
5170 1 1.99996 26.4379576017 52.7451
337 1 1.47452 29.1129576017 51.8383
6811 1 2.33804 29.2299576017 59.114
4652 1 -0.887573 29.325749122 64.5085
5354 1 2.46676 32.342749122 63.7719
6620 1 -5.43829 31.903749122 64.6263
2437 1 -1.9673 29.092749122 59.2871
3039 1 0.211943 30.782749122 60.5695
4440 1 -7.4047793752 23.3889576017 55.4064
6492 1 1.05066 26.6729576017 55.1848
6192 1 -5.34486 24.5889576017 53.7336
1322 1 -4.13179 26.7369576017 54.7399
5752 1 -2.9443 26.9169576017 51.8504
908 1 11.0433 33.4649576017 55.8903
5326 1 1.9832 33.124749122 59.8087
2248 1 -4.21166 31.770749122 62.1343
4944 1 7.26142 29.6489576017 60.2498
2710 1 8.68148 33.723749122 64.4593
1654 1 8.79667 31.169749122 63.6506
4392 1 6.21543 30.644749122 62.9783
4073 1 -0.973875 30.215749122 57.0047
5574 1 -0.238075 33.0964121124 64.5884677013
3940 1 3.4816 34.452749122 65.7976
5380 1 -1.61644 31.578749122 62.7607
7345 1 -6.07275 34.0939121124 66.4681577013
5725 1 5.79476 32.879749122 64.8749
5988 1 6.248 31.3559576017 57.1223
2130 1 11.2887 34.166749122 65.0433
5683 1 4.74277 30.545749122 59.4516
560 1 8.9812 30.2909576017 56.6305
4262 1 1.47588 29.3179576017 56.4073
6782 1 1.57873 35.134749122 63.5206
4774 1 3.94427 30.2809576017 52.6675
7462 1 6.45889 26.9319576017 55.0196
6974 1 -5.53213 34.151749122 61.511
449 1 -4.98473 28.7019576017 52.9606
7982 1 -5.09484 30.2169576017 55.4626
7087 1 10.6023 30.9689576017 54.502
3783 1 -2.43838 30.475749122 54.7974
333 1 6.01546 29.6609576017 54.9219
4133 1 -1.30299 29.2249576017 52.477
3255 1 4.26941 32.240749122 61.5675
3830 1 -0.289564 32.6079576017 58.3792
6590 1 7.23833 35.3698121124 66.1701477013
1430 1 8.20065 30.0789576017 53.1004
4570 1 5.56571 28.3149576017 51.1075
7199 1 1.46908 26.898749122 65.4579
3369 1 5.86 34.3499576017 62.2849
2962 1 3.69165 30.716749122 65.8418
7020 1 0.918864 24.2879576017 51.3426
315 1 10.1941 33.199749122 60.1887
2963 1 6.28591 24.636749122 58.6637
5925 1 -1.92055 34.929749122 66.2941
7436 1 1.33015 23.9009576017 56.0309
3299 1 2.32982 31.2849576017 54.833
187 1 -4.35668 24.594749122 61.5798
5769 1 -8.1645793752 33.741749122 60.8397
1085 1 -4.77836 30.3439576017 50.8082
3962 1 -7.28918 23.3299576017 50.5377
2740 1 -6.8082 32.2259576017 54.4313
510 1 10.6247 26.138749122 57.3727
4754 1 8.02466 32.5679576017 52.0163
3312 1 -5.90652 32.8079576017 51.8773
4846 1 5.12 32.6719576017 51.8673
3209 1 -7.7968793752 25.692749122 66.258
2255 1 11.6885 28.884749122 61.3287
7306 1 10.9486 32.8049576017 52.4555
7949 1 4.29111 25.010749122 62.6427
3512 1 -1.21569 23.3219576017 54.6093
4199 1 -8.1563793752 33.5579576017 56.5609
3042 1 11.988 26.122749122 65.0419
3452 1 11.6295 25.6379576017 51.6241
2952 1 11.1617 28.9429576017 50.1917
6835 1 1.9193 24.147749122 59.7894
1169 1 4.79863 21.9785370096 -1.7714777013
2611 1 -4.93863 28.5329915203 14.7379
954 1 -3.89889 30.3692915203 8.933
4772 1 -0.476762 26.6722915203 1.61993
6181 1 -4.73357 23.9867915203 -1.31842
7121 1 -4.3171793752 32.4721915203 4.31587
750 1 -2.71961 23.3931915203 0.478577
2155 1 -0.948725 25.1951915203 -0.741485
1957 1 -1.74274 24.5789915203 6.93305
2687 1 -5.29761 25.2204915203 3.22994
6332 1 -6.2080793752 23.7344915203 1.12821
4709 1 7.73093 31.8179915203 -0.394784
689 1 7.19998 28.2285915203 1.34198
6291 1 9.89922 33.9685915203 6.65128
1775 1 10.7153 28.1865830407 13.9549
4031 1 0.135864 31.9207 1.56449
3231 1 -2.2413793752 28.6073915203 2.56635
7012 1 -1.99885 30.4537 0.406557
7372 1 4.47146 30.3935 -1.63776
1798 1 -6.33993 31.7785 0.51579
5744 1 4.48395 31.2622915203 3.20102
316 1 -4.606 27.4878 1.67109
227 1 2.15359 23.1661915203 1.37046
601 1 4.60794 25.2814915203 10.4
5300 1 1.71297 31.7310915203 6.20118
6 1 11.0876 34.2715830407 12.5536
6252 1 8.64307 31.0861915203 3.9749
6959 1 4.89652 26.8308 0.792144
7634 1 -4.96199 27.5203 -1.15074
716 1 3.11714 32.7032915203 14.7996
2499 1 -0.83641 32.5637915203 5.50081
3723 1 -6.03257 32.3315915203 8.64709
1502 1 6.42201 29.3333915203 3.85758
2836 1 1.67272 29.2866915203 5.12561
4168 1 1.8514 25.0645370096 -0.4944777013
3393 1 7.75854 32.5296915203 6.15584
3399 1 10.5667 29.7760915203 7.76014
1351 1 4.24242 26.0374 -1.81531
3344 1 1.70674 24.2258 4.00591
218 1 9.37567 32.441 1.68018
6237 1 7.81824 30.1969915203 7.43085
1204 1 -2.56352 30.4739915203 4.87396
5525 1 -6.5394793752 34.3779915203 10.4975
6947 1 10.6986 24.2881 2.4205
7018 1 6.0975 26.6787915203 14.3055
4562 1 8.19988 29.1359 -1.18849
4542 1 9.48033 26.3942915203 1.04798
7762 1 8.06321 24.8655370096 -0.8235777013
3530 1 6.31165 28.0854915203 6.65883
6401 1 1.00822 32.9959915203 13.0555
4785 1 -3.93375 28.8853915203 6.56173
1562 1 2.11866 30.0013 2.45742
3769 1 2.1802 27.5275370096 0.9219222987
7063 1 5.20257 31.8150915203 0.584895
6455 1 2.59437 31.7377915203 8.95277
5136 1 -2.97676 23.6901915203 3.23947
6010 1 2.16179 29.0556915203 8.77296
6867 1 3.53961 33.2017915203 4.8638
5039 1 -1.84597 31.3922915203 10.671
1297 1 -5.1959793752 34.5322915203 12.7743
4509 1 -6.48527 31.4741 3.18708
3513 1 -6.9764793752 29.2934 -0.625747
2404 1 -6.8362793752 28.7303915203 2.95076
5457 1 7.36543 31.0651915203 10.2149
7048 1 5.95577 24.0157915203 6.72213
195 1 8.10306 24.1195 3.50564
2420 1 10.9183 30.1665915203 5.0724
4291 1 -5.1668793752 28.0478915203 9.7984
6675 1 -7.0543793752 32.0785830407 15.1237
4974 1 1.3456 28.9263915203 14.6446
5439 1 5.94939 29.3217915203 14.0504
4210 1 1.18359 26.8095830407 12.5435
198 1 -0.831021 28.1047915203 4.89215
6307 1 -7.29637 29.3027915203 11.1806
3205 1 8.56427 26.5551915203 13.1651
4105 1 -4.6290793752 33.8248915203 6.72478
2997 1 7.76623 25.7219915203 5.72737
6297 1 1.49737 33.9749915203 10.4112
6556 1 9.321 29.8130915203 11.9025
5695 1 -8.0963793752 25.5736915203 13.5083
3749 1 -0.477789 34.9089915203 14.2123
3206 1 -0.875298 25.4186915203 4.22289
645 1 6.35223 24.5685370096 1.3581222987
4831 1 -2.89243 26.5500915203 10.1231
17 1 3.36117 25.0049915203 6.2908
2229 1 4.69789 22.4807915203 0.847686
4891 1 11.3225 31.7685830407 11.2572
3217 1 10.4577 25.5453915203 6.67297
4639 1 -5.8374793752 30.4816915203 13.1537
1046 1 -1.24752 34.0155915203 10.0166
77 1 -1.76644 27.4117915203 7.57942
5435 1 11.7838 27.3163 -0.127818
1544 1 -6.03756 27.2366915203 5.23602
7197 1 -2.01097 34.3152915203 7.44063
4588 1 9.51752 35.6136915203 14.4011
2516 1 -3.72212 32.7855370096 0.3114222987
6884 1 -2.81067 26.9937915203 13.8418
6933 1 3.15903 27.7910915203 10.9614
5200 1 -1.13636 28.0221915203 11.7371
3656 1 5.27745 33.5707915203 13.2068
6993 1 4.79414 32.3443915203 10.8338
1178 1 -0.519052 30.5631915203 13.1305
2395 1 8.80803 27.3486915203 10.4852
7464 1 8.14062 30.7155830407 14.2622
812 1 11.1347 27.4186915203 8.85858
3322 1 -3.6489793752 32.1137915203 12.7706
2670 1 3.61562 27.7769915203 6.65419
1035 1 6.26936 27.6789915203 9.48815
2352 1 -0.474248 29.2562915203 9.25929
1483 1 5.24936 29.5943915203 11.3022
652 1 -6.0609793752 26.2885915203 7.82812
1179 1 7.57682 33.3506915203 15.0763
7622 1 9.17987 22.4435370096 -1.2417777013
6718 1 2.61404 28.2355370096 -1.9021777013
7555 1 4.92496 34.6362915203 9.45786
2117 1 -4.31444 24.1765915203 7.96911
1117 1 9.46354 24.6279915203 10.1092
3658 1 5.46554 34.1909915203 6.71979
3860 1 11.8738 31.691 0.591292
2416 1 -8.2033 30.9848915203 7.30952
769 1 -2.28273 31.4835830407 15.2846
2769 1 9.84232 32.957374561 32.3166
6605 1 -3.94924 29.8835830407 16.9809
397 1 -7.13905 36.353374561 27.18
7903 1 -5.06784 33.8235830407 19.2374
6586 1 -5.22419 35.2005830407 21.6287
513 1 -0.913709 32.7215830407 19.0066
4632 1 -3.5568793752 33.1875830407 22.5085
3999 1 -6.7739793752 30.4384915203 17.4103
1725 1 -1.72202 33.9871915203 16.4281
5363 1 -3.50195 31.6305830407 19.0947
4272 1 -6.97506 30.8545830407 21.5504
7267 1 3.51732 31.4195830407 18.029
4780 1 3.93803 37.781374561 28.6619
2442 1 4.48716 32.8965830407 20.2778
3846 1 0.948862 30.6585830407 18.9055
6234 1 -2.49825 25.8145830407 16.4377
2721 1 0.541537 35.8215830407 20.6659
7069 1 9.32046 26.5975830407 15.8724
2293 1 0.550091 35.305374561 31.5551
1261 1 4.6369 29.8725830407 21.9237
4916 1 11.0933 27.9675830407 21.1665
3154 1 8.3854 34.8145830407 21.3617
7586 1 9.11635 32.4975830407 17.3623
777 1 -0.299335 38.064374561 28.9428
4848 1 11.8312 35.3445830407 18.712
643 1 6.42778 36.6215830407 24.3266
7968 1 4.33873 28.0575830407 17.1425
1841 1 11.9929 34.723374561 32.0537
3466 1 9.38601 35.503374561 27.6985
33 1 6.09322 34.6951915203 17.2581
4301 1 2.33195 33.4485830407 23.3767
5882 1 7.85441 30.7415830407 20.3677
6028 1 -4.21995 30.6275830407 21.6142
1001 1 1.59883 35.313374561 25.2297
4498 1 5.07487 32.3635830407 23.1184
1446 1 6.64575 38.523374561 28.5565
2922 1 3.10129 35.1215830407 21.2533
4014 1 11.1796 34.8225830407 21.2046
2990 1 3.14998 34.2775830407 17.1677
4246 1 7.24279 33.2955830407 19.4296
7639 1 5.43663 29.6585830407 19.1493
3305 1 -2.14542 27.8255830407 18.2186
7490 1 10.2179 30.4525830407 18.7909
6494 1 -1.03879 35.0795830407 24.3424
4172 1 -0.426622 29.7694915203 16.6337
6695 1 -7.12119 39.183374561 30.125
1584 1 3.69941 30.0905830407 15.4045
2214 1 8.63233 31.6115830407 22.9006
5762 1 -4.20203 35.1095830407 17.0734
2833 1 -6.36752 28.3115830407 19.0888
4151 1 4.15223 36.4875830407 26.068
5783 1 -4.5951 35.867374561 31.2137
2211 1 8.19862 37.7195830407 26.3337
6839 1 11.969 37.0625830407 24.7887
4462 1 -7.4796793752 32.4145830407 19.3205
7256 1 -4.45037 38.688374561 30.8866
2594 1 -2.15515 34.853374561 31.9445
1858 1 0.440566 27.5855830407 19.4418
5465 1 8.21253 36.697374561 30.0075
7492 1 -1.01085 33.831374561 21.7075
7136 1 -7.6786793752 32.7015830407 23.6309
5147 1 -4.01948 29.068374561 27.8218
5459 1 -2.7504 28.428374561 25.2613
889 1 6.6902 26.4935830407 16.9378
2363 1 3.59768 28.953374561 24.3978
5772 1 8.77678 29.423374561 24.6062
910 1 6.42308 30.692374561 28.6818
1051 1 8.42429 33.4405830407 26.2849
4403 1 7.08664 28.4875830407 22.2317
5621 1 -6.9026793752 31.040374561 30.2114
395 1 8.66649 29.231374561 31.0457
6400 1 11.8919 34.899374561 26.5815
7811 1 8.52702 31.908374561 30.0678
1004 1 11.0435 36.631374561 30.1325
4982 1 -1.34656 37.2885830407 22.5706
3409 1 10.0417 31.236374561 26.1329
3942 1 6.73307 34.299374561 30.0988
1554 1 4.23188 34.775374561 28.4927
4351 1 0.577141 34.8855830407 18.0175
892 1 4.41627 29.439374561 30.0583
5570 1 11.5194 28.197374561 28.0402
3397 1 2.71893 31.330374561 31.2112
4209 1 -5.7905793752 31.794374561 25.5221
6485 1 1.15244 31.023374561 26.7013
433 1 11.2149 32.497374561 22.562
7474 1 -4.92024 35.432374561 28.3108
2975 1 -5.81653 32.778374561 28.2049
1653 1 5.68362 32.882374561 27.0548
882 1 7.25077 33.931374561 23.7968
6219 1 0.561198 31.055374561 29.3279
603 1 11.1053 34.2535830407 16.2758
3334 1 9.40455 26.5955830407 19.3969
6009 1 -6.87247 36.8215830407 23.3985
868 1 11.1284 28.1045830407 17.4346
3113 1 1.69801 29.3935830407 21.2708
7397 1 10.828 30.864374561 28.7096
6072 1 3.14047 38.730374561 31.1452
3315 1 0.447072 31.4055830407 22.764
6298 1 -1.46373 32.776374561 29.8646
1803 1 -1.13735 30.753374561 24.9967
6262 1 -3.25556 31.767374561 27.9783
2615 1 0.665783 37.944374561 31.5372
6716 1 -2.53259 35.069374561 26.9627
3560 1 1.84586 33.843374561 27.4423
4281 1 2.33381 26.4025830407 17.8156
7671 1 3.59351 31.624374561 25.3426
7644 1 11.8372 39.242374561 30.846
5218 1 -0.299725 35.117374561 28.6816
4015 1 -2.98432 32.802374561 25.2618
948 1 -6.0256793752 29.075374561 25.9224
1238 1 -3.86332 28.2165830407 20.2569
6723 1 -3.55759 37.728374561 26.7984
7430 1 -8.1466793752 28.4935830407 21.1448
7958 1 3.17281 34.081374561 31.1466
4344 1 10.6427 30.4244915203 15.7682
7856 1 7.28423 28.945374561 26.8802
1693 1 1.692 28.132374561 26.196
5620 1 6.76735 27.2315830407 19.6162
2413 1 -7.9204793752 34.3175830407 21.2923
4072 1 1.06058 38.0885830407 25.298
1148 1 4.88652 37.0785830407 21.985
5211 1 10.3905 27.4115830407 23.7513
6242 1 -7.1164793752 27.1595830407 15.3277
6190 1 7.33288 37.1675830407 20.7478
845 1 -7.05123 26.1925830407 17.7936
2142 1 -2.77681 31.845374561 32.3898
2568 1 7.09412 37.191374561 32.4988
791 1 2.57193 27.023374561 22.4845
4594 1 -5.58731 28.543374561 29.929
7276 1 1.34362 25.9325830407 15.3209
4649 1 -6.24707 34.7275830407 15.3874
890 1 3.65661 37.8691660814 41.8552
3291 1 10.5935 30.352374561 32.5831
582 1 -1.71108 33.3499576017 47.4452
6558 1 -1.16727 39.597374561 33.2257
851 1 -1.9381 33.6361660814 39.5346
1326 1 -3.0452 39.0539576017 47.6669
1368 1 5.73605 37.0891660814 37.6787
5414 1 -7.62618 37.3151660814 36.5624
4496 1 0.97972 38.039374561 36.552
1469 1 9.76344 35.9951660814 46.1126
4258 1 0.396271 32.6061660814 38.4807
5650 1 6.63154 32.6411660814 47.9044
7081 1 7.99137 32.8841660814 41.9969
2579 1 -2.50964 40.9811660814 45.8367
3027 1 11.392 36.713374561 34.0179
7315 1 10.8293 34.4281660814 39.3546
1838 1 10.7285 31.7011660814 38.8408
3037 1 7.54073 40.9571660814 42.5998
3192 1 8.73716 33.2319576017 49.4167
7427 1 -8.27854 38.7131660814 42.6508
5081 1 -5.5799793752 31.499374561 32.5377
292 1 -6.9943 40.3639576017 49.0381
4900 1 3.43724 40.181374561 40.163
4744 1 -6.9956 42.6589576017 47.402
6840 1 3.89586 33.7421660814 42.7466
551 1 -2.56774 36.3561660814 44.0691
5698 1 5.71998 34.4681660814 45.9518
4383 1 5.57762 38.1691660814 45.8214
5966 1 6.6321 32.1721660814 39.7517
7540 1 7.44362 36.3681660814 44.7962
6404 1 10.7479 38.6221660814 46.2535
3724 1 10.1028 34.6571660814 41.9706
4813 1 -0.128423 36.0411660814 42.5698
2335 1 2.11269 35.2161660814 44.2385
3659 1 2.80995 31.0621660814 37.828
5076 1 3.55553 36.0481660814 46.5671
5031 1 0.859754 33.5839576017 46.0785
1314 1 4.64409 38.363374561 33.5214
514 1 -0.813645 35.9151660814 46.1985
1810 1 3.50215 35.8539576017 49.2693
7732 1 -7.73886 33.1781660814 44.4613
6326 1 -6.31707 33.0741660814 46.8217
5382 1 -4.33735 37.1551660814 46.1471
5598 1 0.456407 31.3421660814 40.8916
6471 1 5.43553 39.2061660814 48.5029
3978 1 -5.62896 33.2551660814 42.7592
1271 1 -4.24799 34.9051660814 47.7137
3617 1 -6.1932793752 39.005374561 38.3009
4406 1 -6.65183 40.2381660814 40.8119
2477 1 -6.34482 34.9621660814 40.6471
5778 1 -3.21155 33.6561660814 43.8582
6173 1 11.3871 34.2311660814 44.6895
5289 1 -7.17546 38.714374561 34.1947
6916 1 6.33217 34.9581660814 42.4501
4838 1 2.49017 39.472374561 34.8969
5718 1 -6.17905 33.6791660814 37.9604
6868 1 -3.97296 31.8601660814 39.0086
1536 1 -6.99899 37.8549576017 45.162
5733 1 -1.068 33.4031660814 42.1271
343 1 8.23931 39.7971660814 35.4053
6438 1 6.98935 40.6761660814 45.2913
4328 1 -5.63479 39.8311660814 43.6163
5051 1 4.33356 31.440374561 35.5869
5142 1 -7.10438 31.354374561 36.739
5652 1 -5.0362 41.8701660814 45.5165
2354 1 8.99288 40.4921660814 47.2699
5212 1 9.1312 37.1391660814 42.7309
2244 1 2.42008 34.5951660814 38.7855
1486 1 5.39359 32.1401660814 44.4401
2854 1 -5.7131793752 35.405374561 35.7432
1282 1 -1.15986 31.800374561 36.3219
3887 1 8.46693 36.7471660814 37.3124
911 1 5.43802 42.1121660814 48.8392
5249 1 1.83369 38.3811660814 47.1004
7353 1 6.03021 33.531374561 36.151
2883 1 3.04147 40.6819576017 48.2445
5009 1 4.70361 36.0251660814 35.2361
6812 1 8.07102 34.214374561 34.1795
3875 1 5.84727 36.8431660814 40.5665
2944 1 10.6501 31.5171660814 43.7543
241 1 8.7958 37.1871660814 34.5712
4805 1 -1.7450793752 33.833374561 34.6069
3977 1 5.09878 39.696374561 38.1506
6744 1 1.51418 36.6641660814 40.55
960 1 9.63571 38.6991660814 39.0078
7758 1 0.53002 37.8601660814 44.6363
1244 1 -1.764 38.9561660814 39.8441
857 1 2.25744 31.811374561 33.8062
4685 1 -2.65203 36.2591660814 38.7508
1193 1 -6.8113793752 33.104374561 34.4851
319 1 -2.89879 35.792374561 36.0428
741 1 -3.54206 38.4331660814 42.2093
111 1 1.07853 39.0461660814 39.1717
4182 1 3.21286 39.0551660814 44.3708
3662 1 -4.86759 37.1441660814 39.8986
6714 1 -0.696162 37.8569576017 48.2474
4560 1 4.20484 33.1779576017 49.2613
442 1 2.20956 35.7171660814 36.167
1037 1 11.6414 38.7571660814 40.8057
2083 1 -6.53692 36.197374561 33.0542
817 1 1.00437 34.2731660814 34.1892
5578 1 5.29812 34.4971660814 38.859
746 1 9.66685 34.4161660814 36.7557
40 1 -1.36779 39.7991660814 43.7133
2946 1 -1.94501 40.366374561 37.4093
3228 1 8.28656 32.0411660814 37.4841
3268 1 7.81933 38.7251660814 41.1388
7919 1 4.94732 41.6251660814 41.9246
4194 1 0.38455 30.1431660814 34.7157
7589 1 9.83049 35.8769576017 48.9494
2281 1 -1.6773793752 38.299374561 35.634
3874 1 3.03459 31.3551660814 41.6439
3279 1 -5.23449 30.9041660814 41.2574
3416 1 11.2319 38.8521660814 43.4656
6461 1 3.76184 41.7071660814 44.3414
6208 1 11.5087 40.167374561 37.4573
263 1 -3.97634 40.8581660814 40.4704
3998 1 5.47767 34.931374561 32.6587
7489 1 11.594 41.7571660814 43.7513
3137 1 -0.237408 31.7831660814 44.2741
7066 1 -8.34649 33.1271660814 39.6708
4492 1 -8.0254793752 38.1141660814 47.8745
7934 1 7.71822 40.4921660814 37.9679
4086 1 -1.2431 29.556374561 32.6501
2317 1 -3.12599 30.0461660814 37.117
5075 1 -7.27701 30.5331660814 39.5157
2398 1 0.0149838 32.7839576017 49.6985
4559 1 11.0452 41.146749122 64.4272
6751 1 -3.4392 40.2569576017 58.0119
3071 1 -3.29289 33.4159576017 51.8525
4524 1 -6.7314793752 44.357749122 58.5894
998 1 -2.09265 36.883749122 60.3031
7772 1 9.97455 41.4209576017 55.1689
3126 1 -3.8759793752 45.457749122 62.9529
3324 1 -4.44552 38.2939576017 59.7145
1177 1 -2.35346 40.156749122 63.7476
942 1 1.80026 37.3949576017 50.8338
21 1 -4.42489 45.0153121124 65.6596677013
738 1 -0.233768 43.646749122 65.3508
7206 1 -4.63103 41.195749122 62.516
5743 1 0.964379 36.1069576017 55.4326
5931 1 7.76481 34.8379576017 53.7787
1621 1 -7.13848 44.395749122 65.7688
4988 1 8.43482 38.6559576017 59.6423
3095 1 1.1101 43.6189576017 53.6526
3304 1 -6.34533 42.143749122 64.4591
3972 1 -4.37726 38.0199576017 56.1126
5333 1 -7.06092 43.3269576017 53.5451
719 1 -6.65838 40.207749122 66.3878
2327 1 -7.9821793752 41.7729576017 51.3385
3734 1 -0.908863 39.1079576017 57.4049
9 1 11.1423 43.1109576017 53.0644
6662 1 9.37366 42.012749122 62.1442
6643 1 5.83142 37.6749576017 59.6711
5939 1 -2.80873 34.8639576017 56.0923
4146 1 6.71227 39.915749122 65.8522
4368 1 11.8765 41.171749122 61.0246
4104 1 0.277736 37.8969576017 59.4529
4926 1 8.68976 34.7519576017 56.3638
3973 1 4.51642 38.343749122 57.3584
6557 1 -7.1544793752 38.066749122 64.4361
2877 1 3.89815 43.908749122 60.9614
1895 1 1.26507 41.180749122 64.9528
4664 1 0.60328 38.6572036328 66.0989677013
3325 1 -5.92822 38.9069576017 61.9828
933 1 1.70174 39.865749122 60.7872
3031 1 5.27337 41.706749122 62.1062
6081 1 -0.206099 41.1549576017 62.4832
6377 1 3.71345 37.886749122 61.404
3764 1 11.1865 38.8549576017 59.6895
5936 1 -4.90624 36.4400121124 63.2611577013
7773 1 0.111437 34.2909576017 52.1952
2046 1 11.8648 35.2769576017 52.9528
4087 1 4.22334 36.385749122 63.733
4113 1 10.5554 44.6059576017 59.0065
5005 1 8.9698 40.1301660814 49.9623
3778 1 -5.75382 44.2279576017 61.275
1997 1 5.45817 44.3148121124 58.5105777013
4093 1 3.07866 40.000749122 63.2301
6538 1 -3.54922 35.6849576017 50.2965
7173 1 8.68171 37.5049576017 57.0296
5229 1 4.90417 34.5989576017 53.7796
7764 1 7.31708 42.048749122 64.0699
1018 1 5.84547 34.900749122 59.662
1727 1 11.1232 38.291749122 63.5958
790 1 5.1334 45.063749122 63.3022
6347 1 -5.51258 34.4529576017 55.9192
1107 1 -1.19798 43.331749122 60.7978
7795 1 -4.08515 43.5339576017 53.5273
4731 1 -3.65091 42.363749122 60.2486
280 1 -1.58834 37.2069576017 55.5501
5879 1 6.61112 38.1049576017 55.493
1703 1 1.61435 35.648749122 60.8963
1771 1 -6.00405 36.7539576017 57.9748
3835 1 -4.01132 44.3399576017 58.0771
6122 1 -3.5971793752 42.2909576017 50.9461
2512 1 4.77511 37.6469576017 53.2206
5705 1 6.85109 41.9759576017 57.9038
6287 1 0.517249 42.3019576017 51.2318
6729 1 6.80646 37.585749122 64.5721
416 1 -6.40979 41.3029576017 55.4482
4967 1 0.434118 42.8769576017 58.5065
4503 1 9.74723 44.7520121124 61.7095877013
5732 1 -6.8059 36.3019576017 54.177
4679 1 7.21276 40.7759576017 55.2808
1090 1 8.65723 37.568749122 62.3812
85 1 8.43619 37.6111660814 50.5727
38 1 -4.00009 42.3089576017 56.229
1696 1 11.2784 40.9289576017 50.8418
410 1 5.65592 37.4629576017 50.527
5916 1 -6.09631 38.9789576017 54.0037
3902 1 7.41569 41.1279576017 60.2977
6941 1 -6.08491 35.5999576017 51.5006
7753 1 -1.47809 41.0649576017 52.6019
3653 1 2.07905 40.0559576017 50.761
1720 1 2.77429 41.7759576017 55.1465
3728 1 3.6215 40.1749576017 52.8629
1369 1 2.78653 41.838749122 59.4048
1360 1 -4.56861 38.1689576017 51.8167
5243 1 1.77829 45.4662121124 66.4362977013
5079 1 4.6238 43.7629576017 54.5553
7842 1 -0.944246 36.7889576017 50.9281
2622 1 -1.99185 38.3739576017 52.9944
6895 1 9.5557 36.8739576017 53.0444
2041 1 0.270866 41.2789576017 56.2718
4887 1 -1.06658 44.965749122 63.148
1042 1 -1.52014 42.7459576017 54.8146
7680 1 4.2671 41.0429576017 57.3741
7355 1 -2.20564 37.5367121124 62.9362577013
3127 1 5.82322 41.7479576017 53.1613
3872 1 -0.431382 36.5818121124 64.6507977013
4195 1 9.11108 43.4029576017 56.9716
7188 1 10.3674 38.6529576017 54.9849
184 1 2.45416 35.7529576017 53.0876
4682 1 6.51004 44.222749122 65.6529
3615 1 -7.66089 41.7649576017 57.9279
2454 1 11.1577 36.715749122 65.7908
386 1 -7.9861 38.9139576017 58.1994
6901 1 -2.8576 40.566749122 66.4277
2109 1 2.26457 36.9429576017 57.5292
2636 1 7.36937 42.1101660814 50.9116
7848 1 12.0014 45.602749122 63.1022
391 1 3.43861 38.347749122 65.5981
5475 1 -8.21501 43.1529576017 62.466
2830 1 10.6881 42.9021121124 66.6484877013
5961 1 -4.46611 39.9089576017 49.8208
4005 1 12.0174 45.3667121124 66.8675677013
614 1 -4.36743 36.206749122 65.9856
1525 1 3.6329 34.5109576017 58.0909
5489 1 -8.13642 36.0939576017 49.7538
3852 1 -2.36388 34.6209576017 58.8717
4088 1 -2.50489 43.496749122 67.0038
5792 1 8.01103 37.7015370096 0.2700222987
1716 1 -0.911256 38.0465370096 0.4055222987
4365 1 11.1299 43.2104 2.25635
3269 1 0.500811 42.5756 -0.503643
4197 1 -1.7646 43.9155915203 12.1719
3610 1 -4.67182 42.185 1.91974
3678 1 -0.129659 42.9332 5.12077
5645 1 -5.55 36.8181 -0.49262
818 1 -5.55619 39.5017 0.56514
6374 1 11.5396 35.6670915203 10.2968
5617 1 -1.7594793752 34.0 -1.32239
5379 1 -2.6522793752 40.6781915203 6.42484
7488 1 -6.5137793752 35.7725915203 7.85576
1797 1 7.24656 41.916 0.82558
5715 1 -6.34807 42.8885 -0.399896
6385 1 11.8569 45.1566915203 10.2278
2778 1 3.14026 40.6977915203 6.66256
4911 1 -3.1084793752 42.8909 4.42567
7979 1 -2.98316 36.0884 0.278505
687 1 -0.388159 40.1132 4.72616
2369 1 -1.2104793752 38.0107 3.23303
2752 1 6.17616 40.2662915203 2.93345
300 1 -3.37502 34.5579915203 2.64577
4609 1 5.1225 40.4523 8.78386
787 1 1.77938 40.7102 2.90216
7298 1 7.10354 41.6444915203 7.32535
489 1 5.12448 34.5733 0.364619
2393 1 8.11214 40.7099915203 5.11797
7260 1 -7.6235793752 39.2915830407 13.4921
5522 1 -8.2076 36.2995370096 -1.3577777013
7500 1 -0.883188 43.4128915203 7.84519
2840 1 -5.74078 44.7139915203 7.46491
7108 1 0.776643 32.9297 -0.880566
2738 1 4.1087 41.5233 4.13108
3898 1 -8.1060793752 40.5978915203 11.2023
2921 1 -5.75606 44.2905915203 11.6839
7005 1 1.64544 43.3959 1.98565
5897 1 2.57778 35.046 -1.01573
6900 1 4.85194 44.1629915203 3.96431
4325 1 10.503 39.9393915203 9.5315
3551 1 -6.3426793752 41.244 3.98951
1576 1 11.4442 38.3523915203 3.84701
7073 1 -1.18766 43.6676 2.449
2358 1 7.58991 36.9468915203 13.1315
6936 1 5.22994 41.0193 -1.03499
1259 1 8.86486 42.0915915203 9.31083
7844 1 1.43829 44.2161915203 9.09202
5010 1 5.8129 43.5331915203 15.1604
2429 1 -5.0691793752 42.1721915203 6.31517
3859 1 5.46952 38.8987915203 0.646711
657 1 10.2221 42.4524 4.81828
5360 1 10.2148 38.8043 1.36378
2980 1 0.433747 37.7223915203 10.9301
5447 1 10.3304 44.8317 6.05217
6568 1 -0.708681 34.0727915203 3.31544
1375 1 1.63936 38.9659915203 0.733382
5796 1 5.53405 44.1530915203 10.1926
2688 1 3.39276 36.9733 1.16866
7813 1 9.27595 35.7282915203 8.76478
1341 1 0.476146 36.5093915203 4.58777
3389 1 -2.99545 39.595 -0.378832
4158 1 2.85021 35.6203915203 3.64189
1608 1 10.3386 35.7563915203 4.58198
4534 1 -7.0078793752 40.4734915203 7.38313
5160 1 4.09492 41.8958915203 10.8158
4561 1 9.92742 41.3535 0.484305
4752 1 -8.26784 44.7 8.47142
4566 1 6.66573 37.5915915203 3.96858
7442 1 3.18165 43.473 7.0386
136 1 4.44124 38.2379915203 11.7532
1084 1 -7.7536793752 40.5784 -0.785888
6133 1 -3.9720793752 37.0606915203 12.1821
5858 1 9.55503 35.0756 2.08226
5533 1 -4.8506 38.9564915203 14.2135
6451 1 4.7212 36.5397915203 5.5812
7699 1 6.93896 35.8088 2.03043
877 1 -6.8157793752 38.0723915203 6.02947
7159 1 5.6978 43.9580915203 7.54319
3232 1 11.1847 38.1192915203 14.4442
5754 1 -2.8302793752 36.9486915203 8.23418
768 1 10.669 39.8703915203 12.3359
5591 1 3.71745 38.0973915203 7.68469
6432 1 -3.89512 38.2303915203 6.15388
2023 1 -3.86689 37.1845 3.56302
3045 1 -3.9741793752 42.1037915203 11.003
6061 1 -6.5461793752 45.1986915203 14.145
7556 1 -1.9366793752 41.2340915203 9.26645
1812 1 1.03174 38.5487915203 6.63839
327 1 -6.04076 35.7105370096 2.0654222987
3510 1 0.712792 39.4427915203 13.2386
1099 1 -5.0625793752 37.6306915203 9.70285
7506 1 6.76614 38.7194915203 10.1043
2843 1 7.95183 39.7105915203 12.7069
4793 1 -1.48711 36.0072915203 11.8783
118 1 7.85139 43.3175915203 11.5007
3547 1 1.81241 43.2847915203 11.6225
1755 1 11.4372 44.4924915203 13.0629
7085 1 -2.23433 42.1155370096 0.3869222987
2476 1 -0.717617 38.6077915203 8.61606
6801 1 -5.8617793752 40.1829915203 9.73966
5425 1 -2.24634 45.1485830407 14.5057
2006 1 9.60195 44.5830915203 8.60745
1275 1 -6.4669793752 38.4368 3.08757
5811 1 8.93826 38.1560915203 5.56722
6599 1 -3.9458793752 41.5279915203 13.6498
6017 1 8.80307 38.2438915203 8.20208
2497 1 3.39665 40.3492915203 13.0685
3331 1 5.91795 41.7438915203 13.0114
5554 1 -1.2319793752 41.3421915203 14.5905
5690 1 2.84561 36.4937915203 10.0001
7765 1 -0.2937793752 41.5558915203 11.6846
6280 1 4.82988 36.2637915203 13.63
29 1 0.302345 36.4785370096 -1.8477777013
1990 1 1.8936 44.9860915203 13.7382
2456 1 2.30529 40.4945370096 -1.5656777013
2251 1 8.74397 45.4259915203 13.0503
7440 1 7.09885 35.9302915203 10.4138
1054 1 3.91502 43.19 0.0677397
4467 1 11.8761 41.8525915203 13.7218
1944 1 4.32944 45.8154915203 14.878
2300 1 11.5387 35.4804915203 0.181376
160 1 0.8362206248 37.1966915203 15.0585
7330 1 -8.3950793752 43.3728915203 10.9712
2308 1 -8.39231 33.6355370096 -0.7313777013
4748 1 2.28209 44.522 4.6828
3145 1 11.9805 43.474374561 31.3361
3800 1 -7.45502 39.1655830407 20.1101
2749 1 3.73178 38.9215830407 20.1056
5903 1 6.30287 46.3355830407 21.0983
6911 1 5.88109 41.1192915203 16.5997
185 1 0.0524358 41.1455830407 19.1235
1063 1 0.979241 41.6465830407 21.8595
2745 1 11.1751 47.3135830407 25.6403
20 1 3.48666 36.6915830407 15.9311
3030 1 5.92904 49.0145830407 30.2355
546 1 3.3929 42.8015830407 22.7351
359 1 -4.40855 39.5145830407 17.1806
1262 1 0.941973 38.3245830407 19.8897
932 1 -4.92106 48.3565830407 27.9717
106 1 -5.12293 41.7835830407 18.8788
435 1 5.45397 42.8605830407 18.8588
2693 1 -1.57397 40.1250915203 17.0322
4241 1 8.08468 44.3965830407 25.9377
6588 1 -1.20404 43.7905830407 19.7311
3865 1 -4.75012 43.9025830407 22.3258
3138 1 1.98721 43.6375830407 24.9989
735 1 7.75381 47.8715830407 22.9025
1485 1 -3.85524 44.0925830407 17.9545
5747 1 10.9715 48.727374561 30.5914
4448 1 -2.30415 45.9845830407 21.1993
527 1 -1.33742 42.4575830407 23.1569
3629 1 -6.8534793752 45.2075830407 20.8018
4286 1 3.06839 47.7325830407 23.6637
715 1 -6.3968793752 42.3945830407 24.1018
1777 1 4.50244 45.3945830407 22.9747
7135 1 1.79465 42.4485830407 17.1783
3087 1 9.40701 45.331374561 28.2878
2110 1 -2.65036 39.312374561 28.9571
125 1 4.63975 38.7258915203 17.5228
5515 1 7.43451 41.2955830407 22.0222
4349 1 6.48166 46.3905830407 24.8617
7581 1 4.87429 41.2665830407 20.9298
1966 1 3.14471 40.5385830407 15.8143
2712 1 7.6137 44.5675830407 19.4427
3449 1 10.237 47.3475830407 21.7565
4374 1 10.0163 42.1335830407 15.7202
1313 1 9.23945 42.7685830407 20.6354
7907 1 9.88034 47.968374561 28.0924
3929 1 3.17792 44.2845830407 18.4332
235 1 -0.505165 44.9015830407 24.31
5751 1 10.8802 44.7125830407 21.5231
303 1 -6.1407793752 38.5255830407 25.7181
5917 1 10.9219 37.9765830407 18.431
6885 1 3.03344 45.655374561 26.8165
7118 1 -5.9092793752 46.2325830407 29.5231
3257 1 1.60234 44.2255830407 20.6045
1934 1 -3.16861 42.0015830407 20.9626
661 1 5.86695 46.168374561 30.1267
4513 1 10.4658 42.8745830407 25.7158
6783 1 -1.26312 45.6635830407 27.0223
7263 1 -7.66551 46.1825830407 25.5398
5974 1 -4.56307 46.5495830407 19.4491
5092 1 -2.6474793752 41.1345830407 25.1488
6150 1 7.40027 41.053374561 28.7135
2885 1 11.2778 40.754374561 28.4364
3417 1 -1.35254 45.4005830407 17.2101
291 1 -7.70451 39.8975830407 27.6006
5237 1 -7.7045 42.509374561 28.1028
6029 1 1.05289 46.3335830407 22.4443
1885 1 9.01762 39.0815830407 21.8428
7797 1 3.73285 45.530374561 31.7542
4379 1 4.64279 41.0965830407 24.6125
4666 1 -4.5162793752 43.7315830407 15.3518
4863 1 2.09292 41.262374561 31.2868
5140 1 -0.498082 37.4687915203 17.5819
5865 1 -3.09216 45.6305830407 23.7916
2783 1 3.39501 48.386374561 31.3828
6468 1 -7.77821 42.7925830407 19.2537
3180 1 8.29145 42.263374561 31.1798
7296 1 8.28912 45.061374561 30.6328
4333 1 5.54528 48.726374561 25.934
7083 1 10.5424 40.4425830407 19.7844
7647 1 1.70659 39.3095830407 27.6416
778 1 6.8339 37.1585830407 18.1269
837 1 8.13385 40.1421915203 15.4232
2860 1 7.33683 41.690374561 24.7666
739 1 -4.06015 43.216374561 31.9815
972 1 10.0322 38.8305830407 24.4051
5466 1 3.5499 38.5955830407 24.0447
2008 1 11.3646 43.451374561 28.6059
1670 1 0.574945 48.244374561 31.9927
2541 1 5.14963 42.639374561 28.6253
2246 1 9.17139 40.448374561 26.6352
371 1 0.970849 41.971374561 28.8558
2088 1 -6.14857 43.8265830407 26.4029
4539 1 1.0199 39.0145830407 22.6137
6139 1 -6.99144 38.7305830407 17.3836
3626 1 -4.9292793752 39.7335830407 21.1335
956 1 -3.18264 37.2825830407 18.2922
4952 1 1.15412 45.504374561 31.1929
7937 1 -4.84643 40.2285830407 23.9287
5125 1 4.29573 42.968374561 31.2443
4131 1 11.6809 41.045374561 23.9995
6880 1 10.6106 41.334374561 32.2231
971 1 9.09016 46.3205830407 17.5962
171 1 -1.55189 38.7085830407 25.054
5166 1 1.0117 44.7685830407 28.5025
2368 1 3.10303 41.800374561 26.9634
4516 1 -6.32068 43.523374561 30.4538
6277 1 -6.90864 47.120374561 32.1242
3596 1 -3.34602 43.7835830407 26.203
1131 1 8.52478 44.3742915203 15.6033
7947 1 -0.391264 43.6125830407 32.3731
2415 1 -3.0293 46.315374561 30.1889
165 1 -1.91245 41.848374561 28.0381
535 1 -2.07236 43.7255830407 30.1462
11 1 5.72112 45.074374561 27.472
1273 1 3.44202 46.6845830407 17.3584
2044 1 11.5035 44.8785830407 24.2045
4418 1 8.92726 37.6977915203 16.5075
7985 1 -2.05538 48.1735830407 28.3243
1625 1 -6.3829 48.8235830407 25.4949
3139 1 -3.64985 37.3835830407 21.0561
4658 1 2.79057 48.4365830407 26.4
5372 1 -7.18176 46.7603915203 18.32
3246 1 -3.64503 48.3075830407 24.7096
1764 1 11.8544 41.8545830407 17.6873
5044 1 -8.0503793752 36.5047915203 16.1367
1882 1 -8.31411 49.458374561 32.3966
6998 1 11.9335 46.4145830407 17.6166
4275 1 -8.1257793752 43.051374561 32.4685
2054 1 0.125996 43.6780915203 15.4648
3009 1 2.42896 49.5955830407 28.9754
4316 1 7.4512 49.324374561 27.9062
4905 1 9.86192 45.1391660814 49.0552
3829 1 -0.5485793752 46.713374561 40.2469
2912 1 -4.22366 44.057374561 37.1811
384 1 2.22191 46.5391660814 39.2391
7116 1 11.1241 44.982374561 33.5755
5012 1 -6.95716 48.4561660814 36.4395
4830 1 -1.02219 49.5221660814 39.6402
4627 1 -4.30629 44.672374561 34.344
7361 1 2.04831 45.812374561 36.4189
3498 1 -6.0437793752 48.3011660814 39.0948
6518 1 -6.2590793752 45.510374561 38.4823
3496 1 -3.83899 49.789374561 39.7436
563 1 -1.86486 44.607374561 38.6962
6815 1 -0.808271 51.1501660814 42.1369
1638 1 -0.764078 46.106374561 36.4652
3885 1 0.911039 41.454374561 33.8139
4356 1 -0.554358 48.6521660814 37.0721
7629 1 -8.17698 42.381374561 40.6098
6842 1 6.48086 53.4391660814 47.7932
2241 1 1.18176 41.937374561 40.2936
3053 1 7.39523 45.3521660814 37.3119
4402 1 6.46034 47.3061660814 39.3044
2311 1 -1.45433 49.5101660814 49.4612
2584 1 -6.64802 42.982374561 34.6749
3033 1 4.16841 49.148374561 34.015
6877 1 3.78479 50.1621660814 41.6909
5977 1 9.43354 42.9131660814 42.5084
4631 1 2.03112 48.695374561 36.1094
5669 1 10.0294 46.0831660814 37.366
4343 1 9.86793 48.939374561 37.0535
1862 1 4.07467 46.392374561 34.2984
1256 1 8.1125 51.7791660814 44.9579
5000 1 0.991101 51.425374561 39.1328
3398 1 8.70455 46.152374561 33.2694
1563 1 9.7306 43.2281660814 47.0701
3797 1 9.40461 50.2851660814 40.6849
7153 1 8.3392 47.8781660814 41.4856
3673 1 3.28225 50.520374561 37.6725
626 1 3.92456 48.572374561 39.5827
6878 1 6.56927 45.093374561 34.7299
3372 1 -1.50661 48.2571660814 44.8919
7938 1 -7.86723 44.006374561 36.9772
7681 1 10.3881 46.5011660814 40.1849
4307 1 -1.20056 52.4961660814 46.6889
2895 1 3.85958 45.1521660814 46.3932
3218 1 -5.36382 47.173374561 34.3869
4473 1 9.14381 52.9531660814 47.3703
2709 1 -6.34082 44.405374561 40.9918
4472 1 1.63218 43.110374561 36.0295
2875 1 11.3927 50.496374561 38.7819
3488 1 -5.3361 40.568374561 35.0215
1927 1 11.4861 43.9431660814 36.0998
7068 1 -8.29593 48.8321660814 47.2467
4477 1 -1.62896 45.066374561 34.1772
7734 1 3.89131 41.262374561 36.3401
6746 1 -3.56467 43.479374561 40.7885
6982 1 7.57474 43.111374561 38.9114
7483 1 -7.69047 48.8521660814 42.5808
1676 1 -2.06387 44.1031660814 43.083
5467 1 5.55813 50.4691660814 36.1893
7921 1 -5.81433 50.4001660814 43.8938
1299 1 -8.22537 50.028374561 40.2058
4468 1 -5.63574 46.2941660814 44.938
7409 1 7.34177 51.7311660814 39.5705
2180 1 -4.59894 51.621374561 41.7097
537 1 -0.134441 50.7391660814 44.8403
5441 1 -0.776178 46.4431660814 43.078
6614 1 -2.24748 45.0511660814 47.3735
2644 1 -2.99581 51.9141660814 48.7636
2897 1 9.95507 47.3661660814 43.9403
1171 1 -4.43943 45.7471660814 48.9321
194 1 11.004 51.5211660814 42.7069
6539 1 -0.71093 47.4761660814 47.4538
970 1 -7.19865 46.0991660814 42.8688
6460 1 2.23583 49.8011660814 45.732
4130 1 -3.79547 44.3371660814 45.0958
5955 1 1.85784 52.0631660814 41.628
1678 1 7.6053 46.6961660814 48.3034
4372 1 8.43605 49.0921660814 45.5971
5806 1 -4.51885 41.271374561 37.6985
363 1 9.61196 48.7251660814 48.1101
6888 1 6.907 49.6561660814 43.2719
7804 1 7.29145 49.4751660814 37.9961
5569 1 2.69638 44.2681660814 40.796
4412 1 -5.78447 49.8821660814 47.4398
388 1 8.26776 45.0641660814 43.6313
4326 1 0.595183 50.214374561 34.0709
5731 1 4.69221 47.0271660814 48.4943
37 1 6.19302 46.0771660814 41.9947
3762 1 4.14434 46.3911660814 43.7971
7802 1 10.6098 41.287374561 34.9847
969 1 -1.91569 50.550374561 35.5955
3706 1 -0.178162 42.473374561 37.9205
4384 1 5.73404 49.1171660814 46.663
4771 1 10.904 49.681374561 34.5628
4888 1 -3.48733 49.188374561 33.84
5093 1 10.0625 43.6871660814 40.1032
351 1 -1.46809 43.5201660814 49.6116
4404 1 5.42967 43.8631660814 40.5645
5567 1 1.69326 45.225374561 43.3329
4128 1 -4.2528 48.6211660814 45.3648
2988 1 -6.16997 52.5801660814 47.5546
5315 1 1.2548 42.8861660814 44.6977
4488 1 2.55396 51.8481660814 47.6046
2261 1 5.84498 40.596374561 34.4281
7800 1 6.35434 42.730374561 32.9341
1962 1 5.01637 51.2451660814 48.4302
1419 1 12.0276 42.7921660814 38.5871
3958 1 4.33359 48.9241660814 44.1166
6550 1 2.0897 47.4371660814 47.1483
822 1 5.86186 51.8321660814 41.8935
1737 1 -6.81847 45.5761660814 47.2845
2396 1 7.67376 44.7241660814 46.2257
6136 1 8.95141 48.715374561 32.5842
976 1 -3.59575 40.646374561 32.8568
7311 1 10.1058 51.1161660814 49.2788
47 1 11.7174 47.2451660814 49.0775
605 1 2.17488 43.1431660814 47.4683
3368 1 12.0478 48.9201660814 43.0139
5378 1 5.48148 42.8591660814 46.2325
1734 1 10.6087 52.8021660814 45.0078
127 1 -0.430127 42.0531660814 42.5216
1668 1 -6.21961 52.9231660814 44.876
6220 1 -0.724215 42.7171660814 46.8704
1246 1 -1.93786 47.211374561 32.5314
6795 1 2.94255 56.1038121124 62.0642777013
829 1 -6.02234 52.861749122 62.2801
4750 1 2.13836 47.674749122 62.2312
1868 1 -8.16476 47.2301660814 51.2928
5334 1 3.31962 49.0119576017 57.3631
5230 1 9.20817 52.3711660814 51.7459
2233 1 10.5445 46.954749122 65.2853
3637 1 0.598832 48.6659576017 57.4064
7933 1 6.39384 50.2899576017 61.2385
2271 1 2.55779 53.2149576017 58.7817
7780 1 10.344 52.4529576017 56.5039
5595 1 -1.48604 52.056749122 64.0438
6019 1 8.20293 51.3649121124 64.2829077013
4955 1 -2.93275 53.556749122 65.9318
4673 1 10.8097 47.3519576017 58.5464
3843 1 2.64229 46.224749122 59.9288
1913 1 -1.19457 49.458749122 64.9585
7775 1 7.10832 46.4089576017 51.1546
7179 1 -4.83399 50.6849576017 60.9633
545 1 -3.86631 51.7581660814 52.4614
1705 1 0.0825304 52.7201660814 51.0573
2343 1 0.798485 45.7069576017 57.9777
4638 1 -2.01588 47.9799576017 60.5378
929 1 -7.1162793752 52.758749122 64.8246
5342 1 4.45101 48.5959576017 59.7333
490 1 4.44846 47.5529576017 55.4513
7264 1 3.47954 50.109749122 61.9528
5982 1 9.56506 53.8259576017 61.1801
67 1 11.0055 49.3309121124 66.6442077013
7663 1 -6.9032793752 46.4329576017 56.6611
5590 1 1.44414 51.8599576017 60.961
5704 1 0.853605 53.4169576017 63.2633
7923 1 4.21381 49.126749122 65.6882
7475 1 -4.19775 46.5939576017 56.4735
4942 1 10.4422 45.0299576017 55.1383
7470 1 3.1755 47.8039576017 52.9914
4455 1 -0.289495 45.5039576017 55.3907
1635 1 -7.71962 52.2959576017 58.563
525 1 4.31239 54.3289576017 60.4296
2510 1 8.07601 48.0899576017 57.8982
2275 1 -2.26263 51.5039576017 61.4091
3817 1 6.80635 44.9059576017 56.069
4180 1 -7.55058 55.3569121124 65.3909277013
12 1 6.62717 53.1171805921 61.3735777013
1507 1 0.615223 47.8159576017 53.9301
7360 1 -3.4325793752 55.933749122 64.4572
348 1 -2.59907 53.7941660814 51.0367
3266 1 7.27441 47.5029576017 55.3884
6607 1 8.97541 44.3359576017 51.4364
3772 1 -7.76556 47.6279576017 59.169
4461 1 6.13167 53.273749122 64.2658
6804 1 -3.9801 49.3841121124 64.6484477013
7237 1 -4.9214793752 51.692749122 65.892
309 1 -2.82761 46.1349576017 54.2152
6103 1 -7.2349793752 49.1739576017 56.0902
6141 1 -0.444077 50.2779576017 59.6479
5119 1 10.6374 51.174749122 60.4499
4137 1 7.41164 46.2235121124 62.2056177013
5016 1 4.03581 51.6110121124 64.4276277013
6623 1 8.06042 50.5829576017 59.0095
19 1 -5.77174 54.1869576017 57.4569
2022 1 3.08415 45.1869576017 52.5402
1820 1 -3.61444 48.6139576017 58.2513
5550 1 5.42646 54.4529576017 54.1805
1679 1 1.22328 56.9029576017 65.6749
4592 1 8.23839 48.875749122 62.8665
1954 1 -3.50221 47.8481660814 50.4921
2829 1 6.04717 55.8298121124 65.4559577013
2461 1 -0.928394 54.8851660814 55.3004
5366 1 10.7529 48.4739576017 61.3786
6048 1 10.797 52.1489576017 63.3018
4400 1 6.4171 46.656749122 59.7037
5240 1 -1.9263 53.6079576017 58.3924
819 1 11.4296 50.0539576017 57.7201
3878 1 5.15927 51.1081660814 51.1442
4800 1 7.70421 46.809749122 65.0094
2111 1 -2.10085 50.9109576017 57.3694
7790 1 7.52607 55.1989576017 59.3201
721 1 -1.37947 47.3159576017 52.1664
1078 1 0.55644 54.9929576017 57.7152
1588 1 -2.42823 52.4261660814 54.9349
7186 1 -4.34265 48.1989576017 62.2477
4098 1 -1.40054 50.3489576017 52.2368
7337 1 -0.565743 50.1569576017 55.0345
5984 1 3.38143 51.7249576017 56.6959
6299 1 -4.76866 47.9499576017 53.0
983 1 6.59736 53.0971660814 51.9087
399 1 -6.1868793752 53.1779576017 53.5836
3781 1 -6.02245 45.6569576017 51.9905
2919 1 8.92598 46.5539576017 53.3859
2599 1 -7.43115 50.0351660814 51.608
5562 1 2.80387 50.6011660814 52.1944
2669 1 1.88981 52.754749122 65.8161
3264 1 -6.655 46.9059576017 61.4864
1478 1 -4.76649 51.6409576017 56.5335
3355 1 -2.04569 54.2499576017 61.04
2325 1 9.85613 51.0511660814 53.9647
6394 1 -5.82359 50.4401660814 54.035
167 1 0.115853 55.7649576017 62.1863
7401 1 -0.520223 47.690749122 62.8974
6642 1 5.91403 52.2879576017 55.8059
2360 1 3.3875 45.2149576017 56.5492
3296 1 3.36299 46.685749122 64.5664
4339 1 4.88641 44.6319576017 50.3757
1309 1 -6.16101 50.0169576017 58.6174
3252 1 -4.42411 54.9229576017 62.0403
5518 1 1.7436206248 51.6759576017 54.4529
323 1 7.18099 50.2549576017 54.4047
5510 1 5.79444 48.6889576017 52.1786
7600 1 2.31887 47.7951660814 50.0295
1424 1 -1.71757 45.6559576017 59.1534
1201 1 7.92064 52.9769576017 57.6931
4582 1 -4.87185 50.2131660814 50.2372
5286 1 10.859 48.4699576017 53.2176
5388 1 1.16821 50.4711660814 49.8523
7099 1 2.10143 44.4259576017 49.9868
1228 1 -0.128258 46.2009576017 49.9908
1451 1 11.7169 54.185749122 64.903
2489 1 0.991115 54.2611660814 53.4739
7089 1 -5.8584 43.6259576017 50.0669
1254 1 -4.3247793752 47.6060121124 66.5853177013
7667 1 -7.1114 47.2899121124 66.0669577013
116 1 10.3588 56.0778121124 66.7422277013
7287 1 9.99143 55.0049576017 55.2125
4717 1 -8.0997793752 47.649749122 63.6186
676 1 6.71273 48.471749122 66.9491
1480 1 -5.42324 57.2203121124 65.7053077013
7855 1 10.95 54.5329576017 52.6558
6050 1 8.48555 50.634749122 66.8992
833 1 10.1333 47.3182915203 11.5079
3029 1 4.35716 53.9145915203 14.8616
4103 1 -2.23204 52.7632 5.76635
1619 1 -5.81788 46.1132 5.00331
1993 1 4.77045 50.3725 5.26923
48 1 1.71859 46.8968 9.92754
7184 1 0.148308 52.4592915203 14.5445
6768 1 1.30208 52.5225 1.46928
7695 1 -6.27525 50.0212 1.97699
1321 1 1.93898 55.3287 9.00575
3447 1 -7.79644 45.1477454893 -0.3037777013
5839 1 -6.14162 52.8137 5.54629
6333 1 -3.00561 52.9164 3.13969
5017 1 -2.14921 54.8352 7.40458
2900 1 -2.73174 51.0975370096 -0.8587777013
5094 1 -4.29769 46.4855 0.488065
7725 1 -2.1322 45.8559 7.75237
4688 1 10.2411 48.4706915203 14.0729
507 1 8.01022 44.5554 0.683609
3818 1 8.06143 48.8078 3.26903
2342 1 -3.63437 48.2779915203 8.00253
46 1 -1.75731 47.1173 -0.144806
2159 1 10.267 52.9614 7.31728
5171 1 7.85302 53.4635 4.22154
529 1 -7.14996 54.6019 11.5537
7524 1 0.231952 46.0445370096 1.7688222987
1570 1 -0.375742 53.9872 9.42571
7613 1 5.62821 54.1234 2.70249
7659 1 0.43596 49.9564 1.07388
3839 1 -3.96559 48.6375 2.59669
6199 1 -4.88391 53.9674 10.2334
3314 1 6.35193 46.9677915203 13.4321
4973 1 -3.73186 43.9072 -1.0764
5304 1 -0.815453 52.4086 11.885
1726 1 -4.19469 50.9581 6.63408
6984 1 1.40782 53.4537454893 -1.2309777013
1806 1 0.149467 47.3548 7.81105
1285 1 7.40972 50.8641 4.92913
7577 1 0.341639 51.6028 5.74746
6713 1 -7.89642 52.0686 12.1604
6816 1 -6.0181793752 52.7495370096 2.7747222987
528 1 5.91808 53.8529915203 11.6762
4505 1 1.92496 53.3044 4.10868
6676 1 -5.18372 48.8099 5.19228
3337 1 1.20011 47.3914915203 12.5676
2614 1 -1.19201 54.0385370096 1.1466222987
3689 1 -7.1603793752 49.8706 -0.651826
5068 1 -4.27559 56.8755915203 14.9519
6108 1 5.88927 47.9571 1.85524
2131 1 1.69385 48.2461 2.84104
1432 1 -7.76589 49.3547454893 4.4937222987
4117 1 6.33757 51.995 9.26568
4622 1 8.69807 49.5129 -1.00258
4317 1 -7.7134 52.2824 7.85163
7693 1 -2.19513 50.605 1.77701
2696 1 4.04091 49.7655370096 2.7261222987
2577 1 4.03461 52.2904 1.37552
2260 1 8.42329 50.9651 7.63189
4250 1 3.01345 51.8172 6.86818
6168 1 3.31744 54.1643915203 12.3298
7241 1 9.82703 50.022 1.57786
334 1 3.75623 50.9239 9.45101
7507 1 -7.09572 50.5688 9.99989
4913 1 -2.46369 45.9151915203 10.5002
6115 1 -6.8242793752 56.0773915203 13.8416
1815 1 -4.49511 51.4478 9.35482
103 1 0.779776 51.4773 8.60735
1722 1 10.2022 53.4167454893 -0.2864777013
4508 1 -8.2869793752 47.4932915203 13.4985
445 1 5.50337 45.0935 1.54565
1739 1 -6.69804 48.1132 11.3001
7404 1 7.07355 54.0834915203 14.3934
2791 1 11.3603 53.5537 9.79164
354 1 -5.09028 46.3357 9.78977
196 1 0.0224392 45.2375370096 -1.1855777013
718 1 7.72341 56.7179915203 14.8435
7021 1 4.73232 51.0465370096 -1.0872777013
1539 1 2.11789 47.1199 5.71063
909 1 5.97637 46.7161915203 10.6655
5085 1 8.49979 55.1472 6.70064
492 1 8.75399 46.6891 4.81818
7917 1 -5.49183 44.8118 2.51208
3214 1 -0.0651618 48.7655 5.13467
7829 1 1.92549 51.9940915203 11.4294
4025 1 -6.1977793752 51.3301915203 14.4552
7300 1 9.23378 49.8168915203 10.2275
1955 1 -2.48594 50.5984 11.0995
2256 1 -1.23638 49.4873 8.94954
7314 1 7.18658 51.1037 11.8172
7437 1 9.15604 52.8893915203 12.7381
4320 1 0.0175192 48.5895915203 14.9565
1372 1 -3.0323793752 54.0667915203 12.2889
2839 1 -6.28675 47.2192 -1.2351
7391 1 -2.7892793752 48.0047915203 14.1352
5701 1 6.21189 48.5135370096 -0.8286777013
104 1 -1.21183 48.1799915203 11.569
5902 1 4.11733 48.1163 9.26166
1373 1 -5.31748 51.7715184797 -1.23505
6849 1 -4.7220793752 49.5023915203 12.6961
1856 1 0.878127 49.2355370096 -1.4759777013
5822 1 9.84799 52.8522 2.34906
3100 1 6.43413 54.5376 8.24677
7920 1 4.57107 47.7342 6.57926
7978 1 5.54021 49.583 13.4426
899 1 3.84159 54.3395 7.24182
4882 1 -3.16943 45.5275 4.99204
3142 1 2.70876 49.7905915203 13.0095
3804 1 1.97902 56.5739915203 11.4608
1733 1 9.54562 48.4686 6.82605
4432 1 -1.62347 47.2166 3.59551
2811 1 -4.82753 55.5214 8.0254
6131 1 6.24099 45.7449 5.75051
440 1 -3.82934 52.9976915203 14.6907
5185 1 10.9927 51.0835915203 13.4694
3935 1 9.87546 45.6574 2.32766
7660 1 8.40032 47.0425 9.19279
4401 1 -8.35061 45.3091 2.46351
1102 1 -1.47267 53.2245 -1.70816
903 1 10.893 55.1655 12.0993
3457 1 6.67821 56.2006 10.4385
133 1 11.0864 51.1267454893 -1.6989777013
1216 1 -2.37916 56.6325915203 12.981
1167 1 11.9304 54.2356 3.79408
1958 1 -5.31656 54.2030084797 0.460138
4904 1 11.8703 50.9569915203 10.6144
7181 1 8.36026 45.2539 -1.94853
6655 1 -2.10256 50.7409915203 15.1997
6195 1 0.302546 57.0596915203 13.7246
3328 1 11.1625 49.400374561 23.7801
3923 1 -0.357406 49.8385830407 29.8615
5312 1 4.31555 49.6405830407 21.9606
5791 1 -2.60031 52.1065830407 27.3189
571 1 10.9443 52.7142915203 15.9123
6697 1 4.33366 51.7108915203 16.2817
7006 1 7.429 58.9895830407 30.416
4441 1 10.5752 57.4775830407 27.4085
7701 1 2.51382 51.5683915203 21.1644
7718 1 -7.9629793752 49.4135830407 18.3572
1816 1 -7.2317793752 55.0347915203 20.0553
3727 1 -0.234386 49.2835915203 18.9443
7627 1 -2.6754 50.2015830407 18.022
1642 1 6.51811 55.1285830407 24.8152
2245 1 2.02223 56.0873915203 20.4645
5528 1 0.408066 54.2505830407 23.7637
2593 1 3.13444 57.4005830407 26.3938
5023 1 -5.17243 55.6695830407 22.1617
3476 1 0.412895 54.2015915203 19.0159
379 1 -1.2215793752 55.4736915203 17.1697
5060 1 4.04979 52.7020915203 19.0044
5087 1 -5.7469793752 52.4931915203 20.9118
7017 1 8.16026 52.5468915203 16.3473
6689 1 -1.8909793752 53.9134915203 20.382
2278 1 3.20076 55.9220915203 16.4417
5599 1 -6.36125 54.8635830407 27.7688
526 1 9.06767 51.4535830407 20.9963
4787 1 -1.47552 57.6257915203 18.8327
1883 1 -0.151171 56.5455830407 22.4544
7953 1 -2.67776 58.3375830407 28.6402
61 1 2.82697 54.1875830407 22.3109
3287 1 -1.55183 52.3915830407 22.6098
5532 1 -3.71176 52.7608915203 18.8301
6355 1 -4.29976 53.1565830407 23.3176
7203 1 9.91614 57.3537915203 16.4928
3380 1 10.715 54.9511915203 17.7373
3244 1 8.019 48.0085915203 15.5602
6526 1 -4.3656793752 49.3335830407 20.0264
4024 1 -6.5359793752 55.3704915203 17.3863
109 1 6.56234 52.1318915203 20.1282
3056 1 6.68713 56.4653915203 19.7208
2270 1 1.37161 51.5749915203 18.391
1104 1 8.06309 54.1018915203 18.6018
724 1 6.55967 49.7350915203 18.6851
258 1 1.2687 53.127374561 32.058
7946 1 -0.970326 55.5785830407 25.7185
1708 1 5.492 53.2735830407 22.5936
5555 1 0.793081 55.0518915203 15.3117
5996 1 9.09809 48.9155830407 19.5819
7041 1 4.2423 55.4235830407 18.9253
678 1 0.818055 59.655374561 30.8988
7956 1 9.82011 56.3176915203 22.0763
3259 1 1.89669 50.6720915203 15.5582
1687 1 6.98005 56.8705830407 22.5206
5182 1 11.0205 51.3565830407 30.7061
3704 1 -6.5827793752 55.8115830407 30.2927
264 1 -6.60307 58.392374561 30.8616
3970 1 -4.58295 58.6447915203 21.8712
2872 1 -3.59365 55.5675830407 24.8755
7544 1 3.62957 54.8435830407 25.0509
5319 1 10.1437 54.2391915203 20.4616
2542 1 10.9111 55.3925830407 24.4405
5657 1 -4.77759 53.2485830407 26.1301
5497 1 -2.19468 50.857374561 31.9617
4808 1 8.69074 50.5875830407 23.6414
3273 1 -5.58734 50.369374561 29.7999
6459 1 3.49782 53.105374561 28.1079
6690 1 5.85384 57.4935830407 25.7739
1879 1 -7.30662 58.7105830407 22.4654
7243 1 11.711 49.0375830407 18.6846
7299 1 3.6488 57.1835830407 30.7462
6957 1 -6.89679 51.4735830407 25.9546
5025 1 -2.8379 49.7525830407 22.3654
1118 1 6.48304 50.2228915203 16.0501
2445 1 1.16745 52.228374561 29.4207
3650 1 8.91526 51.6195830407 26.4357
2899 1 -1.87075 55.882374561 29.6387
4433 1 11.2021 52.0255830407 28.0296
649 1 9.87312 58.600374561 31.6507
901 1 4.71644 47.9601915203 19.6679
5629 1 2.6078 58.9535830407 28.6932
4375 1 -1.78736 49.7705830407 26.0651
4456 1 7.85685 57.9295830407 27.9344
6513 1 -7.3083793752 56.3195830407 23.9496
801 1 5.37719 52.8215830407 26.0789
7144 1 8.29461 52.122374561 30.7697
4232 1 11.1441 59.5395830407 29.258
4934 1 8.04969 54.783374561 31.2274
4551 1 5.88775 50.8036915203 24.1158
7384 1 4.55223 51.428374561 29.9648
5156 1 4.34844 55.6845830407 28.4214
1066 1 8.94225 54.4305830407 26.2059
2487 1 6.83858 52.1845830407 28.3059
5455 1 -3.88609 54.7405915203 16.7956
7014 1 -0.322688 59.5755830407 28.2083
4978 1 11.4085 54.8695830407 28.0921
6071 1 7.13654 55.1785830407 28.5276
2508 1 1.6289 52.936374561 26.0256
7665 1 10.6532 55.9475830407 30.7884
6246 1 -5.7968793752 47.1670915203 15.981
2806 1 0.982913 50.1785830407 25.4449
6184 1 -0.536783 53.9095830407 27.9245
628 1 -5.72304 57.1615830407 26.1951
6251 1 1.76028 55.745374561 32.2273
2326 1 -2.62612 56.5456915203 21.1771
865 1 -6.8594793752 49.9485830407 20.8919
6659 1 0.586675 50.5675830407 22.801
240 1 -3.59632 52.2365830407 29.9976
7662 1 -0.486105 57.124374561 31.6767
325 1 -4.1033 54.802374561 30.8235
7477 1 -8.3913793752 53.5905830407 24.4751
2039 1 -3.2804793752 47.4125830407 16.9163
5606 1 11.8385 51.9925830407 21.3229
7466 1 -4.17014 59.6445830407 30.4045
587 1 0.328519 58.0075830407 25.9327
5314 1 0.635356 47.2550915203 17.2168
4628 1 -8.3968793752 59.4565830407 29.0975
1609 1 6.28266 56.8715830407 31.889
208 1 -0.595112 48.2265830407 21.479
1188 1 -7.6998793752 59.1305830407 26.5691
2242 1 -3.93161 59.1165830407 26.3976
548 1 3.47347 59.7505830407 32.3108
961 1 -7.9467793752 48.8145830407 23.2105
1221 1 -7.5330793752 53.7053915203 15.2849
1892 1 -8.07611 50.485374561 28.3408
4221 1 -7.6158793752 49.2404915203 15.5355
4449 1 4.97888 52.999374561 32.332
1606 1 0.856643 59.0665830407 23.5143
1293 1 -6.23318 52.698374561 33.9913
5828 1 -0.967805 59.816374561 35.8177
6724 1 7.95379 60.2591660814 47.5534
229 1 0.690409 62.307374561 42.4728
6125 1 5.53412 55.3451660814 45.9861
1437 1 3.90365 57.2121660814 44.3833
7373 1 4.02364 53.7411660814 40.9665
6844 1 10.0596 55.3761660814 48.3791
540 1 -5.55842 56.6181660814 43.2067
2009 1 10.8247 52.145374561 33.4159
3092 1 3.9334 58.1171660814 48.1649
2725 1 1.40424 54.0061660814 43.7578
5323 1 10.6575 60.2851660814 47.2065
2496 1 2.53358 59.5661660814 43.7273
3471 1 6.15511 55.437374561 41.3887
516 1 0.0275737 57.0431660814 41.9301
5857 1 -1.06611 57.4851660814 44.4269
5162 1 -4.22612 56.232374561 40.8056
2324 1 -6.92233 60.3111660814 46.7825
809 1 -1.61461 55.3051660814 40.5645
1645 1 -1.84841 61.581374561 38.0029
5655 1 -5.2183 53.022374561 36.7332
6618 1 -0.197841 54.413374561 35.8694
4393 1 -0.672071 56.1661660814 47.0634
6668 1 -3.62582 55.7481660814 46.9726
2040 1 -0.649147 58.2501660814 48.8775
3905 1 -4.17373 54.6031660814 44.4566
2062 1 -0.809335 53.360374561 38.4544
2923 1 -2.49373 53.4051660814 42.3769
4420 1 -8.05387 54.321374561 39.5327
6554 1 -0.565661 61.9421660814 44.853
5275 1 -4.05265 55.765374561 33.3605
3024 1 -1.2297 54.5601660814 44.6943
6458 1 -7.6874793752 58.923374561 38.8906
2660 1 -4.63578 54.3891660814 49.1441
781 1 10.0804 57.480374561 43.3837
6654 1 -2.06514 61.6481660814 49.3737
7601 1 2.50273 53.370374561 35.7226
6393 1 -6.2843793752 63.019374561 47.7095
2894 1 6.68435 53.678374561 37.3701
5847 1 10.4344 53.664374561 40.9248
2470 1 -3.04746 54.052374561 35.2288
6418 1 -2.29308 58.069374561 33.7538
2801 1 9.29825 54.680374561 43.2581
6016 1 8.1617 54.335374561 39.8188
6571 1 5.98362 59.2451660814 44.5071
4853 1 6.72357 53.9321660814 43.6856
6472 1 6.55227 57.8981660814 47.037
3519 1 -7.58985 51.267374561 36.137
1786 1 2.71648 55.9341660814 42.1738
1548 1 -3.0534793752 60.5255830407 32.7981
7399 1 1.14682 60.3431660814 48.3779
3014 1 2.08442 57.1111660814 46.3883
1746 1 11.8606 58.4171660814 45.4465
7444 1 -4.6690793752 58.4921660814 46.5837
3889 1 0.322848 62.8381660814 48.7552
4858 1 7.34724 57.5691660814 42.8185
268 1 9.56345 61.520374561 38.1223
927 1 -3.26579 59.2381660814 48.8121
7669 1 -3.60332 58.6771660814 43.9963
4535 1 3.81428 58.674374561 34.9077
2606 1 -5.60818 55.251374561 38.5776
3880 1 11.9503 60.871374561 36.7725
4469 1 -4.51833 61.497374561 37.0399
502 1 -3.34091 56.265374561 37.1432
5803 1 2.89084 54.3561660814 46.2197
4593 1 1.5497 59.481374561 36.6284
2136 1 -3.49841 58.870374561 41.0769
5871 1 -7.27508 56.876374561 37.0347
4547 1 -7.2119793752 59.493374561 33.3285
6652 1 4.31199 61.6201660814 44.0395
1860 1 -1.37959 59.407374561 39.6354
3067 1 -5.42775 60.161374561 39.5715
5529 1 -0.883488 52.711374561 33.8165
3141 1 7.81492 62.4561660814 49.5656
2228 1 -0.987667 57.083374561 38.3018
7342 1 0.804282 53.9711660814 48.3037
3521 1 -5.80596 62.266374561 44.9656
4601 1 4.03741 53.450374561 38.1872
7454 1 -5.96481 57.633374561 34.7507
764 1 -3.77507 63.5481660814 48.6397
641 1 6.88353 61.8881660814 45.4875
6111 1 -6.90872 55.353374561 33.178
7709 1 11.1368 62.4251660814 45.592
4078 1 10.3743 58.455374561 39.8119
5992 1 6.48308 59.470374561 40.7176
5805 1 6.50224 59.157374561 36.0391
4298 1 4.54822 57.454374561 40.5148
3223 1 6.26069 56.308374561 36.5949
7719 1 7.99402 59.230374561 38.482
2082 1 4.62072 61.344374561 39.6877
6552 1 -3.8018 58.855374561 36.1028
3078 1 9.71702 56.308374561 35.2908
7759 1 8.13418 58.051374561 33.7888
1516 1 6.67314 50.583374561 32.6051
6796 1 10.1761 60.187374561 42.0286
4672 1 8.95998 54.078374561 33.7539
6869 1 -3.13304 61.5171660814 44.0057
7465 1 -5.90008 62.454374561 40.9253
3969 1 8.93688 56.391374561 37.8683
6191 1 -3.12019 51.712374561 37.9261
7362 1 2.98564 51.638374561 33.615
862 1 7.67402 61.057374561 42.7767
6351 1 6.80003 52.650374561 34.6981
2338 1 1.41034 56.675374561 36.8873
4457 1 2.98285 56.054374561 34.7099
3375 1 3.82983 56.231374561 38.1611
1218 1 -7.67944 62.806374561 42.969
2813 1 5.57279 55.180374561 34.0716
5761 1 0.819915 59.685374561 41.3675
1009 1 2.08259 60.824374561 39.0877
4915 1 0.644859 59.634374561 45.7322
7649 1 7.94469 56.8501660814 49.2589
1556 1 11.7418 56.356374561 41.1762
6691 1 5.03224 62.7561660814 49.4256
3813 1 9.99717 62.664374561 40.5891
4931 1 -5.74987 50.437374561 32.5742
6725 1 8.15428 60.882374561 34.4163
3528 1 5.16728 61.435374561 36.9967
5178 1 10.6158 61.048374561 33.1229
7637 1 5.2736 63.9511660814 46.7309
3381 1 -7.25957 52.465374561 41.3945
7864 1 5.40666 62.891374561 41.807
4162 1 3.57498 60.4361660814 49.6373
1922 1 6.08911 61.3599576017 63.7263
3848 1 4.21117 64.0541660814 51.8587
7449 1 3.0924 55.9229576017 54.4933
3072 1 -3.81476 64.9941660814 54.484
1453 1 7.13647 57.6549576017 57.6135
2648 1 -5.71966 61.5923121124 65.1231677013
5406 1 9.83018 58.2859576017 63.1497
6859 1 5.37533 63.3959576017 60.4689
6706 1 -3.98033 60.1209576017 60.8761
2690 1 1.86202 61.3059576017 66.5967
4405 1 4.22308 63.0429576017 57.976
2185 1 -2.12569 61.4389576017 62.5855
6517 1 -1.91574 62.7409576017 59.2884
5283 1 -2.0005 59.1073121124 65.9211077013
6749 1 -2.9924 61.4879576017 65.0987
1082 1 1.49718 55.4271660814 50.7706
2164 1 3.64422 59.246749122 66.757
4687 1 -1.1120793752 64.0129576017 61.7089
3518 1 3.90419 56.5351660814 50.3867
4833 1 -6.25718 59.0259576017 61.4719
3575 1 5.40422 63.9099576017 63.219
380 1 6.08415 54.9901660814 50.0708
1561 1 5.73486 60.9039576017 66.5344
3638 1 2.46037 65.6409576017 66.5189
4101 1 7.94689 59.0979576017 59.9299
662 1 3.1035 65.4799576017 63.8686
1980 1 -0.126377 63.7251660814 53.1434
1634 1 -7.11685 58.6859576017 57.1122
1260 1 1.49724 64.2441660814 50.6981
5905 1 9.71367 63.5442121124 63.9531077013
5654 1 -3.17381 56.5371660814 54.8655
5568 1 1.63124 63.3949576017 62.4499
3921 1 10.2136 60.5569576017 61.161
6156 1 -6.49159 63.7949576017 63.9243
6912 1 10.7706 66.1599576017 61.8034
1547 1 -7.3421793752 56.2399576017 58.6483
992 1 8.76213 60.8459576017 63.6969
2207 1 5.64999 60.5369576017 61.0457
7150 1 1.61929 61.1159576017 63.8677
7385 1 11.3626 66.0199576017 64.589
1555 1 7.5874 56.1389576017 55.3346
4812 1 3.90208 59.742749122 63.1574
3120 1 -8.0165 61.6801660814 55.1658
7736 1 -1.96716 65.0789576017 64.4437
179 1 -4.49454 65.7559576017 63.8481
1401 1 -3.4451793752 55.8659576017 57.7282
6431 1 -7.6181 57.2881660814 54.6268
4661 1 7.49751 65.2799576017 64.2554
2589 1 9.70821 61.8671121124 66.4168877013
3034 1 1.25798 59.6029576017 59.9883
7456 1 8.07214 65.3301660814 57.926
1938 1 -6.47619 63.2509576017 61.1812
5904 1 -4.843 62.0259576017 59.1074
4636 1 2.81006 62.0099576017 60.3807
2534 1 3.7832 57.252749122 64.5499
3722 1 4.86016 56.4509576017 58.8425
2853 1 -0.153624 56.9789576017 59.6398
7425 1 -5.61882 55.3581660814 55.0213
3918 1 11.3825 60.1009576017 58.4081
2916 1 11.0456 57.4841660814 52.0835
2127 1 -0.984453 60.3639576017 58.5071
6608 1 7.79341 64.2439576017 55.3222
3415 1 -0.201517 59.4409576017 62.5165
5892 1 -6.8357793752 63.4611660814 51.6989
4260 1 2.67132 56.6129576017 57.056
6319 1 2.14591 59.3339576017 57.2885
1607 1 0.461973 62.7251660814 55.8074
5667 1 -1.49754 64.3389576017 57.1157
5328 1 4.24384 60.8411660814 56.2353
6338 1 -5.31178 61.5421660814 55.6132
713 1 -4.26705 63.8071660814 56.9007
5351 1 8.46671 60.9349576017 57.8869
6958 1 -4.17351 63.2731660814 52.3917
665 1 9.97614 62.6841660814 56.1992
2630 1 0.259066 59.8071660814 53.0443
6818 1 10.9878 61.8461660814 51.9697
3654 1 6.97081 58.2179576017 53.7543
2330 1 4.47695 66.1069576017 60.3809
3456 1 0.738198 66.2919576017 62.549
6254 1 -1.65273 61.6081660814 52.1451
5248 1 4.43263 57.8691660814 52.8803
1342 1 9.27574 56.7259576017 60.9676
588 1 11.1379 57.2039576017 58.966
1277 1 -0.152541 60.0431660814 55.8043
521 1 -5.09763 56.7259576017 60.1233
328 1 2.90054 64.0491660814 55.6635
3052 1 2.97428 60.0671660814 52.5448
1481 1 -6.45421 54.5841660814 51.2514
6078 1 -4.53953 59.6631660814 57.4578
6926 1 3.65187 58.3429576017 60.6256
5546 1 -1.72227 66.7989576017 60.7582
5603 1 -6.50822 59.178749122 64.1144
6602 1 -0.269662 57.4821660814 51.5514
5637 1 8.52559 61.0371660814 51.9283
419 1 -6.68257 57.3911660814 51.9264
6497 1 8.61767 58.3291660814 51.4535
6792 1 10.0416 63.5009576017 61.1827
5262 1 4.23135 62.1081660814 53.7498
392 1 7.94115 63.0939576017 59.4622
3059 1 -6.3539793752 65.7809576017 60.1648
7675 1 -1.01448 57.3590121124 64.1059477013
4854 1 -4.2704793752 58.4831660814 51.4056
6362 1 10.6926 64.5711660814 51.8755
5173 1 11.7502 61.3971660814 54.4845
2506 1 -2.83183 59.1389576017 55.3972
2736 1 -4.10158 60.5701660814 53.2166
7794 1 6.82922 59.8901660814 55.9081
3179 1 7.12385 61.9571660814 54.1102
7432 1 -1.79599 63.4189576017 66.7382
6441 1 -2.66582 56.3591660814 52.1404
2468 1 8.44114 57.4743121124 65.3922377013
915 1 -2.70725 58.1909576017 59.2131
3897 1 -0.593024 67.5619576017 64.7157
6239 1 11.6678 64.3989576017 57.6798
3828 1 5.20881 65.6231660814 55.0255
5896 1 -5.2308793752 67.8209576017 65.5037
1329 1 -7.95238 61.6551660814 49.7996
27 1 -5.66626 66.1211660814 57.4643
2331 1 10.2908 66.3629576017 58.8589
7737 1 7.11592 66.1069705921 66.9820777013
5131 1 28.4068 21.0936915203 3.71689
7867 1 15.9597 13.0361915203 4.19758
6059 1 13.5237 21.3188915203 2.16958
1834 1 13.8875 23.2442915203 9.49394
7632 1 21.3789 21.2578915203 0.483805
3093 1 31.3159 12.0603285299 -0.4627777013
864 1 29.0149 16.7774915203 4.44389
3396 1 18.1527 14.5181915203 1.65861
7308 1 25.4469 18.5299915203 3.1192
7200 1 13.3981 16.8409 1.63045
2561 1 29.2129 13.8042915203 -1.35689
1620 1 22.9848 22.0515370096 4.7974222987
1736 1 18.8036 21.9136915203 6.44336
3069 1 20.8018 19.1125915203 2.02826
3587 1 13.3949 22.7772915203 12.0585
3443 1 26.8238 17.7336915203 -0.784546
6519 1 15.9967 22.2661915203 1.42723
417 1 20.3727 19.8585830407 12.1828
1213 1 20.6685 14.7013285299 0.5720222987
3792 1 22.4278 13.1098915203 1.98405
277 1 26.9671 15.8717915203 2.73053
7573 1 12.3294 17.3088915203 5.03226
920 1 25.9751 20.2289 0.866364
6180 1 21.7646 17.3468915203 11.4784
1581 1 29.7739 20.8492915203 10.5654
4736 1 28.9691 20.8376915203 1.02812
7579 1 28.8086 16.0392915203 0.44966
4478 1 31.007 20.5901915203 4.61269
6794 1 17.6987 20.9058915203 8.80851
6874 1 29.2642 23.3513915203 13.716
2103 1 30.3721 18.5136915203 0.616955
4583 1 21.2999 22.9491915203 6.65447
1402 1 31.8594 16.3381915203 7.94375
7072 1 22.1052 21.4749915203 8.88629
64 1 24.6056 22.3974915203 9.80099
3081 1 16.2224 23.1647915203 5.79089
6778 1 15.2089 21.5694915203 7.89919
5609 1 31.8537 14.6595915203 10.1242
2375 1 29.059 22.7231915203 8.42906
5476 1 24.7852 16.792 0.834048
4335 1 21.9316 19.6276915203 4.48083
990 1 15.5072 17.3978 -0.131967
3352 1 32.0684 19.3143915203 11.4373
7213 1 15.9865 17.6532915203 6.78948
1787 1 13.7131 22.4732915203 4.59402
2754 1 18.0987 19.4149915203 2.78391
1731 1 25.3473 22.9210915203 5.85942
646 1 12.253 14.8905830407 11.3089
4148 1 18.1399 22.5988915203 10.9945
2529 1 17.7049 13.7767915203 8.1461
5586 1 16.9034 19.6939915203 0.260521
5063 1 23.4884 20.1225370096 -0.6273777013
590 1 19.9317 16.5305830407 13.3756
5263 1 22.5643 15.0216915203 4.37055
5958 1 31.0468 21.2134915203 7.21261
6366 1 16.839 16.7915370096 2.5083222987
7386 1 22.3371 17.8465370096 -1.7940777013
4239 1 17.8496 22.0176915203 3.6498
7768 1 21.9504 17.0531 0.778231
242 1 20.0556 17.6239915203 8.28254
6469 1 32.3525 18.6696 -1.38996
3442 1 14.6301 15.6405 3.84879
1639 1 28.1409 16.2945830407 12.5735
2999 1 29.2452 14.2877830407 10.9002
6436 1 19.7775 19.3566915203 6.12314
6282 1 16.921 13.1814 -0.415575
6336 1 31.8428 15.4806915203 2.70991
3645 1 31.0739 23.0172915203 11.6999
3892 1 27.4988 18.9553915203 4.96529
2623 1 26.495 24.1115830407 13.4923
6087 1 25.28 13.7000915203 4.0503
2128 1 25.5915 16.0605830407 11.6767
7739 1 29.8117 15.3316915203 6.65349
5646 1 20.2923 14.9145915203 7.64161
7161 1 13.915 18.3081915203 11.5194
2223 1 25.9462 19.7305830407 13.1812
6653 1 18.7511 13.0021915203 4.02337
5956 1 17.3893 18.2053915203 9.0963
1598 1 22.1186 15.0607915203 9.82452
4963 1 26.5619 21.7875915203 7.99481
7594 1 14.2004 20.4415830407 13.278
5043 1 28.4368 17.9543915203 9.04707
381 1 26.6285 19.0945830407 7.49568
2202 1 25.0974 22.2045830407 12.4587
5431 1 31.0157 18.8465830407 8.76532
1223 1 22.2099 19.6815915203 14.5436
6101 1 24.4263 17.6487915203 7.53251
4531 1 17.9822 18.5255830407 12.8859
7859 1 31.252 18.1308915203 3.27769
1061 1 27.702 15.3575830407 8.58585
5167 1 26.7572 13.5355915203 6.51072
7359 1 17.4273 14.4233830407 10.8049
7274 1 19.1349 20.8625915203 -1.2059
2657 1 16.9456 21.1205915203 13.1047
7554 1 24.8715 15.2998915203 8.91819
1912 1 20.8406 22.5515830407 11.1046
2913 1 12.1722 14.3725 5.04988
7677 1 30.3808 18.9119915203 13.6481
2567 1 28.1263 18.8919915203 11.7654
6805 1 13.6357 19.2500915203 7.02255
5712 1 18.1035 17.6220915203 4.84742
7024 1 29.8616 13.6154915203 1.55359
2019 1 26.9345 13.1080915203 1.67978
7605 1 19.8851 15.4639915203 4.9816
3739 1 13.5695 14.4373915203 7.59945
1948 1 22.5771 22.3085830407 13.5743
3245 1 14.6293 11.7965370096 0.0559222987
797 1 23.6055 17.5013915203 4.95684
1235 1 24.6903 13.9736915203 0.242207
793 1 23.9816 17.7315830407 13.2016
2968 1 16.322 17.0515830407 11.3673
2817 1 22.434 18.8299915203 9.09945
5194 1 15.9029 14.9475830407 6.50967
5929 1 14.8759 14.6572830407 12.2687
1471 1 12.4415 18.4918915203 9.32005
2937 1 12.1216 12.6365370096 -1.0485777013
2640 1 16.1966 15.3758 -1.87139
5148 1 13.1554 24.9911915203 13.6307
509 1 14.4033 14.8105830407 15.0574
98 1 12.2047 19.1131915203 2.75378
141 1 22.0852 25.1813915203 14.0823
667 1 30.1803 21.1665830407 14.9542
5511 1 12.0506 17.0965830407 13.2013
4125 1 15.4031 24.5885830407 15.159
7828 1 19.9353 19.5995830407 16.3145
2555 1 17.9019 19.962374561 30.3448
279 1 17.6999 18.0845830407 15.6371
5488 1 24.1001 16.8475830407 15.7838
1077 1 28.5137 24.4915830407 17.5639
3688 1 22.179 24.574374561 29.3911
4471 1 26.6268 20.6491660814 32.0966
3667 1 32.4058 17.755374561 21.5727
1690 1 21.3052 16.4195830407 15.793
7656 1 19.0449 17.846374561 22.4055
1143 1 28.2579 18.704374561 25.5074
4474 1 27.5573 23.695374561 29.3697
6584 1 13.9359 18.6455830407 22.6657
5775 1 29.3851 21.230374561 25.5396
880 1 18.3907 17.3945830407 19.877
314 1 25.7972 16.852374561 22.1397
5888 1 14.5528 20.8015830407 15.9461
2273 1 29.904 25.522374561 28.4229
6424 1 13.1457 16.616374561 20.8438
5713 1 12.6858 21.7655830407 20.121
5499 1 17.8944 19.359374561 24.4934
2744 1 13.3849 17.5835830407 18.1819
2658 1 19.8742 20.404374561 28.4624
1833 1 26.6756 25.198374561 31.687
6440 1 25.0916 18.931374561 28.5866
3237 1 23.8577 19.545374561 25.9395
5771 1 25.8024 27.3045830407 26.5223
3114 1 29.8805 27.764374561 29.9668
6070 1 18.3053 24.113374561 30.5209
5942 1 21.5366 18.574374561 23.1994
1681 1 15.7113 23.522374561 29.8129
4371 1 19.7328 24.670374561 28.12
4537 1 14.4832 20.465374561 26.7044
522 1 23.2953 22.333374561 30.5253
1878 1 32.1416 17.224374561 24.3818
122 1 30.2582 23.258374561 30.2357
1106 1 25.7027 21.542374561 29.4229
3960 1 17.0832 15.3055830407 15.8938
427 1 21.4635 20.345374561 30.6766
4189 1 19.3829 18.389374561 26.5739
7861 1 21.9219 27.748374561 27.8003
5272 1 29.6642 18.788374561 29.8712
1423 1 32.3984 17.8235830407 15.3724
6286 1 27.7633 18.170374561 28.1011
7392 1 21.8692 17.520374561 25.9264
5255 1 23.8547 25.561374561 27.3414
7992 1 25.7146 21.1005830407 15.7322
3919 1 29.5119 17.9785830407 21.6719
4836 1 26.1267 23.8145830407 16.4202
424 1 15.5876 20.799374561 29.219
795 1 16.8075 22.2125830407 15.4923
2389 1 25.8447 18.6075830407 24.3097
707 1 17.0724 25.7555830407 19.4403
6685 1 12.9355 24.834374561 25.5695
6516 1 23.0284 16.5115830407 19.3848
2734 1 17.3478 26.393374561 27.9961
1906 1 18.6665 25.738374561 25.3731
4958 1 15.4618 18.232374561 24.8979
4485 1 17.3081 27.741374561 30.4854
6785 1 12.8681 24.442374561 22.8165
2192 1 20.6723 17.6605830407 18.2248
4719 1 13.4043 22.6455830407 17.5553
2002 1 13.783 19.579374561 30.8055
2533 1 17.8179 22.001374561 25.2171
2574 1 27.4669 16.9245830407 19.6972
5626 1 19.1062 26.203374561 31.9872
1065 1 32.0939 27.130374561 31.5082
6247 1 19.4387 21.3355830407 19.4914
6955 1 23.0518 21.1615830407 16.9398
6583 1 21.3309 26.571374561 25.2348
2994 1 31.814 21.4685830407 18.3569
2133 1 22.3394 24.8155830407 21.8535
36 1 15.7659 18.8205830407 17.3752
5177 1 22.57 21.930374561 25.4348
7909 1 30.3702 24.566374561 24.9195
360 1 23.7771 23.9955830407 17.8612
2318 1 21.7896 20.0675830407 19.3035
3856 1 25.7516 18.248374561 31.1052
5330 1 19.259 24.1975830407 19.0984
4930 1 14.9588 25.0615830407 17.8281
1176 1 12.4453 27.5285830407 25.5008
1125 1 25.4613 18.6405830407 17.1706
6759 1 31.2476 18.7245830407 17.672
230 1 27.1988 28.012374561 31.0198
146 1 27.5478 23.182374561 26.5503
257 1 32.2947 24.990374561 26.969
1320 1 15.2159 22.886374561 25.7482
6450 1 25.629 23.0545830407 24.3206
4925 1 26.1931 20.8085830407 22.668
4506 1 23.8084 20.6625830407 21.1337
1240 1 30.057 22.360374561 23.2889
543 1 18.042 24.032374561 23.3255
2856 1 28.3978 18.0705830407 17.1269
5266 1 24.771 22.859374561 27.123
3 1 20.085 22.307374561 26.7236
4702 1 18.4229 21.859374561 32.1202
2173 1 20.0389 23.0795830407 21.7413
3527 1 14.6936 28.115374561 31.6555
2792 1 14.8406 25.049374561 27.8792
2049 1 15.2624 23.085374561 22.9803
3765 1 21.2597 27.180374561 30.3772
2871 1 15.1005 20.8555830407 21.3386
693 1 24.2085 23.3735830407 20.4614
4630 1 28.637 20.7185830407 21.4618
6167 1 28.195 25.813374561 26.1842
4617 1 26.2127 24.546374561 22.0629
6537 1 23.3006 24.500374561 24.4649
7512 1 28.9432 24.3555830407 21.5727
7685 1 31.2571 25.9205830407 22.6649
3534 1 28.3717 20.7945830407 16.8918
1387 1 16.1541 25.8155830407 22.1461
4347 1 17.0539 19.8775830407 19.7508
2370 1 21.7958 21.1255830407 22.9086
2387 1 29.225 22.2785830407 19.2796
2018 1 25.0974 18.4875830407 19.9039
4533 1 29.2795 20.924374561 31.4872
3614 1 13.6119 27.043374561 29.326
3991 1 21.5169 23.4635830407 16.3145
6134 1 19.2373 22.2155830407 16.8429
3290 1 31.9343 21.176374561 26.5209
4946 1 32.0412 20.065374561 29.2738
3790 1 12.3174 16.2265830407 16.0581
2283 1 23.0176 16.5115830407 22.0927
3809 1 32.464 22.836374561 28.8057
2390 1 30.1532 25.3225830407 15.638
7047 1 32.4604 15.0675830407 16.3459
4007 1 12.3294 24.911374561 30.6334
1207 1 14.4172 23.8291660814 32.4196
4629 1 27.7727 15.9475830407 15.3483
6626 1 29.147 26.2155830407 19.5884
1994 1 13.4787 26.6965830407 21.2056
4388 1 30.9404 24.7571660814 32.318
4114 1 15.8245 19.3171660814 35.9386
6890 1 17.5752 29.8419576017 46.4867
3952 1 30.9826 26.9501660814 44.8504
4336 1 22.406 22.5159576017 45.1274
3475 1 22.3072 28.2709576017 48.5409
7332 1 19.2038 32.1899576017 49.501
4248 1 24.6984 29.161374561 35.0725
350 1 13.3471 26.4621660814 40.2827
1965 1 23.7918 21.5851660814 41.1363
3703 1 24.3252 25.236374561 33.3274
6289 1 28.0538 21.9511660814 38.1541
5024 1 30.1794 20.0951660814 37.9851
6467 1 12.0934 29.7881660814 45.278
3600 1 19.7214 31.4891660814 47.0656
5983 1 24.1335 23.7059576017 46.9008
2406 1 12.9827 26.8969576017 49.433
2560 1 22.256 19.6891660814 37.5346
916 1 32.454 23.1371660814 36.3794
5216 1 17.112 27.6039576017 47.9839
1175 1 14.4842 28.9501660814 36.6647
7891 1 30.5725 25.0689576017 46.9867
4486 1 20.4736 19.6941660814 35.4846
3517 1 25.3558 26.6201660814 35.6495
6598 1 21.9203 23.6089576017 48.489
7149 1 13.7077 20.5001660814 37.1772
2123 1 16.2927 23.7761660814 38.577
65 1 14.8312 30.5039576017 45.7673
304 1 28.8294 22.3041660814 40.9688
6914 1 31.9678 29.1531660814 39.6865
2302 1 19.2798 22.6351660814 43.0586
757 1 14.2122 30.7211660814 41.0514
6245 1 21.327 21.4361660814 39.6407
3391 1 19.8561 26.9089576017 48.4894
3401 1 24.3771 21.5891660814 37.1814
4453 1 31.6629 25.2321660814 37.917
5022 1 19.7553 28.406374561 35.9264
5985 1 18.4643 21.8559576017 47.1348
4145 1 16.6286 21.6561660814 40.6315
5301 1 15.8248 22.8559576017 46.7734
5520 1 26.0851 24.1279576017 44.9173
5157 1 25.4738 21.2221660814 34.5695
5780 1 19.1484 24.7641660814 36.1958
2490 1 25.0811 30.9801660814 44.0655
138 1 17.228 22.817374561 36.1631
6502 1 18.3438 23.9611660814 40.7039
358 1 12.4918 25.1071660814 45.1303
6560 1 27.1029 24.5541660814 38.9136
3986 1 20.8588 21.4931660814 33.3056
206 1 26.7316 25.1711660814 41.4749
2184 1 15.414 22.3529576017 43.0025
1253 1 28.2842 25.8959576017 45.4837
4126 1 20.6691 24.5959576017 44.3081
5875 1 12.3503 21.3231660814 40.9864
5277 1 21.3809 24.096374561 34.7987
3627 1 28.876 29.078374561 34.5768
823 1 24.465 24.0141660814 42.6954
2978 1 32.2877 24.5721660814 40.6812
4961 1 29.0622 26.1791660814 38.1254
7870 1 14.6059 29.0269576017 48.1958
4990 1 15.2444 26.1051660814 33.6121
1894 1 30.0187 32.5419576017 49.4291
6380 1 30.5525 21.4131660814 35.6653
6672 1 17.0037 26.2011660814 41.6845
5536 1 28.657 24.1431660814 43.2202
5760 1 22.8099 26.0761660814 43.1055
4894 1 18.5804 26.3621660814 44.0934
4 1 22.8915 23.998374561 37.2499
4283 1 19.5137 26.764374561 38.2994
2603 1 15.0938 24.6511660814 44.5553
3745 1 25.9934 27.5811660814 46.2207
1302 1 17.9515 26.547374561 34.4475
4667 1 20.6162 24.1671660814 38.9826
838 1 13.8533 24.7451660814 38.0176
1773 1 17.1912 25.4369576017 46.3582
5720 1 31.0622 19.969374561 33.4102
2125 1 13.5676 26.5171660814 35.9043
4067 1 28.043 22.5281660814 35.3146
1497 1 24.2683 28.2859576017 44.0064
7460 1 19.7199 24.4459576017 46.9425
5428 1 30.3604 26.0911660814 42.0023
7781 1 31.0545 29.5179576017 45.9451
1021 1 22.0936 30.2829576017 46.7262
6699 1 29.5053 27.8811660814 40.1404
4548 1 14.5671 26.9451660814 42.801
7925 1 25.547 27.7651660814 41.5397
2394 1 30.0055 22.7109576017 45.4735
644 1 29.8116 30.0599576017 48.3191
1745 1 27.1436 29.6579576017 47.6914
3912 1 25.9611 31.6591660814 46.4276
4040 1 18.3035 30.2771660814 42.0225
7084 1 27.3567 29.5021660814 40.6293
2194 1 28.145 26.6411660814 35.5868
5700 1 27.3025 21.8379576017 45.794
3001 1 31.5475 22.0401660814 41.1514
409 1 23.5108 22.6151660814 33.2494
6033 1 21.4 26.6601660814 40.5111
7400 1 16.2068 22.096374561 33.6316
5717 1 17.5515 28.3491660814 39.9552
2152 1 19.0601 28.9711660814 44.4185
3407 1 26.249 19.8551660814 38.2343
192 1 24.2603 26.2429576017 47.9606
2735 1 15.6344 29.5461660814 43.1531
4140 1 15.0027 19.3911660814 33.3099
1100 1 16.3226 23.2769576017 49.4421
166 1 14.8435 28.6461660814 39.3961
4178 1 18.3358 20.4181660814 36.9036
7062 1 12.4419 22.8011660814 36.3008
3586 1 28.5478 24.8261660814 33.6859
598 1 13.1049 21.0339576017 43.6419
3350 1 17.3968 21.2849576017 44.6891
7643 1 21.8307 29.7971660814 44.03
1694 1 20.886 29.3441660814 41.3296
2552 1 32.1755 21.8669576017 43.8624
7479 1 21.6997 26.341374561 33.1451
6256 1 23.6658 27.8531660814 39.5264
5332 1 22.0876 28.820374561 34.3064
7936 1 24.7396 25.8231660814 38.0168
4689 1 12.1249 22.7981660814 33.5369
6628 1 17.076 29.1871660814 35.3074
3613 1 29.5103 25.9449576017 49.5765
2381 1 18.7285 20.0271660814 39.5673
1741 1 14.4255 20.1879576017 39.7765
5684 1 29.7766 31.0279576017 43.892
4340 1 31.6297 30.9809576017 41.9893
3932 1 31.1896 29.125374561 33.138
2093 1 22.302 30.3271660814 39.0908
4807 1 25.7561 21.7079576017 48.0485
7969 1 15.5989 26.0529576017 49.7343
3410 1 26.9798 27.984749122 66.0369
2642 1 23.2775 32.5259576017 50.4018
6036 1 26.6722 23.8229576017 53.1578
6756 1 24.3371 27.5725406424 66.6079
2478 1 17.3296 34.9314121124 62.6637077013
3857 1 31.9205 26.0339576017 56.3388
2892 1 31.8144 30.3259576017 56.757
3939 1 31.7552 29.0319576017 54.3195
3933 1 27.2082 27.0039576017 50.9059
1450 1 15.5938 33.4449576017 54.8032
2757 1 14.3386 26.786749122 63.9277
7163 1 27.9804 25.328749122 61.5797
5681 1 17.6553 22.9479576017 53.2198
5169 1 12.4446 27.653749122 58.9782
2113 1 30.0698 32.1459576017 55.7409
1208 1 14.9237 23.4339576017 53.5501
5073 1 31.4408 32.9279576017 60.3095
3121 1 19.968 33.728749122 63.6357
5036 1 30.7324 24.256749122 58.1117
5394 1 21.5014 24.4869576017 55.2569
6426 1 13.122 23.2359576017 51.3778
7390 1 15.6232 24.5089576017 57.5145
4832 1 18.7387 24.9119576017 54.7278
3047 1 20.5734 25.1529576017 50.6601
4997 1 15.7107 34.220749122 60.4734
1776 1 27.9617 31.1009576017 52.1642
5107 1 12.7727 34.345749122 60.7244
3118 1 23.0074 25.0279576017 52.055
1255 1 12.8325 29.4519576017 55.1069
1390 1 14.5815 26.230749122 59.7026
5221 1 21.2973 28.1440121124 62.9237077013
3608 1 16.9653 26.899749122 62.7595
1198 1 20.0902 25.762749122 59.6439
6236 1 17.1331 26.483749122 56.3311
5307 1 23.5112 26.143749122 56.6743
251 1 14.0851 29.179749122 65.5031
3426 1 26.4537 30.709749122 65.8831
6089 1 25.5783 24.336749122 57.2763
385 1 30.4872 26.6529576017 54.1926
7180 1 29.2714 26.2939576017 59.3673
6127 1 27.1168 26.6789576017 57.6821
1828 1 26.3658 29.6039576017 50.492
7182 1 26.7416 27.196749122 63.1832
4357 1 22.6044 26.739749122 60.7435
4573 1 22.5613 29.0747121124 65.0996977013
2188 1 25.1188 25.1659576017 50.1757
4712 1 30.2169 24.8619576017 52.09
5305 1 16.1736 29.8709576017 52.2718
2154 1 18.5672 27.665749122 58.6684
2759 1 31.201 31.558749122 65.6195
7990 1 12.6746 27.1159576017 53.757
101 1 15.217 26.1149576017 54.2465
7258 1 16.4879 27.1549576017 51.999
4710 1 18.5617 31.1519576017 51.8677
7111 1 31.7762 35.0128121124 65.7517877013
3485 1 17.4152 32.194749122 63.7552
3200 1 20.646 30.173749122 61.0715
3756 1 24.9141 28.289749122 61.5723
3128 1 25.6928 28.8049576017 59.0009
126 1 14.6979 31.668749122 64.0585
4369 1 18.5921 28.8493121124 63.6205177013
7325 1 29.6197 33.524749122 64.6797
1501 1 26.3031 26.4729576017 53.5741
1717 1 23.5804 26.9189576017 53.9451
7583 1 20.4765 29.709749122 58.2987
7471 1 16.7972 29.2559576017 56.1034
1316 1 19.8571 29.0469576017 53.0601
3479 1 28.1409 27.5249576017 55.1902
4823 1 18.7604 22.8289576017 50.7463
7560 1 18.3762 30.4795036328 65.8376377013
1596 1 29.0412 28.979749122 63.0398
733 1 30.3829 28.5839576017 60.5835
5729 1 22.9695 28.238749122 58.2936
5067 1 14.3065 29.257749122 62.4761
6013 1 19.8044 32.9321121124 66.3680777013
3261 1 23.9953 30.786749122 62.2598
2637 1 13.4643 34.203749122 63.4532
402 1 27.9206 31.434749122 63.6878
458 1 19.4029 29.9289576017 55.6563
6309 1 28.1588 30.3089576017 54.9509
6527 1 16.3686 28.395749122 60.4515
704 1 14.8401 30.9319576017 50.1862
4591 1 30.0986 30.7769576017 58.9775
5935 1 23.5064 30.8569576017 57.0985
2422 1 31.7742 32.3889576017 51.5085
2831 1 27.3194 31.1789576017 59.1392
7534 1 27.1695 34.088749122 59.6857
783 1 17.8403 30.666749122 61.4225
1295 1 22.544 29.2019576017 53.0047
1790 1 20.4315 26.3684121124 66.5397177013
1748 1 15.1555 30.8169576017 54.5416
802 1 13.0411 29.916749122 57.7825
2167 1 15.7526 30.359749122 58.3967
7894 1 26.2271 32.188749122 61.6634
3022 1 30.4961 30.0159576017 51.9347
5102 1 24.013 31.322749122 65.0571
3832 1 13.3967 24.918749122 61.835
624 1 30.4191 29.0144036328 65.3798377013
1139 1 20.5223 29.1475406424 66.8646
1120 1 23.5294 29.7989576017 50.5879
1428 1 20.1464 32.573749122 58.083
2104 1 17.4945 32.4609576017 59.0565
4191 1 19.101 26.4599576017 52.6256
5132 1 25.857 22.5939576017 50.7823
3194 1 24.3349 34.489749122 62.1464
4839 1 14.5416 32.9515036328 66.6176477013
2711 1 20.6649 25.475749122 63.7642
4877 1 22.8125 33.012749122 59.0724
1069 1 19.4861 34.082749122 60.6994
3494 1 20.2023 32.5719576017 55.1153
3412 1 27.3988 34.224749122 66.2974
2160 1 30.288 34.580749122 62.2002
2122 1 26.1824 31.5029576017 56.5896
5579 1 22.0863 32.709749122 61.8496
1022 1 24.9249 33.944749122 64.8909
987 1 22.6896 31.5189576017 54.5358
7547 1 15.0521 35.721749122 66.4202
169 1 31.8456 25.425749122 66.0031
3831 1 30.923 28.3529576017 49.8628
7595 1 12.2794 31.3749576017 50.5317
3486 1 29.2732 34.0869576017 57.6342
5279 1 20.7367 23.867749122 57.7879
274 1 13.4038 29.2595915203 0.925392
6808 1 21.2099 33.0703915203 8.30683
5843 1 16.9709 22.7975915203 -1.3624
3957 1 21.926 29.9247 1.32726
4273 1 12.2483 32.5707915203 6.29017
7716 1 21.2581 29.0655830407 13.8351
7365 1 14.0541 26.5975915203 3.6946
7723 1 23.2021 25.6018915203 -0.88447
3956 1 20.4161 31.9215915203 0.284774
7511 1 22.1773 25.9553915203 1.78152
6953 1 22.9558 31.1042915203 7.12711
642 1 17.415 25.0935915203 11.5035
2575 1 20.5314 25.0464 -2.00082
5551 1 15.5357 25.2210915203 1.55598
1782 1 17.7053 31.8254915203 0.822141
874 1 26.4415 26.0131915203 11.3551
7862 1 17.9802 31.4402915203 6.61115
63 1 13.3237 30.5686915203 13.0864
6923 1 28.1536 32.1217915203 6.41266
2878 1 25.6109 28.895 -0.7903
4408 1 13.0559 29.0926915203 3.58143
4797 1 30.6932 24.6986915203 9.56705
2530 1 17.6313 27.0567 1.02672
5914 1 30.3218 32.2677915203 2.35068
7160 1 27.6125 26.9431 -1.17021
5254 1 15.6923 31.2705830407 11.842
175 1 27.4368 23.4893915203 4.2889
4820 1 30.1881 30.7669915203 7.67916
4419 1 18.6177 26.7163915203 8.16821
1543 1 28.2429 31.4683915203 3.80045
6330 1 25.7414 31.6035 -1.54011
7585 1 18.4565 33.3255915203 8.63914
4192 1 16.7832 32.4371915203 4.32471
4966 1 13.5945 34.0620915203 9.59132
3323 1 28.7824 26.6661915203 9.98623
7849 1 24.7837 29.6097915203 1.75443
2945 1 31.0325 31.3785 -0.275588
5374 1 25.7825 33.7885830407 14.0367
6329 1 20.8214 30.6879915203 3.83803
7137 1 24.9392 23.5515370096 -1.3704777013
2224 1 14.357 30.9376915203 5.16498
2664 1 18.2457 30.3007915203 3.1572
688 1 13.0418 23.0115370096 -1.3151777013
6034 1 31.8454 31.3998915203 13.5671
5320 1 13.5812 27.5742915203 10.345
1170 1 13.8653 25.478 -0.65908
2585 1 21.7743 29.0196915203 5.64421
3808 1 25.7432 31.8800915203 3.00857
2467 1 32.3198 31.5311915203 6.33978
2772 1 24.2805 25.1278915203 9.78624
3260 1 24.3667 32.8497915203 5.33464
3333 1 28.2302 26.6362 1.46573
4802 1 21.6045 25.5045830407 11.2634
5139 1 20.101 26.1314915203 4.062
5573 1 25.5021 25.3674915203 7.21996
7810 1 20.4356 27.6882 0.622443
6772 1 25.0693 27.8805830407 13.0347
2810 1 28.3006 22.0643 -1.62673
6022 1 16.1914 29.3545370096 0.3146222987
7651 1 28.8304 33.6135830407 11.1151
5638 1 15.265 34.1155915203 11.6516
810 1 22.6677 26.9969915203 8.33422
7854 1 30.9628 25.3384 4.40015
3944 1 30.5063 28.0040915203 4.47508
6301 1 20.0037 26.8275830407 15.1016
2995 1 18.6924 24.5683915203 0.115484
2782 1 23.0527 29.6112915203 9.54347
342 1 19.5605 23.7627915203 2.48807
5948 1 18.5673 34.6475830407 15.0434
4644 1 30.9574 28.7045830407 13.485
5345 1 21.9268 34.7915830407 12.723
4851 1 19.1301 29.5175830407 12.1535
873 1 29.3487 29.0444915203 11.3506
2678 1 29.0576 24.4193915203 6.29697
867 1 27.3938 31.5861915203 13.9682
5011 1 19.2553 34.3334915203 12.4801
6610 1 13.3764 27.8265830407 13.0975
456 1 16.3046 25.6116915203 7.42887
7468 1 21.9315 33.4113915203 4.13033
2495 1 30.4908 28.0642915203 7.26026
6735 1 20.4519 30.6315830407 9.72896
1975 1 30.4103 24.7865370096 1.7571222987
3151 1 25.3878 31.2690915203 9.95777
4046 1 12.5176 31.5504915203 8.92972
6797 1 17.9334 27.6472915203 3.69276
3276 1 26.7661 29.8731915203 11.9748
577 1 27.8867 26.8176915203 7.32368
7895 1 25.8271 31.0933915203 7.22411
552 1 30.2508 31.3719915203 10.236
1190 1 29.7789 33.3245830407 13.7358
3215 1 13.6144 34.5092915203 13.8855
2727 1 15.5762 28.1035830407 14.8324
844 1 17.3418 30.2705830407 13.9753
7413 1 18.3481 32.0752915203 11.1547
1873 1 15.9181 27.4302915203 5.51074
3990 1 15.7995 29.6337915203 7.02045
2771 1 19.6226 29.3325915203 7.49585
3868 1 22.7614 27.9715830407 11.7366
4523 1 15.2707 25.4708915203 9.91431
4968 1 14.6654 29.8961915203 9.45696
7043 1 20.7262 25.7029915203 6.74245
1397 1 26.1287 24.9832915203 2.43124
6284 1 26.4056 28.7482915203 5.88095
3167 1 19.2907 27.0099915203 10.8506
2538 1 28.0332 28.6014915203 3.47645
6222 1 17.5312 26.1904915203 14.1213
7546 1 26.0656 33.6969915203 11.1546
3730 1 24.1207 27.4601915203 5.75504
5779 1 24.52 27.0995915203 3.06707
2518 1 23.0975 33.1975830407 14.6543
7654 1 12.2755 24.7609915203 4.61927
1740 1 24.6895 25.9094915203 14.9857
2205 1 24.9879 22.7640915203 1.29298
2455 1 31.1139 22.5056915203 0.502293
1616 1 22.2911 23.1591915203 2.3918
5030 1 32.4891 31.0502915203 3.65376
1569 1 32.4197 26.8584915203 8.56117
703 1 32.3487 26.4255370096 0.7752222987
1364 1 14.6373 33.9592915203 5.56216
5019 1 32.3089 27.2785370096 -1.8206777013
7806 1 13.1794 30.399374561 31.895
2917 1 13.5912 27.2995830407 18.4798
2484 1 31.0008 38.045374561 27.3214
6428 1 12.2201 32.575374561 25.0737
2691 1 17.1583 34.8945830407 20.3237
3347 1 14.6083 35.0965830407 18.5682
6709 1 28.326 31.9175830407 17.6266
4409 1 32.0582 32.9465830407 19.7742
3612 1 31.6459 28.5135830407 17.6076
6161 1 23.5428 26.8075830407 17.6018
923 1 23.6859 31.1935830407 19.9714
5135 1 17.7416 30.6795830407 21.3849
3247 1 21.4005 36.407374561 25.9199
4789 1 15.1126 31.5045830407 17.0013
1683 1 23.3385 36.2195830407 20.724
4519 1 18.9239 32.8335830407 20.3436
4635 1 15.6667 28.8825830407 17.5219
7022 1 27.7081 32.9545830407 21.4653
1801 1 21.8216 34.616374561 27.8941
2452 1 23.2032 32.1245830407 22.4228
2498 1 29.3987 34.2405830407 25.5412
6420 1 20.8095 33.4725830407 22.2709
2373 1 15.4458 34.570374561 28.3284
3824 1 20.3664 28.2865830407 18.8461
151 1 21.5657 30.5675830407 18.1108
6263 1 15.5682 34.6695830407 22.6465
5594 1 29.1185 34.2505830407 16.2242
1707 1 19.9613 32.6655830407 17.8825
7711 1 21.9939 34.2455830407 16.8344
1514 1 31.3404 34.685374561 23.7883
772 1 25.6898 33.579374561 23.1609
7746 1 15.281 28.501374561 27.6312
3707 1 19.7036 38.402374561 30.0359
2092 1 26.0859 32.5445830407 19.2658
1409 1 17.7247 32.2195830407 16.0721
6196 1 21.5919 27.5515830407 21.3086
866 1 24.213 34.6255830407 18.5931
631 1 24.8214 28.8185830407 15.8371
2607 1 31.4326 35.796374561 31.0469
6442 1 30.2232 34.1935830407 21.2456
5675 1 19.8289 34.4195830407 24.6553
2618 1 15.3758 31.8995830407 21.9285
6504 1 30.4301 30.8025830407 18.836
2063 1 14.0972 32.2925830407 19.5226
6613 1 12.0772 30.5715830407 20.8597
1410 1 25.7394 29.6665830407 18.4337
7728 1 28.4992 36.7765830407 26.365
4313 1 28.9513 30.4885830407 21.5547
2193 1 16.2265 36.570374561 26.6272
7617 1 17.5285 35.7725830407 24.2389
3705 1 17.5356 28.6945830407 19.4572
4290 1 20.8243 25.9855830407 17.507
3850 1 29.3401 36.717374561 29.1974
299 1 27.1796 32.562374561 25.2039
935 1 24.4769 34.887374561 28.5404
3248 1 31.6892 27.2345830407 20.0949
5258 1 16.9867 37.794374561 30.9102
2165 1 20.7353 36.0585830407 21.597
3842 1 12.8869 34.501374561 29.1625
5735 1 29.6773 28.0155830407 15.7644
7748 1 14.4229 29.2605830407 22.0039
7578 1 24.3635 30.607374561 31.3301
7396 1 26.9725 35.081374561 31.7023
7375 1 13.197 36.074374561 22.5412
3207 1 20.7898 32.1085830407 27.89
3533 1 29.7888 32.717374561 31.8279
946 1 25.8199 37.2065830407 27.4238
6475 1 27.1311 37.816374561 30.8859
6617 1 14.8271 31.670374561 24.7408
7439 1 19.1209 34.206374561 31.57
6905 1 30.0028 36.1965830407 19.5216
6979 1 31.573 29.4325830407 21.9702
7364 1 17.5736 30.536374561 30.9367
2424 1 18.7136 29.8655830407 23.9235
1357 1 23.9596 28.2635830407 20.1332
1749 1 12.9908 32.1577915203 15.3886
5072 1 14.6472 28.9295830407 24.8182
5129 1 27.6232 28.3965830407 20.0411
5577 1 23.967 37.252374561 25.4057
5195 1 22.7737 30.3805830407 27.0778
613 1 27.7411 30.127374561 23.9874
6097 1 23.1588 30.166374561 24.3984
1250 1 21.1624 28.7415830407 23.7259
2951 1 16.2763 32.4935830407 26.827
7993 1 14.1386 38.184374561 25.937
466 1 26.7292 29.010374561 28.4774
1097 1 31.9321 28.1515830407 24.3458
1515 1 29.3375 29.887374561 28.0662
617 1 27.5574 29.6785830407 16.0673
3463 1 21.8274 29.650374561 31.5616
3946 1 30.8258 30.373374561 30.5581
4856 1 30.0389 32.554374561 27.6098
7395 1 31.171 35.6335830407 17.2
7531 1 18.7306 32.019374561 25.9357
1781 1 25.7236 27.1725830407 21.9882
200 1 13.2408 31.780374561 29.4611
7482 1 15.7079 30.882374561 28.922
2156 1 28.6571 33.975374561 29.579
3271 1 20.0695 31.572374561 30.5576
4084 1 26.5023 33.144374561 27.9155
6230 1 25.4239 28.7255830407 24.2482
6883 1 24.3147 34.876374561 31.2821
5730 1 29.2946 28.366374561 25.5075
3239 1 24.8977 30.937374561 28.5765
2582 1 20.7866 35.967374561 30.1176
3672 1 24.9237 36.1925830407 22.9971
2940 1 16.4244 35.178374561 30.9099
762 1 26.9596 35.6945830407 15.6613
2250 1 14.5766 36.0543915203 16.0422
372 1 32.2941 36.859374561 25.2893
1359 1 22.6812 30.5095830407 15.6055
2200 1 17.0684 27.7565830407 24.2267
2051 1 22.5303 36.570374561 32.3495
1476 1 17.3986 38.601374561 28.1834
7889 1 20.105 38.582374561 27.2579
2553 1 24.5917 32.786374561 32.9631
3210 1 26.0814 40.5371660814 44.8491
878 1 23.1989 41.4169576017 48.1676
2086 1 27.6992 34.3439576017 49.3108
5991 1 29.2758 35.2421660814 39.9805
3097 1 23.6335 39.015374561 35.6549
4907 1 14.7067 39.733374561 34.5028
203 1 14.7092 35.4851660814 41.1793
824 1 26.3602 34.0121660814 42.3853
6449 1 12.7791 36.4921660814 39.5831
6862 1 31.593 34.122374561 33.4201
3975 1 18.6764 36.9441660814 43.023
4220 1 19.2865 39.0851660814 44.7529
2768 1 16.6236 40.184374561 38.2203
6035 1 23.7268 35.0029576017 46.904
5268 1 22.7574 32.5871660814 40.9737
7661 1 26.7447 38.4771660814 46.5286
7301 1 13.6438 32.748374561 36.1911
7335 1 16.0712 37.4481660814 46.9835
4981 1 13.7789 38.1711660814 44.379
3646 1 12.2147 39.233374561 33.6139
5834 1 31.3885 38.0649576017 44.5425
2673 1 21.1173 35.6631660814 46.6749
5881 1 17.693 30.3711660814 37.8955
5399 1 19.7258 36.0049576017 48.9847
639 1 20.5012 33.4161660814 45.2196
1986 1 21.5636 37.8161660814 45.2954
5470 1 15.1298 32.9071660814 46.9963
4620 1 17.5854 39.6991660814 46.8644
4979 1 16.1026 35.0131660814 45.4539
4063 1 30.9453 35.6031660814 43.3727
4700 1 29.4906 39.2511660814 46.0478
1352 1 13.8408 35.4421660814 43.8751
1788 1 27.7568 33.7551660814 46.5011
6340 1 31.4797 33.8599576017 47.3744
6937 1 22.8254 36.8871660814 42.9752
3670 1 24.3377 34.9371660814 44.0963
6748 1 14.6776 34.578374561 32.8656
1215 1 16.9767 35.8579576017 49.2294
4814 1 22.4861 38.8181660814 47.8672
217 1 18.2776 32.9881660814 41.5971
3258 1 24.8041 37.3199576017 47.8457
3006 1 18.3363 34.4501660814 44.0299
7019 1 30.1247 33.4979576017 45.0324
429 1 15.9786 32.6161660814 37.8583
5168 1 12.2334 35.2011660814 36.1164
2050 1 13.5019 38.3891660814 47.2205
925 1 27.0503 30.8441660814 38.2475
7286 1 26.7505 35.9971660814 45.1758
4584 1 20.3861 33.8541660814 40.2237
130 1 15.7577 33.0701660814 40.5638
3720 1 31.5529 36.5779576017 48.1614
2766 1 31.6267 30.935374561 37.6888
6310 1 24.8033 33.9741660814 40.1988
3692 1 27.9917 38.584374561 37.0737
2535 1 22.7377 32.5371660814 43.7582
1398 1 28.7563 38.6241660814 42.1414
3635 1 25.7049 40.192374561 36.7923
6268 1 21.885 40.9051660814 39.8869
2767 1 30.1714 35.2891660814 35.6543
2807 1 12.2115 30.6791660814 36.803
6567 1 30.6636 38.0061660814 39.9737
6969 1 20.1999 41.5081660814 44.0253
7896 1 16.5044 33.0319576017 49.3784
1643 1 12.6802 36.2381660814 48.8058
5448 1 20.7679 36.4531660814 41.1962
7434 1 27.0959 33.6241660814 38.6106
2481 1 20.2616 30.8491660814 37.2795
2112 1 28.2874 35.9801660814 42.7871
2898 1 16.332 40.0451660814 40.9723
4835 1 20.8068 42.7171660814 48.2915
1337 1 27.2665 31.5351660814 42.4968
7543 1 14.4406 32.019374561 33.7198
7902 1 27.2409 37.151374561 39.1583
3763 1 16.2792 41.8091660814 45.745
4237 1 14.0697 42.5051660814 47.4257
2158 1 12.6784 33.9531660814 47.2254
4329 1 20.8907 38.3451660814 39.1581
1811 1 29.1674 30.9911660814 36.5915
5576 1 22.6262 41.2691660814 42.644
4868 1 26.3223 39.2011660814 40.8299
3434 1 19.061 37.9301660814 34.8332
1914 1 23.5568 32.923374561 35.5787
4425 1 28.779 40.8791660814 43.7015
659 1 24.5827 39.3281660814 43.0137
3169 1 24.7338 36.1401660814 38.5725
4827 1 31.3063 35.924374561 38.0716
3477 1 14.1308 39.6011660814 37.3354
2888 1 15.2107 40.3221660814 43.6221
7724 1 27.4643 32.658374561 33.3346
2746 1 21.2021 31.4491660814 34.6971
1158 1 24.596 38.336374561 33.2887
2911 1 16.8747 37.3941660814 41.0282
6547 1 26.2933 36.279374561 34.1899
6990 1 17.5878 34.1651660814 36.4744
3253 1 29.9455 39.9161660814 38.0959
6996 1 18.9089 32.980374561 34.2424
7419 1 27.3886 39.473374561 33.1503
377 1 22.4812 37.1721660814 37.4565
5331 1 25.5868 34.652374561 36.3932
1403 1 16.6637 37.9221660814 33.7258
3505 1 20.3335 35.641374561 33.8403
685 1 24.5368 40.7171660814 39.2747
5367 1 29.7041 38.5819576017 48.8976
1848 1 28.7947 37.539374561 34.5568
7906 1 24.4397 30.8101660814 37.1689
3275 1 20.1139 33.6771660814 37.5944
7705 1 18.593 38.3561660814 37.5491
2299 1 31.3185 37.759374561 33.2511
1212 1 31.4672 33.5901660814 41.2328
2356 1 14.4165 36.775374561 37.3135
2350 1 21.8992 34.952374561 36.0308
7106 1 29.687 41.9569576017 47.2138
4327 1 15.6478 35.794374561 35.1067
3668 1 17.0769 36.2161660814 38.4271
885 1 28.0481 33.421374561 35.9369
5513 1 16.9881 31.246374561 33.4711
7035 1 19.0886 40.4939576017 49.0742
2215 1 27.5472 40.5269576017 48.4445
3592 1 32.116 39.3791660814 42.0645
744 1 23.7452 32.3729576017 47.7759
123 1 26.5031 29.905374561 33.0109
3013 1 13.6596 40.6601660814 49.2219
5786 1 31.8955 40.3141660814 36.2627
5631 1 13.5775 40.7351660814 40.083
4035 1 27.1293 38.8339121124 66.4038977013
2803 1 27.6127 33.7579576017 52.8149
4563 1 26.9603 44.5019576017 55.7228
5143 1 30.9804 42.3891660814 51.3365
1392 1 31.8156 38.8209576017 58.4024
6981 1 19.7308 34.9529576017 56.5289
962 1 24.0562 44.5789576017 59.1784
5309 1 24.1598 33.9269576017 53.8278
2578 1 31.8078 37.3079576017 52.6643
6405 1 27.3783 36.0409576017 56.7859
2486 1 20.9091 33.9509576017 50.5132
6563 1 17.3634 41.5889576017 61.6882
4910 1 15.4358 36.368749122 63.8439
6266 1 12.139 38.9119576017 57.0096
7277 1 22.1096 35.6519576017 58.1509
7743 1 15.0676 41.5139576017 51.489
2932 1 21.5649 40.589749122 61.8553
7448 1 25.7017 38.611749122 63.9521
1220 1 18.9367 39.499749122 64.628
7729 1 27.1188 38.525749122 61.6418
7350 1 25.55 39.951749122 59.6983
7628 1 25.0342 41.278749122 64.4286
4657 1 15.018 37.522749122 61.2241
2475 1 20.5597 44.222749122 62.4329
2549 1 18.1471 40.6419576017 59.2313
3292 1 18.2049 37.8449576017 58.8183
1586 1 18.5283 43.254749122 65.5388
5566 1 29.2525 45.138749122 61.5671
7959 1 12.2727 41.7009576017 56.6315
2580 1 28.6279 40.737749122 61.8667
3624 1 20.4398 36.642749122 60.076
1728 1 21.5157 37.991749122 62.1567
2024 1 25.6122 37.447749122 58.277
6448 1 16.0604 43.230749122 66.7418
7040 1 29.8842 45.011749122 66.3839
5210 1 32.4594 45.475749122 65.3281
6154 1 31.0097 33.8629576017 53.7899
7366 1 13.5142 41.382749122 63.5139
5245 1 24.0666 41.437749122 61.8223
4847 1 29.7235 42.1889121124 66.2350877013
253 1 14.1624 44.0129576017 63.4014
3691 1 19.0422 43.2529576017 56.2677
243 1 23.3451 45.090749122 66.0893
6679 1 15.7732 36.4509576017 58.73
3147 1 15.5539 39.785749122 62.6094
7777 1 30.9977 37.489749122 66.7895
2262 1 28.4841 36.2239576017 60.8681
441 1 29.7426 39.422749122 65.2863
5891 1 23.5116 42.256749122 66.4811
4003 1 16.3569 38.776749122 65.1234
6353 1 23.6915 36.960749122 63.4508
7313 1 32.02 34.5479576017 58.049
1510 1 19.4532 41.797749122 63.3278
6383 1 24.8194 42.2219576017 54.2888
420 1 19.5643 36.756749122 63.5987
3303 1 13.3267 34.8059576017 55.1908
1818 1 27.7363 42.166749122 64.1061
3060 1 29.4665 43.7059576017 59.281
214 1 22.7492 45.551749122 63.388
1124 1 16.2709 44.0999576017 61.6296
5429 1 14.0121 37.0889576017 56.5568
5521 1 23.5149 37.485749122 56.3352
7783 1 28.6721 40.1389576017 53.2811
3109 1 26.465 33.8949576017 55.3549
4121 1 32.2154 43.0919576017 59.029
606 1 22.4314 43.7079576017 54.552
163 1 28.1952 36.7869576017 50.6889
523 1 14.3861 40.0599576017 53.9283
7281 1 27.4227 42.8319576017 53.4417
1791 1 24.7524 40.830749122 56.8997
5543 1 24.7213 44.272749122 61.9711
2150 1 20.889 41.107749122 59.2868
1545 1 12.1625 39.0849576017 52.7952
6595 1 16.7708 41.7479576017 56.9527
748 1 19.877 37.9369576017 56.4301
5702 1 25.3107 34.2989576017 51.1643
5203 1 22.1091 39.7629576017 56.9959
4987 1 14.4754 42.5459576017 55.406
4556 1 19.1842 33.6859576017 52.7994
6186 1 22.8982 36.3779576017 53.8018
6719 1 14.6401 45.4688121124 65.8682777013
4480 1 31.1041 39.634749122 62.764
2380 1 20.8786 41.4019576017 55.0595
2773 1 18.7022 37.6989576017 52.231
4610 1 28.3456 38.0959576017 55.3142
4054 1 12.7481 42.9249576017 59.0503
7290 1 25.975 43.000749122 57.9131
6030 1 30.1617 43.1479576017 54.0172
7918 1 13.3408 37.0229576017 51.5073
2655 1 14.79 40.8946121124 65.9512577013
1918 1 24.2133 42.1629576017 50.6912
5864 1 21.0971 46.5312121124 66.7285177013
7741 1 16.4729 34.0169576017 52.2661
5371 1 22.9582 38.0669576017 51.5426
5971 1 21.454 43.718749122 59.856
1531 1 27.0596 44.614749122 63.1321
2904 1 29.3493 36.1109576017 53.2348
5106 1 25.6912 38.8979576017 54.9881
129 1 30.79 40.6469576017 55.1487
6515 1 20.0713 36.0859576017 53.9838
6752 1 26.8943 39.3669576017 51.0506
5337 1 17.7487 41.6249576017 51.3017
5256 1 29.4349 39.6579576017 57.5039
2785 1 25.2727 37.0639576017 50.5029
5746 1 18.8133 46.0357121124 65.2284977013
3495 1 24.4519 40.0849576017 52.5935
1454 1 27.888 41.300749122 59.159
4645 1 17.5286 39.4529576017 55.6481
7756 1 19.013 40.2129576017 53.3345
6201 1 16.0696 36.6229576017 51.8737
3364 1 15.3947 43.6649576017 58.8859
6830 1 15.8001 37.8249576017 54.502
5127 1 31.563 44.594749122 62.7992
5090 1 30.9696 37.715749122 60.7933
6244 1 30.8476 39.5799576017 51.3537
2235 1 20.7855 36.7417121124 66.1100577013
6499 1 24.684 35.195749122 59.4509
1414 1 32.3602 42.9899576017 56.0556
7204 1 27.5934 46.300749122 65.3017
2598 1 13.825 43.4979576017 52.9023
671 1 16.947 34.3239576017 57.109
1498 1 32.4707 36.3382121124 62.9918377013
6435 1 12.3194 37.065749122 61.3819
6197 1 23.4455 36.124749122 66.118
5225 1 20.6917 38.3959576017 49.9615
1854 1 32.3429 41.976749122 61.6949
7648 1 20.1421 45.0099576017 57.9598
7834 1 20.751 42.208749122 66.8572
1445 1 12.2705 40.6388915203 5.22141
5605 1 27.8904 45.8046915203 13.7054
5246 1 18.1377 43.7225915203 13.3813
5303 1 21.9843 35.0899915203 9.98169
2938 1 29.2167 38.0065830407 13.165
1923 1 15.6526 34.4799915203 -0.305578
54 1 23.9343 41.1875830407 13.3264
7319 1 27.3771 41.3632 6.16207
1959 1 32.2207 44.3713915203 13.9703
5444 1 31.3348 41.4881 2.16354
7872 1 15.8662 44.5845830407 14.7796
2098 1 23.3726 43.9154915203 13.8818
6846 1 14.7843 41.4187 4.28531
7901 1 17.6922 40.9121915203 6.47236
1151 1 19.5948 41.8448 4.69115
375 1 23.7076 36.2335370096 -1.5781777013
5802 1 31.1908 39.4380915203 5.99215
3195 1 22.1268 42.4979 -1.19182
5205 1 30.9928 38.3775370096 -1.5882777013
2679 1 26.9207 38.2875830407 14.6502
6100 1 30.415 41.7738915203 10.6487
1152 1 13.3642 33.9497915203 1.35879
1711 1 27.3966 43.2354 0.602438
7974 1 16.1661 37.1988 -0.596872
1393 1 25.296 41.9431 1.69099
6012 1 20.085 39.3285370096 -0.2947777013
511 1 25.2259 35.1551915203 6.58937
5217 1 28.6379 43.6783 5.31179
5593 1 21.9297 37.2752915203 13.8159
3265 1 29.1138 36.9195370096 -0.2175777013
2276 1 31.9925 40.762 -0.488948
1074 1 15.0051 38.5075 1.6425
2065 1 26.2853 42.0595915203 8.46818
5616 1 31.7855 35.9579915203 8.82762
1523 1 19.0282 36.8785370096 -0.3633777013
1571 1 30.6893 34.7622915203 4.05109
4032 1 29.2379 43.2215370096 2.6251222987
7458 1 19.3711 35.5975370096 1.9855222987
7812 1 21.553 40.3579 5.95876
6160 1 30.8998 42.6825 -1.99119
2930 1 30.5156 42.2465915203 13.3361
7521 1 14.7079 44.6185915203 7.56986
6396 1 17.1452 34.1380915203 2.10586
2014 1 16.2919 43.2759915203 5.74033
1493 1 13.3373 43.0505915203 9.26126
7093 1 20.6579 34.6117915203 6.09228
5714 1 24.4873 38.3105830407 13.2431
5396 1 18.4261 43.7258 2.74924
4734 1 26.3277 39.4904 2.67504
6924 1 16.4692 40.7110915203 2.20098
7275 1 24.1229 40.7165370096 -0.4326777013
2862 1 22.6636 38.4395 -0.0757599
3358 1 18.4885 41.8143 0.265101
2289 1 12.6613 37.9036 0.179554
3953 1 21.6499 34.0562915203 1.59819
7070 1 31.2688 39.0069915203 3.16529
7683 1 31.0823 39.7025830407 14.277
5199 1 19.3306 40.0439 2.47733
4150 1 27.4003 33.6085370096 -0.2947777013
290 1 12.5386 40.6235915203 7.87906
6669 1 30.4024 44.1106915203 9.41165
6940 1 28.6159 37.9808 2.33899
6747 1 25.939 44.3490915203 10.2009
1237 1 16.4543 40.2005830407 14.9046
3840 1 15.5998 42.7455370096 0.3143222987
4502 1 24.1371 37.8157 2.21918
7502 1 14.2261 38.5383915203 8.65268
638 1 15.962 39.6851915203 10.4638
2382 1 17.4063 36.1006915203 11.2896
5077 1 12.4269 38.2845915203 10.6886
1929 1 20.0965 38.9690915203 12.7733
834 1 28.1459 40.5961915203 9.94094
4100 1 17.2932 35.6756915203 8.42309
4740 1 19.5746 38.7862915203 7.28029
7312 1 25.5077 45.3841915203 12.6475
2203 1 14.6155 42.0501915203 13.8209
4378 1 26.4924 41.9938915203 11.9811
5116 1 18.7553 38.3114915203 10.3335
3224 1 15.3818 39.3704915203 6.19991
1243 1 22.7415 38.2827915203 4.54433
5123 1 23.2925 39.2550915203 9.53356
6712 1 30.0349 34.2595370096 0.0767222987
5998 1 22.6215 36.4066915203 6.43397
3574 1 28.003 43.1105830407 13.8833
2440 1 14.2565 37.6545915203 4.05619
3175 1 24.6504 35.3191915203 9.4782
6317 1 28.0392 34.9655915203 6.87327
6915 1 17.6455 43.4753915203 10.7518
4874 1 15.9738 37.9595830407 12.8831
5727 1 21.8963 40.7256915203 11.3389
7678 1 21.5098 44.5528915203 11.9618
355 1 15.243 42.2307915203 11.1754
3565 1 26.9627 37.6352915203 6.14719
7064 1 20.341 42.7787915203 10.0697
6032 1 24.1829 35.3119 1.05457
562 1 12.9243 35.2675915203 3.84162
7679 1 19.8043 45.8889915203 13.8364
4817 1 18.5997 36.4882915203 5.9339
4143 1 28.825 39.4433915203 7.21074
2457 1 18.3652 40.9544915203 9.14622
2823 1 22.1852 43.2312915203 7.97589
7143 1 20.0476 37.5627915203 3.73617
6920 1 23.7634 41.0696915203 7.55253
5137 1 28.1487 35.765 3.9428
5150 1 21.3226 37.5021915203 8.94175
1931 1 13.8802 43.1801 2.4765
4083 1 27.9466 37.8547915203 10.7029
3599 1 16.4116 35.9148915203 4.34035
6085 1 25.2284 39.6156915203 5.489
2632 1 13.3076 37.1201915203 12.9217
1770 1 25.2068 37.7589915203 10.7072
7167 1 14.6657 35.7241915203 7.76135
5837 1 31.0776 44.1435915203 6.76112
2703 1 13.7132 45.8670915203 13.6342
6657 1 26.6542 34.3887 2.1483
875 1 20.9942 44.1173915203 5.69532
1202 1 16.9702 39.8407 -1.51072
6044 1 18.9061 41.1266915203 14.3371
5830 1 29.143 35.7836915203 9.38355
2305 1 20.6659 43.7508 0.922368
7905 1 30.9709 35.8185830407 13.4621
3639 1 26.5238 36.1195370096 -1.6361777013
132 1 14.7413 41.3389 -1.78173
7843 1 32.4636 41.9122915203 6.22362
3172 1 31.6977 34.3423915203 6.55527
4616 1 16.7119 32.5445370096 -1.9375777013
3666 1 17.013 36.7765830407 15.2034
341 1 27.5889 41.481374561 29.4912
6255 1 15.8146 43.550374561 22.95
3507 1 14.1435 45.5585830407 23.968
7252 1 18.9524 47.315374561 30.6868
6356 1 13.6644 46.900374561 26.3678
669 1 20.8143 49.048374561 27.7635
6185 1 14.0368 40.7155830407 16.3589
4954 1 21.0461 45.8032915203 16.3522
842 1 31.8448 38.0895830407 20.3335
7162 1 31.8276 40.050374561 31.5996
6961 1 30.5646 41.878374561 29.6776
3437 1 20.4684 42.8065830407 18.5889
3301 1 25.127 44.8635830407 23.8305
680 1 24.1389 48.997374561 30.8171
3050 1 13.841 40.034374561 27.8782
5264 1 20.8233 45.7955830407 25.0084
1603 1 27.1611 40.0915830407 16.7786
2319 1 12.6288 40.6675830407 21.4129
7272 1 31.0001 44.622374561 29.751
4893 1 22.6298 43.5035830407 16.5609
3281 1 14.7252 47.0755830407 21.7498
5297 1 25.4374 43.5165830407 19.8272
2237 1 21.277 42.8295830407 21.302
5666 1 27.7816 44.8875830407 20.2934
7050 1 17.3758 46.0935830407 22.3049
6253 1 14.4337 46.1945830407 18.8868
7720 1 26.7424 49.236374561 32.0245
6851 1 29.9276 40.6185830407 16.8062
5434 1 18.2138 40.8845830407 18.87
6639 1 28.6591 44.2375830407 22.6386
7071 1 23.0943 47.0135830407 20.6207
6354 1 24.8611 44.6895830407 17.3286
2105 1 23.6053 44.3205830407 21.4826
5117 1 18.9516 45.0855830407 18.0723
2035 1 15.6539 41.9305830407 18.2752
4821 1 30.9462 48.6645830407 26.1932
893 1 14.4195 42.5805830407 20.5997
5926 1 28.5709 44.6275830407 17.8432
1666 1 28.7628 47.392374561 32.1621
6625 1 27.0163 42.9535830407 16.4225
1455 1 21.0904 40.238374561 31.3922
1457 1 15.4975 45.917374561 30.1124
5995 1 23.279 47.0325830407 24.7709
4376 1 31.4631 44.5715830407 22.1448
4940 1 16.2974 44.5135830407 17.4314
2903 1 28.3046 47.782374561 26.4091
3751 1 20.2024 40.6625830407 16.7254
2385 1 30.7852 49.376374561 32.2649
365 1 22.9653 40.6505830407 15.9896
2197 1 19.5708 44.5505830407 22.8076
3026 1 32.3985 37.4075830407 15.4292
7172 1 21.6489 40.1595830407 21.8031
3236 1 25.5244 39.361374561 29.2893
2868 1 30.7838 43.2245830407 17.5535
6856 1 17.8893 45.840374561 28.5042
5165 1 25.6721 40.8425830407 19.8659
7767 1 18.0288 48.177374561 24.0244
2282 1 28.3522 40.1355830407 19.3982
4436 1 14.5558 43.786374561 31.9212
5625 1 17.2262 45.961374561 32.4195
4249 1 24.4177 45.993374561 27.1433
6106 1 22.5584 38.5635830407 19.6708
1344 1 13.9547 48.222374561 30.6177
4945 1 27.5677 37.4725830407 19.7587
3993 1 32.0878 47.3955830407 21.6086
2704 1 20.1329 38.0695830407 18.0224
2832 1 26.7846 42.3915830407 23.8728
604 1 31.5031 45.948374561 26.3747
5376 1 18.2877 42.1135830407 23.1397
2483 1 25.4689 40.3125830407 22.5343
5353 1 20.8406 38.0645830407 23.5412
5385 1 31.3604 38.2585830407 23.1337
675 1 18.7617 39.9105830407 21.3868
1389 1 23.1486 39.8285830407 24.2264
599 1 29.1082 41.295374561 32.0543
7076 1 30.5295 41.9515830407 23.1162
2267 1 14.1613 38.4585830407 21.4967
3338 1 32.0861 42.9455830407 20.0706
3974 1 21.6427 40.9985830407 26.2878
1617 1 27.9452 42.922374561 27.1853
467 1 24.4016 39.2865830407 17.7384
917 1 27.5573 46.400374561 29.8961
3911 1 24.0452 41.369374561 27.7099
1033 1 30.8717 40.820374561 27.1799
1353 1 24.1043 42.843374561 30.0531
4864 1 24.2105 47.1315830407 18.1852
1825 1 14.979 42.384374561 26.9215
6521 1 18.1615 38.5565830407 23.8201
6116 1 17.319 41.435374561 27.9953
4892 1 16.1527 41.909374561 30.5533
3430 1 21.8716 47.647374561 29.8105
5080 1 21.2566 43.791374561 26.8508
5748 1 13.8018 44.687374561 28.1496
3353 1 29.1418 45.491374561 27.8033
3937 1 28.9396 41.172374561 25.2246
2870 1 22.5526 45.041374561 28.9141
7291 1 12.4361 44.1545830407 19.3797
5997 1 25.2729 43.4915830407 26.2962
2163 1 18.8775 47.490374561 26.5128
5478 1 20.5332 42.885374561 30.8314
6164 1 32.0635 39.1145830407 17.7591
4889 1 26.6847 43.887374561 30.534
1404 1 19.2954 43.384374561 28.4978
1821 1 15.4332 39.412374561 23.64
2169 1 17.282 38.6985830407 17.1109
5120 1 30.6596 40.5795830407 20.6139
2634 1 18.6736 40.7985830407 25.5572
7115 1 25.4925 47.759374561 28.8971
1667 1 22.5326 44.670374561 31.7446
3747 1 28.7421 38.611374561 24.1142
5661 1 14.3583 41.739374561 24.4149
3567 1 27.5606 46.3005830407 24.2244
6498 1 23.8222 40.342374561 31.5288
7214 1 14.4937 48.937374561 27.9611
249 1 18.7152 46.9065830407 20.0296
4690 1 15.8246 37.4345830407 19.3775
2344 1 12.9944 38.2138915203 16.4704
4976 1 26.914 37.9435830407 22.3137
7388 1 18.0091 43.379374561 31.9872
5341 1 18.6924 37.4035830407 20.3132
2399 1 25.6995 36.8585830407 17.7935
6970 1 28.3554 46.9345830407 16.1318
168 1 32.4745 45.1915830407 16.5749
5471 1 28.0256 47.5845830407 20.2837
3736 1 30.3646 45.305374561 32.3519
7717 1 18.1323 49.796374561 29.9748
6894 1 14.5989 39.405374561 30.4827
1232 1 20.6334 36.3185830407 16.0624
3294 1 14.2543 44.349374561 35.7851
422 1 16.3495 48.064374561 38.2888
1982 1 23.618 44.7901660814 38.4214
3788 1 15.3657 47.9211660814 42.4368
4435 1 30.1211 49.994374561 41.9702
3055 1 30.5333 45.6611660814 41.5838
4520 1 32.0441 47.9101660814 41.3105
3038 1 31.4577 51.0131660814 44.288
2361 1 18.0601 42.323374561 34.5157
3845 1 19.2794 51.8111660814 44.1395
1000 1 24.4033 42.032374561 33.5848
1656 1 26.1669 45.7571660814 37.5311
6665 1 18.0963 42.0261660814 42.2435
2099 1 14.0316 49.3551660814 38.9787
4152 1 15.8168 53.3601660814 47.121
2025 1 26.7643 41.722374561 34.8151
1231 1 30.0156 44.373374561 35.0742
4089 1 22.1563 43.946374561 34.4927
839 1 17.9741 45.9991660814 39.6593
6750 1 27.3306 41.9521660814 41.1096
3926 1 26.7062 51.6181660814 43.5744
2047 1 18.5663 52.8731660814 46.6264
1752 1 17.389 46.1091660814 42.2179
5940 1 14.7643 52.2681660814 44.5411
5653 1 23.5709 51.5691660814 49.0805
7236 1 25.6908 46.512374561 34.8727
1227 1 26.4689 43.1731660814 49.0795
5344 1 14.6551 46.027374561 33.7141
2784 1 17.31 48.649374561 35.6968
1361 1 17.6117 50.2571660814 39.3846
2134 1 28.6532 46.848374561 35.022
5949 1 12.8509 51.7241660814 49.4767
6323 1 24.9519 48.0771660814 43.2459
369 1 23.1061 46.171374561 35.9829
7254 1 23.3717 46.1421660814 48.6594
1459 1 20.9086 47.581374561 36.5586
1767 1 13.5511 50.4521660814 35.1205
760 1 20.2118 50.0281660814 40.2106
4490 1 30.6807 51.390374561 39.7314
7640 1 27.0276 47.6701660814 39.236
5933 1 18.7382 50.999374561 35.7113
4294 1 18.9795 46.792374561 34.4811
7151 1 22.1959 41.334374561 35.357
6753 1 15.5666 50.4341660814 41.1095
7370 1 19.5849 44.273374561 35.4068
7445 1 14.239 49.4681660814 44.6284
7242 1 27.5842 49.0631660814 42.7663
1566 1 30.601 48.8991660814 45.882
2031 1 15.6991 45.1301660814 38.1094
6831 1 29.3455 43.8041660814 49.374
3916 1 20.105 40.359374561 33.9791
4699 1 20.3356 47.5141660814 39.1972
3811 1 19.3495 51.2851660814 48.8252
3861 1 13.0907 47.4151660814 40.7924
2629 1 24.2474 43.5101660814 43.1806
4167 1 31.042 44.4781660814 43.9669
1019 1 23.0883 49.9711660814 43.9184
4866 1 20.5393 49.9031660814 42.9132
4569 1 13.8144 44.4611660814 40.1158
2414 1 21.9127 42.7411660814 37.7942
6209 1 28.9479 42.2331660814 38.9282
1346 1 17.7352 47.3801660814 46.0835
2874 1 29.9446 48.477374561 36.7194
2048 1 23.4152 49.7631660814 46.6815
2779 1 30.9737 51.1411660814 47.8332
3163 1 15.1389 48.781374561 33.904
7244 1 21.1604 45.9451660814 44.6844
57 1 19.169 47.6491660814 43.5694
7339 1 25.2331 44.550374561 32.9384
2828 1 24.3733 51.0471660814 39.7167
3550 1 28.2573 50.1901660814 38.1892
684 1 15.3011 51.0341660814 48.4614
4120 1 27.1792 52.0231660814 46.1878
2770 1 19.9711 43.5461660814 45.7951
4026 1 19.4391 48.6411660814 47.803
6178 1 17.4637 44.4491660814 45.9881
2571 1 13.8654 42.5821660814 42.3401
2692 1 21.7591 47.6451660814 46.8933
7123 1 25.2256 44.8361660814 47.0755
5597 1 27.8027 45.6691660814 46.6644
5290 1 21.8972 50.9961660814 38.3815
1173 1 27.9417 48.2031660814 45.3683
2781 1 25.3743 49.300374561 34.4503
5571 1 27.0662 44.1221660814 42.8276
1266 1 26.3905 49.6801660814 47.0438
1030 1 12.2834 47.540374561 32.9886
7421 1 31.051 43.4661660814 40.1708
1590 1 31.5306 46.2041660814 46.0501
5474 1 15.4758 44.8011660814 48.1269
1807 1 16.9679 42.6841660814 37.1239
52 1 31.0888 42.038374561 34.176
4413 1 19.3034 43.9191660814 38.2968
6774 1 22.5792 46.5421660814 40.2995
3664 1 15.3651 42.314374561 34.1725
1014 1 24.7155 48.3941660814 40.4761
7658 1 13.8672 45.3951660814 42.9465
4984 1 27.9438 43.647374561 33.0049
6174 1 27.9379 43.5621660814 36.841
296 1 22.7754 49.182374561 33.4765
3002 1 16.2267 43.6761660814 43.483
6074 1 21.8668 44.6821660814 42.1567
4139 1 27.8972 46.4291660814 41.6046
811 1 28.6323 43.4851660814 45.0707
5589 1 31.7598 47.3851660814 38.5347
1048 1 24.8474 43.2711660814 40.3402
934 1 24.1919 51.9041660814 42.4142
780 1 23.9576 45.9591660814 44.7349
3379 1 30.0212 46.4591660814 48.5119
6447 1 31.6114 49.631374561 34.886
5557 1 13.5753 46.5741660814 47.2153
438 1 20.1472 42.9981660814 40.8015
6596 1 21.3915 50.142374561 35.8427
7866 1 15.5337 48.6931660814 46.9846
568 1 31.2221 41.9821660814 42.6057
6391 1 32.4268 53.5261660814 48.7447
752 1 12.1095 43.4211660814 45.884
1039 1 16.9831 52.3801660814 42.8823
4859 1 32.2596 45.209374561 36.5073
4315 1 29.8972 52.8261660814 45.7659
3238 1 24.3913 42.5391660814 45.8674
3509 1 12.1382 46.0061660814 45.0123
5453 1 21.115 47.053374561 32.5845
3077 1 16.308 54.3289576017 60.0189
220 1 12.1413 54.7819576017 60.1996
3235 1 32.3023 49.6279576017 55.5407
775 1 26.2536 53.6671660814 52.6132
6496 1 26.7912 52.860749122 65.7014
6312 1 28.8218 47.634749122 60.7289
1785 1 19.9264 48.8089576017 58.8092
807 1 15.0207 51.0772121124 65.6252077013
5842 1 25.4181 49.787749122 62.9967
4066 1 13.3108 48.1799121124 62.7011377013
2684 1 15.9867 56.5339576017 64.8013
1553 1 24.3233 47.461749122 59.5111
5347 1 13.4196 50.9599576017 59.6712
1704 1 22.7102 45.3109576017 56.6428
6640 1 21.1536 49.932749122 62.3462
3968 1 12.8183 47.8559576017 51.4017
6935 1 25.5218 54.096749122 61.6082
1306 1 29.986 49.836749122 64.3181
3166 1 19.5634 50.1032121124 66.3243177013
5908 1 31.7905 56.693749122 64.5672
1925 1 30.5241 49.5229576017 61.6597
4439 1 16.8068 50.4519576017 61.5978
5508 1 29.2131 47.7579576017 58.0889
7295 1 18.5774 48.822749122 62.8583
1995 1 19.1613 47.1551660814 50.0293
5130 1 30.7809 53.6599576017 55.0396
278 1 22.0658 48.923749122 66.1088
5545 1 15.8806 52.3479576017 63.3416
4424 1 17.0953 51.6371660814 50.3734
4558 1 17.6942 54.0364121124 64.6772877013
5765 1 18.1189 50.9084805921 59.1736077013
4080 1 12.2661 46.4689576017 56.3831
5046 1 27.4018 49.133749122 65.0674
3103 1 25.7019 55.1587121124 66.3290277013
5824 1 16.5008 55.3359576017 57.3184
5233 1 15.925 46.7109576017 58.9296
3101 1 27.2077 52.2559576017 62.8662
2436 1 21.9517 55.2819576017 63.7255
6328 1 14.1783 54.6792121124 63.6243077013
3377 1 21.764 53.3149576017 60.5094
3370 1 14.9563 48.8529576017 60.5719
4653 1 26.3765 48.808749122 60.6577
4039 1 19.6942 44.8889576017 54.0672
93 1 24.3976 51.709749122 64.733
5987 1 19.1169 47.5759576017 54.619
7157 1 18.6356 46.5339576017 59.6263
5047 1 21.0362 44.9581660814 50.0169
1427 1 12.7866 49.0399576017 55.3767
4174 1 32.1824 53.2711660814 51.4852
4798 1 29.3358 45.1979576017 57.0257
6415 1 29.6943 52.9359576017 62.2082
743 1 16.6002 50.1629576017 56.9191
891 1 22.4227 49.6249576017 59.8306
7141 1 29.5349 55.6499576017 63.0875
6972 1 32.0881 45.5759576017 56.542
1058 1 16.6279 47.4819576017 56.2276
4331 1 30.5928 51.6839576017 59.8887
7682 1 31.1726 52.277749122 64.4491
3631 1 19.0606 54.2069576017 57.8508
2795 1 21.2933 52.5351660814 50.3461
884 1 24.4346 47.4359576017 56.6661
4261 1 22.1736 52.3778121124 63.2431077013
5990 1 27.3873 44.6049576017 51.4236
7874 1 23.0271 44.2461660814 51.9731
7282 1 20.116 52.5834121124 65.1418477013
694 1 32.01 48.473749122 65.7287
6119 1 12.704 50.1050121124 64.5183677013
3924 1 17.1463 49.135749122 65.3655
6302 1 28.8216 55.3569576017 58.9049
7045 1 15.0952 48.1449576017 54.0625
5537 1 26.986 48.8629576017 57.1345
1052 1 26.0784 46.8089576017 54.5439
2970 1 15.7212 47.028749122 63.7519
3441 1 30.8476 45.7721660814 53.2812
6427 1 24.531 48.0521660814 50.2372
4939 1 25.9414 51.4101660814 54.2834
1835 1 22.9807 48.3760121124 63.5188577013
3497 1 24.9631 55.8180121124 63.7486377013
7892 1 20.9506 50.8191660814 52.5406
633 1 30.1078 50.9361660814 54.73
3795 1 19.6639 52.0129576017 56.3025
421 1 24.7529 54.3729576017 56.4061
1652 1 15.0285 53.6109576017 55.7118
143 1 23.079 49.4019576017 55.3043
4415 1 13.6843 50.4739576017 51.8234
455 1 20.6528 55.2397121124 66.2492277013
1793 1 25.1773 45.9409576017 52.0173
651 1 18.7897 48.9581660814 52.3103
4871 1 27.9843 52.5151660814 55.8553
5049 1 14.0438 53.0959576017 61.3002
4701 1 24.4505 51.5049576017 56.5728
1494 1 16.9237 45.6161660814 50.2856
2085 1 21.9886 52.0289576017 58.0007
5749 1 26.065 51.0589576017 58.788
4844 1 14.0189 51.2919576017 56.8643
4411 1 23.1941 49.3109576017 52.3807
5957 1 20.7428 53.2999576017 54.1205
6754 1 27.6963 49.3239576017 54.4315
4164 1 17.249 51.9759576017 54.9271
6105 1 19.1252 55.3141121124 62.5373577013
5338 1 25.1368 51.2691660814 51.5367
5709 1 31.0995 50.8031660814 52.0943
5841 1 14.8047 45.1759576017 56.4685
1988 1 12.6318 51.6289576017 54.003
6011 1 18.9315 53.3279576017 60.4489
5410 1 18.1575 54.3939576017 53.4053
6269 1 20.4901 49.2029576017 56.1028
1640 1 14.8658 45.9949576017 52.0972
4176 1 31.198 49.5079576017 58.1217
5070 1 29.1712 48.2651660814 50.2616
1365 1 24.3251 51.6589576017 61.0518
3536 1 28.3322 52.6769576017 58.6718
378 1 16.3441 50.4049576017 52.7533
6439 1 28.5587 46.9719576017 52.8095
2313 1 22.2117 55.9669576017 59.718
6899 1 29.1213 54.1090121124 65.5958377013
3566 1 12.7592 53.8149576017 57.6224
3767 1 24.7464 55.2269576017 59.0916
7347 1 18.8997 44.0089576017 51.6367
4815 1 13.5886 54.1729576017 53.2191
178 1 29.1792 51.2631660814 50.1038
589 1 18.7729 57.1283121124 65.6018177013
3150 1 13.4361 53.246749122 66.8675
4936 1 28.5154 54.0601660814 51.2625
5692 1 28.0991 56.5216121124 66.9953477013
3741 1 12.6333 57.4647121124 66.5456577013
14 1 18.2551 45.965749122 62.3866
3017 1 26.7705 49.5451660814 49.8243
6710 1 23.7341 52.5925 7.62547
1056 1 13.1283 45.5358 -0.77421
7624 1 19.4804 50.9118915203 14.176
4668 1 30.4001 52.2981 3.40152
6525 1 31.8231 48.7967 5.49508
7638 1 24.0328 45.8558 -0.1911
5292 1 23.3352 53.1884 0.961956
1470 1 14.3713 53.5789 2.6106
2472 1 20.0257 54.0595370096 1.9438222987
1644 1 22.0157 54.9667915203 14.4604
205 1 12.3733 49.3895 2.05394
515 1 12.4538 46.6872 1.5874
3516 1 31.402 49.539 -0.0350083
5206 1 17.4555 46.2307 1.5234
664 1 26.5305 45.7866 0.975637
2080 1 13.1533 50.0573 4.63123
3796 1 26.5298 53.1287915203 14.6629
926 1 15.8272 48.2854 -1.44362
4555 1 28.2953 54.0763915203 10.2509
7788 1 13.8619 50.4910915203 12.9156
7452 1 22.9281 45.4712 4.22443
711 1 26.7306 52.4167 3.02692
749 1 20.8036 48.2892 -0.670174
485 1 23.4764 54.1593 4.37017
3311 1 14.5347 50.9549 1.29491
1088 1 26.1211 53.2618 0.418872
4175 1 16.377 52.8256 4.55422
1647 1 22.8704 51.558 3.06207
5965 1 20.0416 51.4744 3.03073
3701 1 20.1727 46.4688 1.23073
556 1 19.0745 53.0029 5.3039
7349 1 17.1452 47.0986915203 14.4276
3748 1 24.4065 49.1029915203 14.782
3927 1 27.2478 46.0921 5.18131
2268 1 18.5161 45.2191 5.44033
204 1 23.4047 48.4686 0.163092
6365 1 18.4046 55.7474915203 14.8012
2290 1 24.4654 55.294 7.74405
1916 1 26.8292 50.6167 -0.278029
7763 1 12.506 52.3725 5.80761
6023 1 15.1393 52.0115370096 -1.3034777013
742 1 32.1747 55.3207 6.01267
6182 1 18.3625 46.999 7.52339
295 1 17.8572 51.5745370096 -1.2051777013
6227 1 19.0328 50.0451 0.816758
4999 1 28.2798 46.6738 -0.958853
1730 1 22.8098 53.5351084797 -1.66696
1969 1 29.0817 50.1595 -1.69822
6671 1 29.3163 50.1364 4.61303
2934 1 18.849 53.9756084797 -0.482862
1068 1 18.6157 44.4085 -1.13539
4070 1 15.0662 52.8432915203 6.89237
2038 1 17.8255 53.0172915203 13.5192
3559 1 15.7547 50.2289 3.9196
2601 1 15.8571 45.3799 -0.82205
4698 1 16.6154 48.9043 1.30931
6674 1 24.9093 49.6215 -1.89591
848 1 30.634 45.078 -0.717236
3427 1 24.6536 46.2829915203 6.17264
5763 1 31.5707 46.6366915203 12.5637
5782 1 27.4777 49.8039 2.42064
1889 1 30.5522 52.9636915203 13.6763
4217 1 26.0763 47.5265370096 3.0073222987
7189 1 17.3115 48.3433915203 11.0433
3709 1 29.075 47.3681915203 11.8757
2070 1 21.0515 53.0314 7.28721
3652 1 15.1239 48.0963915203 12.6089
1006 1 13.7142 54.4756915203 8.86604
1902 1 21.2373 47.5773 3.57747
7223 1 17.2499 48.8843 5.83487
7428 1 12.9303 45.8740915203 5.93453
5468 1 28.735 49.9508915203 11.2689
3284 1 15.5077 54.8578915203 10.9209
6871 1 21.7687 50.3357915203 6.81883
5071 1 24.5195 51.8168915203 10.1454
3660 1 27.5444 51.1797 6.57688
6784 1 28.1466 52.3120915203 12.4134
7036 1 22.2039 51.5177915203 11.4446
751 1 16.4936 45.9123915203 9.46419
1699 1 17.7173 50.6688915203 9.52403
2417 1 17.5843 53.7162 7.82837
7526 1 16.5344 46.6683 4.10099
1762 1 26.2951 49.0478915203 7.79031
1909 1 31.5901 52.5322915203 8.67024
679 1 14.0391 46.8466915203 10.2679
1416 1 14.9036 53.0426915203 12.9962
1744 1 21.9636 52.2505915203 14.0096
1284 1 19.8729 49.1336 8.52715
7321 1 21.1702 49.0934915203 10.9841
7535 1 21.643 55.4432915203 11.5334
66 1 24.8672 55.2659915203 14.5057
6104 1 29.7061 47.3566 4.13569
1108 1 29.3352 55.2772 6.07657
968 1 28.7462 54.5073 3.51233
2858 1 15.7356 50.1808 7.72757
7463 1 30.6007 55.6066915203 13.2064
517 1 12.4332 54.2337915203 14.1668
6589 1 19.3302 48.4289915203 12.9324
3159 1 17.8041 53.1212 10.6444
5967 1 23.6284 48.867 2.98168
2258 1 24.4834 55.9263915203 11.8657
6056 1 24.9967 51.8564 5.23175
4788 1 30.9685 47.8032915203 7.93686
5721 1 24.1971 49.2134915203 5.90303
5928 1 13.4642 49.2050915203 8.89189
7127 1 28.9565 53.2416915203 7.84025
1196 1 31.3916 52.2685370096 0.7612222987
3136 1 30.9643 50.0094915203 9.69662
7533 1 20.6275 53.4407915203 10.1737
4251 1 26.1498 49.5875915203 10.519
4829 1 22.7536 46.7877915203 10.8276
6551 1 14.1366 45.6711 3.43019
2527 1 19.9069 49.4475 4.92398
1535 1 29.5218 47.9341 1.26081
1884 1 25.5778 54.3565915203 10.0558
835 1 28.3475 47.2143915203 7.3854
3455 1 24.6821 48.0709915203 12.2001
3976 1 30.5811 45.5258 2.07117
3198 1 28.1602 45.6832915203 9.74691
5580 1 23.3004 44.0745 1.86499
2322 1 19.4098 56.6453915203 12.4598
5420 1 32.3584 46.1051915203 10.0051
2100 1 12.2557 48.4572 6.59919
339 1 23.8482 45.4403 8.59084
4692 1 21.9867 55.4878 6.41184
6592 1 27.5552 58.8015830407 31.2461
5424 1 32.1449 49.2055830407 23.5565
7911 1 13.9258 59.3385830407 26.7257
3003 1 13.3353 55.2105915203 18.4502
7761 1 20.019 57.0835830407 27.3884
4567 1 14.3352 54.8674915203 15.9603
5572 1 17.2574 53.7655830407 22.0074
1093 1 22.016 55.4575830407 26.0484
7898 1 26.8809 56.9273915203 18.7474
437 1 16.9539 57.9117915203 18.8316
2052 1 22.0221 60.2295830407 30.4827
135 1 14.5261 57.0721915203 19.9557
4898 1 18.968 57.172374561 30.9685
977 1 19.206 55.6243915203 21.3002
2469 1 17.7425 53.1012915203 17.9097
1334 1 23.0736 56.7847915203 17.9477
4902 1 20.7205 56.3166915203 16.599
255 1 28.7796 57.0825830407 22.3302
7316 1 14.1482 57.3332915203 22.8512
3649 1 18.2852 55.0315830407 27.609
139 1 27.4747 52.7251915203 19.6113
2388 1 26.8169 49.4074915203 16.1983
2431 1 15.8932 54.8015830407 26.3126
7403 1 27.7616 55.8095830407 24.5903
5832 1 31.5633 59.2185830407 29.9102
7704 1 30.3993 54.9105830407 22.1618
5844 1 16.7732 48.9354915203 16.3199
5340 1 21.6869 54.5621915203 21.5329
4935 1 24.9371 55.6315830407 25.1787
6854 1 15.214 54.9355830407 23.636
5482 1 22.3076 48.1905915203 16.5489
5409 1 28.1289 56.176374561 32.221
4557 1 22.8333 56.4905830407 23.1859
4758 1 12.2603 57.9965830407 25.1034
2961 1 25.8817 54.9681915203 20.3365
7501 1 24.2503 51.7782915203 15.4715
4036 1 30.699 48.3029915203 19.5675
6802 1 16.2857 52.2614915203 20.0194
5252 1 21.4594 52.1455830407 22.5227
3480 1 25.7225 56.6565830407 22.496
1310 1 18.7949 50.7955830407 16.8835
3019 1 23.3752 51.8595830407 18.0621
5716 1 19.9921 52.219374561 31.7107
2804 1 30.427 56.8605830407 29.0698
6814 1 17.0846 49.363374561 27.4889
5710 1 14.3639 50.2745830407 15.6273
698 1 27.836 52.0635915203 16.8699
3609 1 26.8851 48.5355830407 22.7312
1558 1 23.3728 59.3295830407 28.0851
1184 1 13.7637 52.8225830407 19.4479
2855 1 12.6243 53.5125830407 23.4657
1940 1 15.3321 58.372374561 30.9545
4165 1 23.2402 54.4865830407 19.3845
51 1 16.0333 57.6345830407 26.9424
5831 1 31.9228 56.1625830407 26.7273
2191 1 25.1346 57.0715830407 27.7648
5800 1 29.7167 50.8375830407 20.2566
2565 1 29.3905 57.3285830407 26.2621
5089 1 12.7214 51.3125830407 17.5436
2947 1 13.4207 50.8465830407 24.5002
2960 1 26.2003 48.8666915203 18.7682
1524 1 29.8584 59.995374561 32.449
1135 1 16.38 51.8355830407 26.251
7329 1 18.6578 55.6515915203 18.5685
5581 1 30.158 53.6865830407 19.6491
3717 1 20.8237 48.5935830407 20.4239
3934 1 29.4799 56.1167915203 18.3289
881 1 24.8881 54.689374561 30.9651
6569 1 14.1768 54.0505830407 28.2502
5502 1 27.8412 57.9285830407 28.4757
709 1 13.7618 51.4405830407 27.1146
5403 1 12.6965 49.0455830407 21.3259
7886 1 20.7943 57.8737915203 24.7758
6417 1 30.1374 52.437374561 29.7228
7201 1 23.7459 51.1465830407 26.316
1754 1 20.0692 51.4755830407 28.8882
7411 1 30.4467 54.8995830407 31.0748
282 1 16.5965 56.3145830407 29.574
324 1 31.7653 50.5075830407 28.2168
1477 1 26.9503 55.547374561 29.5445
7730 1 16.2308 50.3225830407 23.9601
574 1 23.1368 55.1815830407 28.7491
3579 1 24.3633 51.9755830407 30.7725
6148 1 25.0912 52.8045830407 24.6845
5004 1 22.6518 52.341374561 28.6817
570 1 26.3353 49.7925830407 27.3113
7528 1 27.8722 53.2385830407 28.3053
6848 1 19.0971 52.6605830407 26.4636
5462 1 27.8426 52.9855830407 25.6223
3525 1 20.2263 49.5285830407 23.1045
1901 1 18.7899 57.7597915203 22.9634
1007 1 18.2501 59.0615830407 27.9977
6593 1 25.4762 57.1850915203 16.3627
3327 1 21.6181 57.512374561 29.5445
1677 1 12.7587 47.8362915203 15.2805
1406 1 29.9228 50.7455830407 23.0354
183 1 28.7641 51.395374561 32.1118
4933 1 21.8887 49.3005830407 25.3135
6322 1 30.2731 53.0455830407 24.3422
2177 1 31.7985 49.6570915203 15.6805
7771 1 16.0663 52.7436915203 15.6683
5814 1 26.8856 51.1715830407 29.8091
1947 1 30.7249 52.2185915203 16.288
7673 1 25.1278 51.1725830407 20.0285
1796 1 13.7462 52.128374561 31.3457
6445 1 13.7733 60.0375830407 29.3469
4109 1 16.8618 60.428374561 31.9975
1016 1 27.7872 50.1545830407 24.7739
142 1 21.126 50.1745830407 18.2536
4860 1 18.598 51.8755830407 23.6431
2539 1 15.4256 49.7855830407 21.2066
7827 1 24.1068 51.2855830407 22.6147
3376 1 15.0098 54.322374561 30.8213
5623 1 19.1398 59.9775830407 30.398
5612 1 21.6032 52.7625830407 25.1944
5560 1 16.5344 48.1525830407 18.9783
6484 1 16.4308 58.2225830407 24.1832
6514 1 30.9209 47.5806915203 16.9364
174 1 23.4549 57.152374561 31.7295
6968 1 30.0359 56.8406915203 15.6945
2700 1 19.505 54.942374561 32.447
4850 1 12.8915 55.5015830407 32.466
4134 1 15.8214 50.216374561 31.661
4869 1 24.1181 48.5945830407 22.5566
3088 1 29.9905 58.1917915203 20.0141
2435 1 29.383 59.1375830407 24.1252
3406 1 21.3647 57.7341660814 37.7563
6007 1 28.8034 57.9671660814 41.7329
7916 1 25.6331 60.985374561 34.813
2172 1 27.323 62.1401660814 48.924
2146 1 13.5265 56.063374561 39.0543
78 1 12.4036 60.689374561 43.5648
4009 1 30.5189 55.0671660814 47.4022
7318 1 16.2169 58.5871660814 40.6883
3601 1 17.0752 61.1621660814 44.768
3295 1 19.1025 59.3591660814 37.4006
7975 1 24.3107 60.559374561 37.2579
1224 1 15.1755 60.0031660814 42.9584
3465 1 30.1097 53.697374561 35.8781
6813 1 24.4375 59.428374561 39.7769
2626 1 13.6595 52.6011660814 41.9416
5728 1 16.4229 59.386374561 36.8803
6520 1 24.6191 59.8671660814 42.4785
1350 1 28.3873 58.4911660814 49.3979
692 1 14.7426 59.994374561 38.9714
2880 1 27.0853 61.9481660814 44.5572
732 1 13.2993 53.080374561 34.0108
4611 1 23.9428 57.886374561 36.5875
2559 1 24.7422 53.600374561 36.8668
7962 1 29.3766 60.4761660814 41.0093
461 1 21.8543 63.5711660814 49.5608
4064 1 15.9671 57.688374561 34.8778
4928 1 20.3684 55.1661660814 37.0992
1655 1 30.4156 60.250374561 36.477
5484 1 32.2797 52.266374561 35.0739
7851 1 13.0004 60.370374561 34.2829
4809 1 26.3531 54.3791660814 47.3396
1075 1 25.9187 56.060374561 36.1056
5632 1 12.4302 56.4161660814 47.3299
5548 1 26.0324 54.827374561 33.5328
1460 1 31.6343 53.376374561 41.6209
2979 1 16.0395 55.047374561 35.481
4394 1 12.7725 53.221374561 39.3307
7027 1 27.8272 57.535374561 37.7561
1415 1 13.3423 63.9271660814 46.593
6296 1 28.4462 57.237374561 34.7715
2045 1 17.7572 54.8781660814 37.7209
896 1 31.153 62.6021660814 45.8499
7124 1 22.3517 57.848374561 34.3542
3849 1 30.9528 56.297374561 35.3473
3317 1 23.5201 53.651374561 34.4169
2315 1 18.2155 58.422374561 33.3783
3836 1 13.7334 57.868374561 33.4551
7989 1 13.6424 54.531374561 36.5638
3780 1 28.2353 59.937374561 34.7257
6651 1 26.4231 57.308374561 40.1251
3117 1 27.9862 52.968374561 34.203
1370 1 19.5691 60.6941660814 43.5693
5807 1 29.8614 56.4041660814 39.3974
5872 1 21.3951 55.360374561 34.5757
5095 1 32.4273 57.1951660814 43.8853
5588 1 22.2819 57.8451660814 40.3597
6757 1 14.1796 62.0461660814 48.406
7207 1 22.6553 58.4851660814 48.6224
7696 1 29.7904 57.0881660814 44.1836
5446 1 27.0914 54.3581660814 43.0047
5944 1 16.462 55.1211660814 42.2868
7727 1 14.8953 55.8351660814 48.1648
3227 1 29.2374 58.6231660814 46.627
6274 1 18.6631 56.4811660814 43.3389
3216 1 26.9711 59.4241660814 43.5516
3422 1 22.7835 54.3361660814 43.1048
4943 1 26.6056 58.2991660814 45.9722
1464 1 16.2027 56.167374561 39.6481
5827 1 24.6684 59.6611660814 47.336
1723 1 12.3826 56.978374561 35.7259
6198 1 24.1527 54.2891660814 48.7245
4438 1 22.4443 58.6061660814 43.7511
2522 1 23.2017 56.2591660814 44.7633
5037 1 20.2937 58.3841660814 42.0483
1417 1 12.1346 60.7551660814 49.6357
4927 1 25.8348 55.8501660814 45.0586
6677 1 31.6689 57.6201660814 47.2568
5426 1 18.5911 57.3851660814 46.0471
1258 1 23.6634 62.4401660814 47.6467
3448 1 18.656 59.8201660814 40.2781
2546 1 14.384 57.7541660814 44.3016
4914 1 19.6916 55.2441660814 47.3762
7220 1 21.505 60.6741660814 45.4894
4060 1 12.5396 58.494374561 38.1155
847 1 13.6882 55.4531660814 42.9135
712 1 28.3023 55.6691660814 48.9217
7209 1 22.4547 55.9331660814 47.5244
1103 1 18.7232 61.6091660814 48.0455
7052 1 22.3797 53.7641660814 38.4411
2412 1 27.8547 62.5531660814 41.9408
3523 1 20.9944 63.2831660814 46.8132
1847 1 16.7709 54.144374561 32.9204
6791 1 28.8957 61.4001660814 46.6408
5377 1 16.2569 60.3371660814 47.4596
3191 1 15.8715 57.7941660814 46.5761
1832 1 24.3349 61.4951660814 44.9617
1482 1 29.2829 53.5481660814 38.5703
2928 1 29.7564 54.421374561 43.4251
6823 1 31.4566 57.995374561 37.6697
6875 1 23.4144 55.2781660814 40.6166
6372 1 26.4902 52.584374561 38.7542
4964 1 26.0543 54.667374561 40.4632
7191 1 22.3802 51.804374561 32.705
913 1 32.1831 60.7551660814 41.5619
6866 1 26.4609 51.355374561 35.9922
2665 1 25.3916 62.050374561 40.7943
3896 1 20.0399 59.5975830407 34.8609
1408 1 28.2544 60.457374561 38.3668
6398 1 12.5268 57.9401660814 49.6682
3181 1 17.7476 51.603374561 33.2131
2020 1 20.095 59.2931660814 47.4292
6138 1 20.1115 54.0641660814 42.7724
5454 1 17.0858 52.1711660814 37.5469
5867 1 12.8444 54.3991660814 45.2819
1229 1 23.8567 59.787374561 32.829
7932 1 14.3932 51.7521660814 37.3988
3008 1 32.4765 60.958374561 35.0034
814 1 20.2288 62.9291660814 42.1219
871 1 22.6995 63.1971660814 43.3343
6800 1 19.6807 61.8627005921 62.2217877013
4728 1 19.3253 58.2379576017 62.9488
4386 1 31.0399 62.5511660814 50.5133
5105 1 19.5501 58.2981660814 50.2934
1023 1 19.5055 55.6161660814 50.1095
1633 1 25.4681 62.4319105921 64.9469377013
5349 1 14.7164 55.2951660814 50.9287
2654 1 13.925 61.6099576017 58.0004
2310 1 30.9957 60.9909576017 59.6328
4938 1 25.8199 60.2494121124 66.5409377013
4674 1 21.9302 57.6049576017 61.9589
2748 1 17.2968 61.5329576017 61.1667
6944 1 12.9202 60.9479576017 61.5203
6541 1 13.7602 56.7839576017 61.8435
7822 1 29.3997 66.8839576017 65.8641
5296 1 30.6743 55.1991660814 52.7221
7268 1 18.4722 66.4229576017 60.9794
3106 1 17.2946 54.3629576017 50.7671
1863 1 23.8378 58.3459576017 63.8558
6680 1 14.1854 65.0389576017 64.329
5951 1 30.7217 58.2739576017 55.8582
991 1 27.986 59.9679576017 61.9795
3538 1 23.882 61.3538905921 60.9439677013
5299 1 27.0393 55.2869576017 54.9952
153 1 13.9466 60.6766121124 64.1272677013
808 1 17.077 56.4599576017 54.8131
7304 1 27.6829 58.5044121124 65.1824877013
5002 1 21.3963 60.2539576017 60.7994
6971 1 12.7371 63.3129576017 60.0401
6170 1 18.5493 60.4549576017 64.4829
7776 1 29.3334 62.5629576017 61.1693
1425 1 29.337 62.4270121124 65.6633877013
4398 1 21.5809 54.9191660814 51.985
3084 1 14.0928 56.6519576017 54.4129
5641 1 26.7774 57.0219576017 59.9803
4387 1 19.9986 58.5399576017 58.9281
4422 1 25.852 65.2589576017 62.5871
3085 1 17.6747 58.7979576017 60.5657
15 1 27.394 61.3271660814 52.6273
7497 1 31.7476 63.1731660814 57.8097
4043 1 21.9244 57.3749576017 53.5871
2650 1 17.3442 62.8159576017 65.3697
5242 1 27.9738 63.6209576017 63.5305
4607 1 21.5168 62.1834805921 64.3444577013
1579 1 15.9181 59.3033121124 65.4683977013
789 1 18.9043 64.9829576017 65.4084
3115 1 13.4846 58.7409576017 59.9285
3871 1 25.4459 60.3729576017 62.986
580 1 27.0385 67.8742121124 66.6045677013
4545 1 12.1252 56.3689576017 56.4765
7402 1 29.3599 60.0299576017 57.485
1130 1 26.7875 59.1709576017 58.0125
4161 1 16.4957 62.5239576017 58.7589
1060 1 15.5678 62.7479576017 63.0627
1367 1 15.9339 57.7009576017 58.6301
6067 1 20.7709 56.3679576017 57.4633
1673 1 22.2802 66.0329576017 62.8458
5829 1 12.4114 61.7477121124 66.2228577013
1520 1 29.6842 60.129749122 64.214
4463 1 30.2383 65.0879576017 55.964
6038 1 27.2539 57.1961121124 62.7691977013
2102 1 12.7411 59.1719576017 56.1333
4155 1 18.6143 63.5889576017 54.8935
5840 1 26.1538 58.0839576017 55.6227
1407 1 19.5946 57.7529576017 55.1547
2056 1 22.9655 59.0192121124 66.3964277013
7218 1 32.3363 59.370749122 64.0982
2218 1 15.6481 67.1839576017 65.0768
2340 1 14.7801 58.0761660814 51.2197
4138 1 22.3079 59.0841660814 51.3183
1466 1 22.463 61.0589576017 55.991
2147 1 25.5918 61.5409576017 58.7248
147 1 17.6974 61.4209576017 56.585
1823 1 27.3616 63.5969576017 59.4311
3413 1 25.7347 67.4617205921 64.2663877013
4899 1 29.9104 57.7761660814 53.2548
3869 1 28.7667 62.7599576017 57.0133
3429 1 23.5195 66.123749122 65.4766
2144 1 20.6267 60.5169576017 66.5621
1910 1 21.5644 64.1989576017 66.1289
5909 1 29.505 55.7769576017 56.3064
6373 1 23.9031 59.3259576017 54.4971
1802 1 18.1421 65.6079576017 56.8754
7504 1 15.9301 58.9901660814 53.9724
5514 1 27.1967 58.5559576017 53.1029
1405 1 23.9271 63.1249605921 57.2319777013
1987 1 15.5469 59.6799576017 56.8002
1024 1 18.827 59.2091660814 52.8746
5531 1 21.2313 62.9029576017 54.2681
3251 1 16.3767 61.8371660814 54.0722
6760 1 27.5274 63.2499576017 54.5806
1129 1 20.4548 64.3649576017 61.3205
7102 1 31.9944 63.0041905921 66.3354577013
7503 1 16.6683 65.2549576017 59.3536
7273 1 13.9896 62.7381660814 55.4256
3316 1 22.9361 65.1721660814 53.7832
4132 1 22.1837 64.5459576017 58.9205
1880 1 23.6658 63.3779576017 62.9775
7930 1 19.2974 62.7131660814 50.4252
3499 1 24.2394 55.1761660814 51.3778
3894 1 24.5959 60.8541660814 52.1765
1845 1 28.2841 63.6821660814 51.041
1073 1 16.7259 61.9351660814 51.41
3438 1 18.0435 67.1239576017 63.6245
2701 1 31.8706 58.7749576017 61.2252
4417 1 14.6185 64.8799576017 61.4737
3833 1 25.0114 57.7621660814 51.4974
7548 1 25.3125 64.8501660814 55.2684
7414 1 29.6724 60.1051660814 51.314
1907 1 23.8047 63.5471660814 51.6191
5883 1 20.802 61.2071660814 52.1732
982 1 20.0225 59.9879576017 56.6417
2198 1 26.1711 66.0989576017 59.9975
3823 1 12.1177 54.3331660814 50.0361
4578 1 12.9587 59.0719576017 53.2097
4989 1 31.1818 64.4389576017 62.043
5234 1 16.8174 59.5301660814 50.1047
5288 1 29.1512 65.2061660814 53.2282
7516 1 29.3219 66.1339576017 63.2016
1049 1 14.8818 63.7371660814 50.5355
1161 1 13.4964 64.1800121124 66.8289877013
6479 1 12.6104 58.2159576017 63.8448
4650 1 13.7115 65.5141660814 55.9105
6939 1 22.3764 55.2069576017 55.4211
5535 1 23.3392 66.6489576017 60.3246
1973 1 32.3237 59.1711660814 52.2599
2249 1 16.6357 56.6123121124 61.9418077013
1020 1 30.7957 56.3659576017 60.7628
3000 1 25.8977 59.6671660814 49.7718
1219 1 44.1342 21.0070915203 7.1432
2920 1 34.7721 22.5687915203 10.9121
555 1 33.3776 16.7825830407 11.3205
5855 1 35.0001 17.9416 -0.325707
3606 1 42.7691 18.9688915203 5.55237
5110 1 50.9077 22.7750915203 5.14891
3428 1 51.0139 18.5719915203 3.85507
6422 1 46.1689 20.4918915203 5.07272
3524 1 50.8927 21.3279915203 9.78149
2717 1 33.6863 21.0800915203 4.11486
4615 1 39.1476 17.6788 -1.93286
5668 1 45.0032 14.0586915203 8.30291
681 1 33.239 22.3792915203 8.34384
3220 1 47.5628 20.6257915203 2.45281
5184 1 48.1952 18.6975 0.504287
2234 1 42.1651 17.3308915203 0.0129271
988 1 47.328 16.3493285299 1.6024222987
2959 1 52.5418 12.7616915203 5.20981
6975 1 48.361 21.6016915203 8.76977
503 1 34.0681 15.5508915203 1.04264
4579 1 39.4986 16.8635915203 0.691855
2857 1 47.814 19.2548915203 7.12408
7000 1 46.795 23.1453915203 5.07028
4786 1 46.0909 19.3141 -1.08312
7884 1 50.0972 21.0725 3.16723
7148 1 52.0413 19.5046915203 8.06655
2851 1 38.4158 18.8044915203 2.53653
1592 1 41.3781 19.592 -1.47949
7988 1 43.8838 13.3743285299 0.0205222987
1468 1 37.8229 21.1664915203 1.12589
1756 1 51.8194 24.0265830407 10.2127
4917 1 51.6103 16.3345370096 -0.0302777013
4550 1 35.3834 20.6634915203 -0.0961666
6465 1 34.0045 18.2421915203 4.04714
6667 1 37.0437 23.1876915203 5.73506
5098 1 39.3832 12.3945915203 -0.718268
5640 1 44.19 19.2099 0.945805
5273 1 45.8733 18.2713285299 3.0884222987
2758 1 40.2935 22.5137915203 4.49142
995 1 35.9496 17.3835915203 2.26964
2001 1 36.7175 20.8491915203 9.90737
4992 1 43.9431 21.9025370096 1.3854222987
1112 1 50.2077 18.1763915203 6.33745
7642 1 48.8252 23.5560915203 6.748
2674 1 34.3643 23.0347915203 6.04456
439 1 33.5747 14.5679915203 4.58104
6273 1 37.5313 22.4535830407 14.778
7195 1 42.0387 14.3745830407 10.2058
3182 1 50.9019 16.1433285299 2.6343222987
4177 1 43.4985 14.1894915203 3.8905
4464 1 39.1201 23.3288915203 8.72929
4202 1 37.1292 20.7280915203 7.01756
2079 1 51.6919 20.4658915203 0.956376
3955 1 40.3975 14.7100830407 12.3514
1448 1 35.5734 13.2106915203 3.49732
1086 1 49.7297 13.1447915203 5.40988
3189 1 40.2458 19.7498915203 4.31889
6858 1 33.6874 22.0556915203 1.48116
6594 1 52.3065 24.7002915203 12.9139
3556 1 51.8569 17.2425830407 14.8921
4355 1 46.6418 22.7697915203 10.9579
2408 1 33.8814 13.1507915203 -0.382611
211 1 39.1501 18.8855830407 14.2316
215 1 43.6032 24.3945830407 14.0254
5278 1 50.6345 18.6999 -0.921266
222 1 46.4501 14.4773285299 -0.3578777013
5335 1 49.9674 12.3952915203 1.37828
2225 1 52.2578 12.7665 -7.03111e-04
3982 1 36.5314 15.3635830407 13.9931
4118 1 47.9796 16.7005830407 13.2388
4522 1 40.983 17.4605830407 12.8126
3400 1 40.0529 21.4455830407 14.1458
6546 1 42.472 22.0365830407 15.1185
3721 1 48.3651 15.8051915203 8.73663
1876 1 40.5826 16.7213915203 6.20522
2443 1 34.1838 16.5037915203 6.43917
3122 1 33.9178 19.7110915203 9.15404
4623 1 35.8066 18.1635830407 10.7293
2058 1 39.8575 17.9079915203 10.4838
1412 1 36.7156 18.1775830407 13.4819
4173 1 48.8532 14.4148915203 3.10103
1010 1 39.7026 21.7685370096 -0.8160777013
7809 1 41.7634 16.8295830407 8.71917
353 1 37.6632 16.2803915203 9.87131
5101 1 37.4842 15.2246915203 3.14555
6434 1 39.5287 19.2749915203 7.03128
1669 1 49.8193 15.3405830407 14.7424
5041 1 40.9541 22.1230915203 11.6904
6464 1 45.6791 20.4611915203 9.60175
6721 1 37.7121 14.1386830407 11.6734
3949 1 46.1909 13.5950915203 4.40029
4613 1 33.1456 21.3774915203 12.8527
4822 1 44.2992 16.5247915203 7.47097
5506 1 34.5451 19.3045830407 14.5316
2659 1 46.6958 21.0565830407 14.9414
7702 1 46.3219 17.8009915203 8.80289
7883 1 50.8125 20.3517915203 12.306
6129 1 44.253 16.6712915203 4.7314
4205 1 47.4973 13.6526915203 6.9289
7185 1 39.6029 14.0166915203 1.50282
2901 1 36.3437 15.4239915203 7.65416
289 1 42.0267 19.6815915203 8.41408
758 1 47.8636 23.0095830407 13.404
494 1 43.643 18.3385830407 12.7005
6159 1 39.5145 20.6130915203 9.61692
996 1 49.0327 14.9605830407 11.3465
5033 1 34.7933 19.3975915203 6.5777
2129 1 48.619 19.3305830407 13.6895
2819 1 43.2354 20.4095830407 11.0255
5750 1 43.8818 23.1935830407 11.5124
2221 1 38.2427 15.2598915203 5.86956
3915 1 42.3174 15.0093285299 1.5191222987
6344 1 36.7927 23.8706915203 12.4587
4660 1 50.5665 22.7005830407 13.7187
1933 1 45.8102 16.9455830407 11.3749
2572 1 50.6719 15.5302915203 6.94616
7915 1 41.5622 14.1404915203 5.72491
6834 1 33.6406 15.5145830407 13.8429
575 1 47.7776 12.0885370096 -0.0835777013
729 1 46.1072 15.1935830407 15.105
3387 1 44.1708 19.8795830407 14.9001
1589 1 39.3868 24.2755830407 11.2609
3708 1 44.8084 14.1834915203 11.0954
7367 1 51.6633 14.2098830407 11.5711
2199 1 33.2239 23.7095830407 19.2741
2466 1 40.5783 20.1125830407 20.9611
1778 1 48.5535 25.429374561 27.9094
6082 1 40.3002 24.671374561 30.6458
745 1 38.095 22.722374561 27.1132
2540 1 40.9757 18.3801660814 31.8923
1186 1 37.3617 25.769374561 20.8713
5656 1 37.5936 24.8395830407 16.5408
6358 1 52.2788 25.6425830407 19.5041
853 1 32.698 22.3165830407 15.6144
7615 1 33.2957 20.160374561 20.5041
1585 1 46.7316 26.703374561 29.6385
6093 1 39.8834 17.307374561 20.3207
4310 1 44.957 23.901374561 24.2829
4879 1 36.3768 26.656374561 31.6866
2137 1 48.1231 15.8105830407 16.9173
4792 1 50.8779 20.866374561 25.7106
7954 1 51.2591 17.019374561 21.9741
1794 1 44.2437 16.1715830407 16.7315
565 1 51.4796 18.292374561 25.8839
2411 1 43.7604 20.480374561 30.2445
7831 1 45.1695 18.451374561 24.0284
1742 1 47.9865 19.9191660814 30.2428
6591 1 49.6373 23.677374561 29.4207
4494 1 32.8608 25.1335830407 15.5183
3493 1 42.1134 21.528374561 28.2366
702 1 36.2446 20.974374561 28.3785
5007 1 41.8487 19.144374561 26.6297
1335 1 52.8296 22.892374561 26.8614
4269 1 35.1828 19.498374561 26.1218
6737 1 49.2776 21.397374561 28.0809
2294 1 52.3843 23.660374561 29.5471
2384 1 39.7721 22.237374561 29.396
6952 1 32.6126 16.5295830407 18.7933
1624 1 50.1617 21.016374561 32.0128
1917 1 40.8425 20.165374561 24.452
2929 1 34.8409 22.702374561 29.9357
572 1 38.9835 20.442374561 31.2029
7564 1 51.7208 20.739374561 29.6506
1101 1 46.7013 21.611374561 27.0318
332 1 51.4724 15.9155830407 19.2534
6540 1 42.3161 28.399374561 30.9022
6876 1 44.3383 18.1215830407 20.4297
3016 1 41.5926 16.3355830407 15.3572
140 1 46.0526 21.232374561 24.258
549 1 47.6279 17.776374561 22.6781
3140 1 47.7679 26.875374561 24.2792
428 1 51.9246 27.672374561 31.7823
6919 1 39.0117 18.214374561 24.2132
2170 1 34.0673 21.778374561 24.9088
4733 1 43.0206 19.633374561 22.4919
5421 1 48.1019 25.5975830407 20.1912
6095 1 35.4845 16.7895830407 18.3813
1226 1 40.7457 22.521374561 25.8091
1844 1 44.6828 22.736374561 28.7198
3619 1 45.8681 19.448374561 28.5786
595 1 36.9625 19.495374561 22.8515
1241 1 45.1015 24.742374561 30.4827
1442 1 50.874 24.4965830407 17.4658
592 1 33.3154 26.777374561 29.1087
963 1 46.5632 19.8665830407 17.6964
827 1 35.2459 21.4225830407 16.1748
112 1 37.0965 17.7025830407 20.6742
6113 1 43.2308 23.825374561 26.3358
4801 1 36.8856 21.577374561 24.7468
6112 1 50.3171 19.3185830407 15.9725
1915 1 50.5122 25.4845830407 21.6642
4487 1 44.8655 23.1855830407 19.2922
6976 1 44.3996 18.269374561 26.5056
276 1 51.5553 21.9775830407 16.2499
7032 1 41.5673 22.697374561 21.6607
6766 1 37.2833 15.8295830407 16.5754
944 1 32.7762 18.420374561 26.9838
4991 1 43.0136 26.406374561 27.1962
6163 1 50.5228 27.230374561 24.013
1674 1 34.4502 18.472374561 23.4763
900 1 35.6198 25.350374561 29.4013
7248 1 36.9152 25.178374561 26.9343
4074 1 44.0484 18.8285830407 17.5113
7424 1 39.8559 16.3205830407 17.6042
1141 1 47.4208 24.253374561 25.5373
6260 1 36.6691 19.3345830407 17.4209
1251 1 40.0472 24.024374561 23.7054
5869 1 42.5328 22.4365830407 17.8429
6043 1 37.4267 23.664374561 23.07
536 1 35.5585 22.5875830407 18.6373
5271 1 43.6501 25.8025830407 20.08
294 1 36.9833 17.480374561 25.8149
3961 1 32.7085 21.916374561 22.6373
854 1 50.1005 21.545374561 20.5102
2762 1 41.6884 19.8585830407 18.3212
6980 1 40.7454 23.8405830407 19.3862
1312 1 34.4911 24.465374561 25.4559
610 1 49.3789 18.784374561 20.6631
5050 1 35.4023 25.570374561 23.1183
1206 1 33.3146 24.352374561 21.8314
5877 1 35.9663 20.1155830407 19.9695
2786 1 48.8473 22.151374561 24.4028
6416 1 38.2114 21.5865830407 21.2235
1165 1 51.8761 24.706374561 24.9419
1435 1 47.8325 20.704374561 22.1388
1333 1 48.6828 18.2125830407 18.0385
6079 1 50.8664 26.572374561 26.9438
579 1 39.3628 18.8995830407 16.8686
3460 1 45.7783 20.7035830407 20.2397
3616 1 46.5859 22.7265830407 17.2392
4737 1 45.3901 25.0135830407 16.3081
1495 1 40.9827 26.700374561 29.1494
3884 1 38.0323 23.6685830407 19.1418
5556 1 48.7605 23.2235830407 18.7882
2635 1 50.9769 22.9535830407 22.866
3651 1 41.7426 21.225374561 32.1318
5461 1 44.1635 22.181374561 22.0399
1688 1 43.5058 26.1331660814 32.0597
4065 1 40.2691 26.711374561 24.1878
6506 1 37.0034 18.952374561 30.0513
2621 1 47.4011 28.235374561 31.6796
3363 1 51.7142 17.879374561 28.6407
3302 1 44.434 26.1585830407 22.9393
2425 1 48.9781 23.8081660814 32.1029
2371 1 33.1836 20.0421660814 31.7315
1518 1 45.0044 28.063374561 28.0681
4153 1 45.9844 20.7081660814 31.9901
7059 1 52.4827 21.4215830407 18.8212
2545 1 42.2481 16.203374561 21.1905
2987 1 52.4619 26.513374561 29.2131
7491 1 38.1934 27.512374561 25.7532
4181 1 46.4051 23.4021660814 32.4477
3909 1 38.0631 24.616374561 32.4322
5889 1 52.831 21.113374561 23.6445
1280 1 40.2127 23.2539576017 46.78
3032 1 50.6335 20.4799576017 37.7471
6649 1 43.2591 22.9599576017 44.3172
6041 1 39.007 22.7379576017 44.3206
4747 1 42.8339 30.0531660814 38.6944
6224 1 36.2797 22.1599576017 47.591
7542 1 46.4599 21.4709576017 40.7608
2073 1 37.1102 24.5869576017 43.1119
5061 1 36.4176 19.1981660814 34.0851
4670 1 40.3696 21.0399576017 41.3678
6945 1 49.4041 26.616374561 32.6456
2848 1 47.0305 29.3501660814 39.3519
6235 1 48.9379 20.9599576017 41.8132
6117 1 35.351 26.0359576017 47.8563
6857 1 40.7705 21.4921660814 38.5962
3105 1 33.4468 27.2181660814 38.1662
5103 1 42.1243 19.5211660814 34.3988
4454 1 34.32 21.5499576017 37.6097
1623 1 44.8293 20.2811660814 34.4752
2750 1 47.9489 30.0031660814 42.0347
5611 1 37.3697 21.8761660814 33.1367
3965 1 49.506 26.9719576017 49.634
6619 1 38.539 23.3689576017 48.8871
5433 1 38.752 22.5551660814 35.5156
1278 1 50.7426 23.0541660814 38.5379
7016 1 43.0966 22.7851660814 37.5424
3359 1 43.8253 25.2589576017 45.8081
4034 1 34.7237 19.2691660814 36.1575
7636 1 46.5963 20.7041660814 36.6366
4330 1 41.2898 25.6599576017 46.5555
6532 1 34.2627 25.3919576017 42.3376
539 1 36.3878 22.6129576017 41.2022
5179 1 38.6619 23.4721660814 38.161
7587 1 45.3175 23.2661660814 42.4691
4276 1 47.4403 23.7849576017 46.1647
4045 1 49.0248 20.8271660814 35.4472
5209 1 43.5945 22.9721660814 34.7976
5516 1 39.6304 25.8431660814 42.5619
4489 1 45.7492 22.8061660814 38.3407
4504 1 39.7872 25.0241660814 34.5092
4948 1 40.2282 27.2981660814 44.7788
5711 1 41.0153 23.4779576017 42.4441
1374 1 45.7017 25.6819576017 47.8462
1441 1 35.95 23.6271660814 38.7082
7307 1 50.2265 23.5841660814 46.5654
6646 1 46.5123 25.3249576017 43.8093
3758 1 48.0771 27.2209576017 47.188
4493 1 33.6377 27.6979576017 49.4036
5866 1 33.1857 24.4519576017 47.1713
1029 1 43.2535 24.5251660814 40.9298
7225 1 50.5292 23.2381660814 42.0354
4215 1 41.7018 29.1621660814 34.8807
2016 1 45.5543 24.8301660814 34.6977
2030 1 39.7086 27.7911660814 40.4723
2844 1 46.5329 22.3059576017 48.4445
3229 1 49.9469 28.1731660814 42.3019
2942 1 50.0157 26.1731660814 45.6459
6997 1 41.8848 24.081374561 32.8916
3633 1 43.8708 27.5319576017 48.7929
7505 1 36.1701 26.5449576017 45.1803
5852 1 42.422 25.2651660814 38.398
5133 1 49.4563 25.0301660814 40.0982
6790 1 47.8529 25.0761660814 36.0386
5055 1 52.0179 24.7271660814 36.5497
2209 1 39.861 26.0751660814 38.2902
3744 1 43.9389 26.9991660814 41.7887
4149 1 46.1069 28.8851660814 34.1396
237 1 37.9751 28.5719576017 45.5086
3581 1 35.5344 26.2681660814 39.7384
5885 1 52.6389 26.9329576017 45.3332
1867 1 47.1311 25.1481660814 38.6816
3681 1 33.2208 24.1161660814 33.9382
352 1 33.8976 27.4939576017 44.1788
4196 1 43.9938 23.4519576017 48.9913
2316 1 34.533 27.9631660814 35.7999
4683 1 39.8461 27.3481660814 35.8431
3436 1 43.5502 27.6071660814 37.6732
7266 1 45.5361 27.1161660814 39.4755
4723 1 52.0988 23.1309576017 44.2979
6708 1 50.7992 30.7031660814 46.2854
697 1 33.5797 30.6359576017 45.9994
5494 1 44.792 27.5029576017 44.3077
1637 1 34.9318 29.8399576017 48.3486
7973 1 37.7423 29.6209576017 48.0068
4231 1 42.323 28.9399576017 45.4713
414 1 34.0655 23.7049576017 44.5966
3366 1 50.0131 23.5241660814 34.9119
177 1 49.1364 25.5071660814 42.9554
6149 1 36.2838 22.2399576017 44.8339
7805 1 36.7843 28.7581660814 40.3611
81 1 44.0189 27.3171660814 34.8332
2005 1 46.7197 30.7159576017 49.2617
7171 1 52.1591 22.244374561 33.4994
4252 1 37.6233 25.9859576017 49.5738
7459 1 37.2914 28.3431660814 35.6887
5818 1 48.3839 27.5571660814 35.1292
3777 1 51.7737 29.1379576017 44.0011
2341 1 33.8513 22.4029576017 48.7549
1872 1 47.9586 30.1231660814 46.653
1500 1 42.1375 29.2751660814 41.4251
6493 1 42.9727 29.9869576017 47.7527
6529 1 34.0603 26.639374561 33.3515
2410 1 36.3359 30.9159576017 42.0612
6631 1 51.157 29.0301660814 48.7006
1972 1 46.3489 29.7189576017 44.2827
1431 1 40.039 20.0641660814 36.0106
273 1 37.9327 32.3089576017 48.363
1900 1 50.857 27.6521660814 39.6615
4580 1 51.3695 24.9109576017 48.9516
3996 1 49.2303 28.6661660814 37.6351
6482 1 46.5342 21.5919576017 44.6756
2661 1 33.9456 30.3409576017 43.3067
1650 1 42.6775 21.9149576017 47.1067
855 1 52.6184 23.1881660814 40.3038
7943 1 42.2288 31.1149576017 43.6508
1618 1 41.4257 26.4819576017 49.2632
3570 1 38.2884 30.9019576017 43.9562
4714 1 37.9507 28.699374561 33.1448
6543 1 37.7347 29.8671660814 37.986
3930 1 52.6735 29.9741660814 39.953
1924 1 49.8703 18.8001660814 33.6951
7025 1 52.9299 25.7891660814 39.0469
7441 1 34.6406 22.138374561 32.5701
1330 1 32.618 20.1071660814 39.3502
5208 1 44.7246 32.3109576017 48.1774
1602 1 35.096 34.4739576017 61.7172
34 1 51.5055 28.793749122 66.9369
7453 1 51.2665 24.285749122 59.793
7120 1 52.7823 28.6609576017 52.9566
1846 1 41.5293 32.8279576017 55.765
4806 1 33.0261 24.3799576017 52.3303
3168 1 39.6466 25.4249576017 56.0887
2822 1 32.6691 23.8479576017 54.9227
3419 1 45.1126 27.475749122 62.1104
6334 1 41.5651 35.0299121124 63.0756777013
4106 1 35.6632 36.080749122 66.4507
1702 1 41.3301 25.2859121124 63.8974477013
637 1 44.2152 34.339749122 59.5168
3754 1 36.5973 26.4392121124 64.9452377013
5490 1 51.4945 29.021749122 59.4094
4053 1 38.7663 35.226749122 64.0577
148 1 33.4647 32.4419576017 57.054
3746 1 52.6988 31.0479576017 60.8532
1080 1 34.7193 28.244749122 66.1608
5450 1 38.7079 27.8739036328 65.9499477013
6717 1 34.5194 24.7469576017 58.7574
2974 1 42.0572 24.2209576017 55.0433
5547 1 50.4835 24.1359576017 51.5146
1094 1 49.5209 27.6883121124 65.4077977013
5298 1 43.4879 25.720749122 57.0467
6881 1 43.1251 27.5302121124 66.3662577013
2061 1 49.5987 27.457749122 60.6344
5941 1 40.7415 27.799749122 60.1141
7496 1 37.7683 34.1559576017 61.676
4693 1 42.9283 34.548749122 65.3237
6068 1 45.4073 27.306749122 64.8585
4111 1 37.1446 25.2859576017 54.7299
985 1 37.5256 23.5089576017 52.3271
1488 1 47.4211 25.323749122 60.2002
2889 1 41.8967 24.1809576017 50.6452
4873 1 45.4813 23.815749122 56.3348
6847 1 46.9009 24.2489576017 54.1737
2259 1 41.2194 30.1219576017 49.9197
2863 1 38.9311 26.940749122 58.4368
5114 1 43.3259 29.8999576017 51.8764
1268 1 42.0894 25.484749122 59.3986
1759 1 37.3786 24.8820121124 59.6361777013
2609 1 47.3464 28.803749122 61.4301
6166 1 40.887 30.6994121124 65.0591677013
7879 1 49.8779 26.1129576017 53.5224
2965 1 42.5918 28.6989576017 62.1866
2649 1 50.8858 33.286749122 64.0283
2003 1 37.9019 29.121749122 56.8104
5006 1 52.7451 22.6729576017 52.2687
224 1 51.1682 30.755749122 63.3153
4008 1 48.1747 22.7589576017 50.7704
7910 1 34.3979 26.7159576017 51.9898
4897 1 45.4504 26.0499576017 52.2158
3435 1 48.6039 26.7599576017 58.0271
4776 1 48.5168 29.911749122 63.676
7991 1 39.1353 27.581749122 62.3673
6522 1 41.1087 27.982749122 64.5452
2876 1 46.9394 28.6069576017 56.8352
4706 1 43.8858 28.5249576017 56.7536
7493 1 47.2383 27.2539576017 54.2006
7877 1 42.7884 25.6129576017 52.8246
4760 1 37.036 26.3589576017 52.2514
6279 1 39.0321 31.8099576017 61.0865
4669 1 40.9354 32.373749122 62.8478
6678 1 45.5312 28.5669576017 50.9661
6562 1 36.8283 29.605749122 59.4783
7668 1 46.6793 30.2849576017 59.1054
5500 1 45.5012 31.542749122 66.0358
459 1 37.8634 30.3229121124 65.0847777013
3853 1 34.3562 34.685749122 64.5019
5261 1 34.7603 27.4499576017 59.8728
6548 1 42.6061 28.2909576017 54.0976
2106 1 50.5796 28.4049576017 56.9134
197 1 33.5931 28.0519576017 57.3608
3683 1 38.7186 28.7509576017 52.5155
2953 1 37.4068 29.9969576017 62.3328
3768 1 43.3588 31.290749122 62.0005
1804 1 47.5301 32.526749122 64.1837
5197 1 50.7007 26.765749122 63.1288
7131 1 44.2353 31.501749122 59.295
2444 1 34.5719 30.340749122 62.377
454 1 38.9906 31.6839576017 56.1188
5927 1 45.8973 32.5699576017 54.8295
3535 1 42.1457 29.657749122 58.7246
7596 1 47.8647 30.6069576017 55.2231
7003 1 44.7747 32.919749122 63.7882
627 1 35.9129 27.6689576017 55.6256
585 1 34.282 28.8049576017 53.7855
648 1 41.4618 34.1099576017 58.3637
7996 1 50.6847 34.911749122 61.8481
5427 1 39.8462 27.9919576017 54.9564
7623 1 40.1397 31.518749122 58.6709
5109 1 35.0465 24.1179576017 56.1307
3226 1 49.5281 24.229749122 57.5339
1866 1 33.8541 25.680749122 62.8101
830 1 38.0804 34.5595121124 66.5612777013
2724 1 49.1919 34.118749122 65.9773
5348 1 50.7015 31.7589576017 58.804
2525 1 36.4214 26.272749122 62.0427
861 1 52.0434 26.906749122 55.0399
3289 1 50.1347 28.5469576017 51.9318
2837 1 38.2739 31.2719576017 53.3316
512 1 35.5872 31.1169576017 53.0417
5280 1 48.0608 32.530749122 59.6104
2226 1 33.7585 31.821749122 64.4497
4536 1 47.6811 32.3639576017 51.6087
157 1 47.5883 29.6479576017 52.5962
2697 1 35.707 31.9099576017 58.2786
444 1 34.1596 32.195749122 60.5418
2029 1 48.0946 33.982749122 62.0029
7620 1 43.8598 31.3809576017 56.2841
4895 1 50.4318 31.1639576017 56.1845
6462 1 36.9214 33.5229576017 56.4772
6684 1 46.9252 29.2187121124 65.8414577013
4230 1 52.034 30.7759576017 50.9179
4598 1 34.2466 31.2739576017 50.6394
5517 1 35.5235 30.9796036328 66.3710677013
3580 1 44.1489 32.3499576017 52.6831
6126 1 52.4311 24.143749122 54.8483
2140 1 44.545 25.0817121124 60.6330277013
3365 1 34.7354 33.0889576017 54.8249
4818 1 51.5952 34.4549576017 59.2829
1166 1 49.4905 23.522749122 54.9622
7457 1 47.2214 25.5099576017 50.2436
1877 1 34.9884 22.5819576017 51.461
119 1 32.9024 28.2369576017 61.7817
3293 1 39.8955 22.3999576017 51.0757
6454 1 43.0671 30.358749122 66.7237
7645 1 32.6441 27.642749122 64.5144
4641 1 49.8258 33.8359576017 55.5091
5250 1 52.9369 30.6069576017 55.0246
5707 1 39.3172 28.2509576017 49.7647
1015 1 40.1671 32.5229576017 49.861
1992 1 52.7241 33.424749122 66.1544
4530 1 44.5167 28.9275 2.06229
2564 1 42.6181 23.5396915203 3.45143
4166 1 45.271 31.5253 1.50252
313 1 45.7312 32.7235 3.96083
2976 1 37.1513 26.3385370096 -1.9403777013
7726 1 47.9314 29.7867915203 8.97076
883 1 36.3937 32.2243915203 14.1654
4841 1 35.3527 32.9142915203 7.88
79 1 37.2875 28.654 -0.086465
5689 1 39.7787 30.1262 0.648958
13 1 49.2069 32.0043915203 7.88593
6597 1 36.056 25.7002915203 10.4759
7630 1 51.3408 22.6517 -0.797599
7253 1 48.9433 24.1015370096 -0.1654777013
6062 1 47.998 26.3225370096 -1.6378777013
4285 1 42.3635 29.5836915203 3.69402
2834 1 47.779 31.6814 0.0376459
3133 1 40.9388 27.8365370096 -0.5923777013
2714 1 44.7675 33.1425830407 14.5009
5487 1 50.0851 30.2406 -0.677875
5113 1 39.2287 34.8604915203 12.5468
5187 1 32.7914 29.2932 0.0833801
3584 1 32.7378 26.7283915203 13.094
7129 1 32.8942 31.2929915203 10.9814
2586 1 35.2432 30.5837 0.426192
4678 1 49.8428 27.5604 0.122888
1684 1 43.5066 26.9773 0.425302
415 1 48.8666 31.4079915203 2.65526
7105 1 46.5878 25.4049915203 10.2546
5204 1 38.7326 31.7148915203 9.94357
2011 1 46.4709 21.956 -1.69079
1377 1 35.3659 31.4259 2.98212
1474 1 41.8462 30.6221915203 6.0435
6621 1 42.3104 31.9995830407 14.8943
4727 1 46.4719 22.8501 1.00999
6215 1 38.9261 32.4795370096 -0.7896777013
7529 1 41.1436 31.8142 2.41045
7177 1 47.9626 31.8794915203 5.29569
550 1 37.472 30.3355 4.36453
4450 1 42.9365 34.1145915203 10.171
4986 1 39.2836 31.7071915203 5.93794
6530 1 43.5327 23.7912915203 7.19763
6793 1 52.377 31.0656 0.463623
7951 1 48.4769 25.7731915203 8.19427
7125 1 38.842 26.0425370096 0.4463222987
6223 1 44.6035 24.7906915203 4.81326
1496 1 47.2573 33.9076915203 8.87593
3035 1 51.6806 30.8597915203 7.44529
6612 1 51.6198 32.0092915203 2.94971
4538 1 38.414 28.3554 2.76101
6860 1 44.7404 34.7415830407 12.1185
5954 1 35.1051 27.9891915203 13.8932
5322 1 43.7239 32.8313915203 6.08062
5158 1 40.8875 24.0786915203 6.64977
7744 1 35.4323 24.2274 -1.42225
2633 1 38.7061 28.9041915203 9.74287
4207 1 40.7606 27.4315 3.80547
3696 1 40.6862 32.9536915203 11.2829
7322 1 51.418 25.4246915203 4.563
4857 1 52.4072 31.4255830407 15.0553
701 1 42.5666 27.4259915203 10.3502
7557 1 50.6946 25.3234 1.83457
4476 1 36.9896 24.8610915203 7.94622
99 1 50.0465 27.8907915203 4.87469
2610 1 48.9888 28.6292915203 2.61069
699 1 34.6115 27.2461915203 4.34274
3187 1 45.5366 27.3790915203 5.86957
6630 1 37.4139 29.6075830407 14.4068
6789 1 50.7554 32.8476915203 10.0479
1055 1 41.4777 30.6275830407 12.6516
6681 1 47.5306 34.7815830407 11.5169
7707 1 39.5193 33.6096915203 3.89857
7801 1 51.9586 35.0656915203 13.3899
876 1 40.2914 26.5903915203 6.31966
1843 1 46.557 27.5179915203 3.20801
5401 1 41.2643 28.4835915203 8.13864
1225 1 43.8788 28.9850915203 7.2342
4634 1 49.407 30.6013915203 11.3345
3742 1 43.9094 25.1037915203 9.5483
6988 1 51.8299 29.9996915203 4.84861
2544 1 37.903 27.4802915203 7.36097
2972 1 44.7735 32.8678915203 8.52542
7198 1 39.2752 28.9498915203 12.5602
2730 1 48.3961 32.6345830407 13.2414
3062 1 45.2139 25.3674 1.9122
5402 1 36.0542 28.5192915203 11.1335
7407 1 33.6506 28.9645915203 9.7875
5493 1 47.1397 27.2055915203 12.3473
3079 1 52.2753 31.5033915203 12.263
6039 1 36.6545 25.9510915203 2.55147
7096 1 42.0177 23.3439 0.0544211
7336 1 43.8636 29.4582915203 11.6579
4715 1 40.6875 26.5315830407 12.3402
6403 1 33.2325 25.6362915203 5.97249
6910 1 36.0301 28.8636915203 6.00011
1780 1 50.5973 26.6292915203 9.70193
3439 1 47.9894 27.9634915203 6.77265
4427 1 52.4565 28.6075915203 8.93501
6727 1 45.4933 28.9515830407 13.7988
3178 1 49.786 27.9334915203 11.9841
2430 1 41.4218 25.4578 1.89138
3545 1 45.2521 30.1882915203 9.21746
3675 1 34.4356 30.3225915203 7.6173
1279 1 34.5129 24.8648 1.18973
2306 1 51.1935 26.9895830407 14.0247
5564 1 36.3788 31.3524915203 11.5253
4619 1 34.6731 33.4576915203 10.619
1657 1 35.6265 25.4164915203 14.5299
957 1 37.9984 33.1193915203 7.77781
3110 1 33.2411 25.1320915203 10.9269
7881 1 46.6961 31.2345915203 14.6541
4762 1 41.8754 26.3065830407 14.9145
7551 1 41.5582 32.2674 -1.50363
1325 1 32.5377 28.3582 2.89143
4845 1 37.0421 34.9729915203 10.7733
4292 1 38.0204 23.3505915203 3.11721
5115 1 52.7091 27.2840915203 -0.56902
1366 1 38.3848 34.1035830407 15.0161
5978 1 47.2748 25.3505830407 14.4726
7297 1 50.3245 33.4889915203 15.0522
6927 1 52.9278 24.6702 0.467966
6765 1 43.0536 33.0476 0.678431
2600 1 43.3657 24.4539 -1.99097
3373 1 45.2098 26.7245370096 -1.9521777013
5391 1 36.0915 26.5315830407 18.3513
128 1 43.9143 34.2715830407 19.2993
4514 1 33.4491 31.2985830407 21.4337
7058 1 36.8275 33.2325830407 20.3845
7054 1 51.4127 29.8105830407 18.2802
937 1 40.2056 35.4265830407 22.8872
5539 1 47.5436 38.799374561 28.7053
271 1 35.9499 36.5565830407 22.4686
1750 1 47.8187 34.7465830407 20.9193
4663 1 41.2488 34.5495830407 18.4775
7107 1 36.2137 29.3535830407 17.8472
281 1 34.4605 29.026374561 28.215
3116 1 35.544 34.8425830407 18.5963
3185 1 44.6587 31.8655830407 18.267
3421 1 48.1138 34.2395830407 18.1944
936 1 51.3989 38.829374561 30.7012
2627 1 38.7092 29.0155830407 16.8741
1632 1 41.0742 34.4105830407 15.6497
5001 1 40.9288 26.6225830407 19.4154
7431 1 42.8746 35.8365830407 22.902
4665 1 43.8272 37.9075830407 26.5227
5361 1 47.2931 31.6185830407 17.251
3068 1 52.4766 28.7855830407 15.8038
2891 1 34.0817 29.3505830407 16.1967
246 1 49.8655 35.270374561 25.0261
6014 1 37.0507 35.9765830407 16.6744
4605 1 45.6349 36.1725830407 18.2219
7738 1 48.6972 29.9315830407 18.8333
3761 1 52.1073 32.3765830407 19.1374
4399 1 40.3492 30.4045830407 18.6156
3173 1 44.939 27.2615830407 17.803
4271 1 50.7827 34.2495830407 17.7515
5859 1 42.654 30.4075830407 17.0372
3250 1 52.2791 29.1255830407 22.8282
7722 1 45.0941 30.902374561 32.1267
4443 1 36.3462 33.8055830407 23.0673
947 1 50.4893 31.016374561 28.5322
95 1 38.7669 30.470374561 26.0854
2818 1 39.9302 26.5315830407 16.8412
3132 1 39.4443 32.8765830407 19.5591
4721 1 39.3529 35.860374561 25.5037
6616 1 34.1749 29.010374561 25.489
763 1 41.0551 38.2685830407 25.9542
5062 1 40.4212 36.541374561 31.6011
945 1 51.6955 32.8375830407 21.8728
2032 1 35.9591 30.5855830407 20.1208
394 1 45.0459 34.0905830407 21.9376
4350 1 47.7418 27.3985830407 18.0385
7912 1 52.0185 36.6695830407 18.2518
3308 1 46.6723 27.4805830407 21.8965
7235 1 37.5864 33.017374561 29.6474
635 1 40.9426 39.145374561 30.742
7904 1 39.6813 35.119374561 29.3148
1447 1 38.2971 37.120374561 27.9636
1300 1 40.303 32.7805830407 22.1511
5393 1 52.147 34.409374561 31.6612
7550 1 49.2671 33.505374561 22.8453
3552 1 38.2705 31.6655830407 23.6241
7216 1 37.2499 30.895374561 31.7205
1593 1 45.001 31.3955830407 21.1584
3807 1 49.1319 37.037374561 30.1512
1209 1 34.6477 31.957374561 31.5738
815 1 41.3333 31.6155830407 26.6703
5265 1 34.3624 31.863374561 25.9438
5688 1 49.2863 26.3345830407 15.9839
2523 1 44.652 35.435374561 30.203
4778 1 45.8101 31.285374561 25.513
734 1 50.4184 34.514374561 29.6616
4308 1 43.1417 30.335374561 24.876
7222 1 47.4525 35.450374561 26.2069
7590 1 52.2613 31.652374561 26.2901
7715 1 33.278 31.105374561 29.4563
6096 1 45.6022 34.0045830407 24.6763
212 1 41.7673 29.1685830407 20.5835
1050 1 47.459 30.0985830407 21.3598
3263 1 34.8101 36.277374561 26.6628
2662 1 50.3693 30.029374561 24.8674
5174 1 33.5742 33.132374561 23.5506
7626 1 44.1617 30.078374561 29.73
5686 1 44.784 38.027374561 29.254
4475 1 48.2532 35.4045830407 15.6413
3403 1 42.549 31.1595830407 22.3704
1288 1 44.4797 28.6825830407 20.3888
4585 1 33.3357 26.1105830407 18.0157
3420 1 33.5367 35.372374561 29.1465
1978 1 47.2463 32.630374561 31.8826
2458 1 42.0606 31.860374561 29.5702
625 1 36.8338 34.698374561 25.6254
7621 1 45.4267 35.7475830407 15.5748
202 1 39.5073 30.819374561 29.9532
2902 1 43.483 35.349374561 25.7056
4446 1 41.1762 34.357374561 27.1501
2372 1 49.4651 28.791374561 27.2345
5236 1 51.441 34.341374561 27.0807
6054 1 36.6888 37.344374561 30.3094
2405 1 33.7216 32.1537915203 15.3489
6207 1 36.6697 28.720374561 29.83
4305 1 36.1856 27.9885830407 23.9766
6179 1 43.744 33.689374561 28.1703
6069 1 41.7583 32.5241660814 32.4669
4302 1 39.4059 27.6365830407 21.5734
6413 1 51.4285 30.417374561 30.9943
2066 1 42.7717 27.481374561 24.675
210 1 37.4648 29.6035830407 22.1899
7205 1 39.0335 28.494374561 28.3236
7140 1 35.562 34.567374561 30.7511
1311 1 48.1366 32.728374561 29.3186
2672 1 48.0314 31.1605830407 23.9026
6361 1 36.9319 32.291374561 26.9715
2882 1 45.7215 31.721374561 28.3277
1472 1 46.77 28.823374561 26.1463
4770 1 47.0694 35.316374561 28.8679
1505 1 38.4386 36.9845830407 21.4917
3326 1 51.8709 36.9315830407 24.3553
6559 1 43.582 28.2835915203 15.6819
7008 1 33.2193 33.8963915203 17.5959
1977 1 42.7991 35.190374561 32.1236
7568 1 32.6242 38.135374561 29.6651
2641 1 49.0358 30.383374561 32.4311
5151 1 32.7194 33.114374561 27.7652
2597 1 47.6129 37.749374561 32.4444
5359 1 40.6182 29.8241660814 32.4159
4430 1 52.7729 28.3545830407 20.0766
1970 1 34.6151 37.0475830407 20.2399
4796 1 47.6697 38.2185830407 25.9413
608 1 48.333 37.3405830407 21.1778
2196 1 51.1135 35.350374561 34.0006
5798 1 33.754 30.5771660814 35.9119
231 1 42.9812 39.2741660814 43.5916
3131 1 36.0047 36.2991660814 38.1523
7692 1 38.6373 39.5919576017 49.5188
7966 1 33.3616 37.2749576017 46.2465
4016 1 44.5992 34.2031660814 42.0738
5685 1 52.8295 39.184374561 36.0734
5458 1 41.3531 38.6419576017 48.5031
5950 1 41.3316 35.8061660814 44.476
6345 1 42.6887 39.665374561 35.8266
5793 1 44.1439 37.7189576017 48.1833
660 1 47.1839 36.0361660814 43.731
5281 1 39.5304 34.8551660814 42.6723
4459 1 41.3452 33.3829576017 45.6457
6767 1 44.7443 40.4399576017 47.875
1814 1 49.3668 35.4821660814 45.4354
4300 1 37.5122 37.3379576017 46.3421
4296 1 33.6308 34.9941660814 42.5529
6761 1 51.2074 32.2521660814 40.6447
7853 1 44.5593 35.3501660814 34.4277
2345 1 34.7353 34.2361660814 36.9038
6601 1 47.0819 38.1671660814 42.1295
1522 1 35.0964 39.563374561 33.8464
4377 1 50.0753 33.2801660814 38.3484
3329 1 38.6799 32.9369576017 45.702
2286 1 38.3498 32.6711660814 38.4615
4872 1 39.4084 36.5931660814 40.5479
5176 1 39.1533 40.6901660814 39.7178
3300 1 50.5369 31.0051660814 36.7612
6660 1 33.9629 33.0989576017 46.8971
6495 1 37.8323 36.8249576017 49.0985
4213 1 37.4844 34.8431660814 39.9699
236 1 45.3761 33.8581660814 39.4711
7770 1 36.2894 31.932374561 36.6309
4263 1 43.6765 36.5211660814 43.3927
6325 1 42.188 31.5011660814 36.414
6321 1 47.3716 39.3009576017 48.0235
3005 1 47.5112 36.5239576017 47.3456
7051 1 40.2594 40.0581660814 43.9524
5937 1 45.3283 31.2421660814 38.3898
677 1 34.4579 37.5861660814 42.0644
520 1 32.5155 33.4801660814 38.5165
5968 1 36.1095 33.7911660814 42.1321
2208 1 34.2438 39.5451660814 47.4376
5294 1 36.7277 37.8441660814 43.5334
450 1 45.3199 36.2369576017 45.7993
736 1 36.7332 39.9749576017 46.5368
3879 1 40.2313 37.9359576017 45.9498
1265 1 52.8751 42.3289576017 47.4076
3928 1 37.3522 35.0451660814 44.4547
5723 1 38.6872 38.8721660814 41.9124
6658 1 45.877 33.3799576017 45.9096
895 1 50.7579 37.6191660814 46.5397
7821 1 38.5981 41.6759576017 47.7015
860 1 48.9037 39.7179576017 45.8784
6861 1 34.5344 35.1089576017 45.1606
2236 1 47.4563 34.4941660814 41.5034
856 1 46.0678 31.4331660814 35.8407
5247 1 35.442 33.2469576017 49.1554
4881 1 44.4889 37.5351660814 36.3585
5066 1 50.3832 33.5719576017 47.3745
5863 1 51.3861 35.7781660814 43.3636
7154 1 44.7743 32.0659576017 43.8213
3562 1 32.6252 41.7551660814 47.0395
1113 1 51.6112 36.8619576017 48.9878
7559 1 47.9037 35.0151660814 38.7145
4359 1 40.2331 33.5911660814 36.718
4824 1 37.5549 37.7311660814 36.3944
2277 1 41.6411 40.225374561 38.407
5812 1 43.8443 36.1851660814 38.6363
6574 1 32.7927 31.560374561 33.6213
42 1 36.3357 35.015374561 33.4073
6872 1 46.6893 34.2231660814 36.1656
1718 1 49.0695 32.5201660814 42.409
4458 1 43.2716 40.2631660814 40.7594
7786 1 49.251 38.8641660814 40.6048
2323 1 40.0644 30.5831660814 39.5891
4465 1 48.5663 34.2131660814 34.0505
6622 1 39.6747 33.584374561 34.0434
4680 1 33.3663 41.8281660814 44.298
3010 1 50.7234 37.403374561 36.0601
2716 1 37.2759 32.4491660814 34.1062
7302 1 36.4186 40.4281660814 40.9901
897 1 39.6226 38.1561660814 38.3813
640 1 48.6158 37.7041660814 38.0071
6510 1 48.6715 31.5871660814 34.9418
6636 1 40.2757 32.2071660814 42.0507
2036 1 44.5535 40.8871660814 45.0581
1127 1 43.9814 32.4231660814 34.2399
4726 1 48.6202 32.6451660814 45.2564
3174 1 35.8179 40.6291660814 43.9232
629 1 41.2682 35.6961660814 38.327
7164 1 46.6924 39.333374561 36.7339
2805 1 52.1473 39.9641660814 43.9398
3242 1 51.4869 38.1561660814 41.9998
3203 1 33.2313 38.099374561 35.1561
4849 1 44.5836 37.7701660814 40.8108
2663 1 34.1401 39.3681660814 39.9012
7239 1 42.176 33.7849576017 48.3376
7305 1 33.8084 35.4521660814 34.529
254 1 38.8089 36.532374561 33.9875
2924 1 51.8609 35.0981660814 37.4152
5894 1 50.8247 41.7211660814 45.6581
5180 1 47.0132 40.1979576017 44.0149
3123 1 48.7045 38.813374561 34.7458
7255 1 33.4928 37.5441660814 37.8691
3058 1 52.9283 34.7709576017 47.5612
5013 1 42.1839 36.1799576017 49.5106
3021 1 37.3974 38.692374561 32.777
3714 1 40.9771 41.5911660814 41.7428
5417 1 40.541 43.0109576017 49.1916
6943 1 52.6373 40.8251660814 38.3278
6491 1 36.2851 40.2531660814 36.3143
6951 1 52.8165 34.2321660814 41.5181
5549 1 46.3814 35.2871660814 32.5133
2936 1 35.4223 45.304749122 62.8512
1611 1 34.8186 38.578749122 60.7357
7122 1 46.6468 44.0789576017 59.8259
1911 1 48.8501 40.460749122 64.9394
1172 1 36.7836 43.7929576017 56.3738
4571 1 52.82 38.5149576017 53.1193
7230 1 36.8639 43.497749122 66.1553
5270 1 33.8933 38.7576121124 63.4417677013
1926 1 43.6379 38.7459576017 58.5116
5870 1 39.1919 36.8999576017 55.6436
3757 1 33.7036 40.7799576017 59.4411
584 1 32.7285 38.9159576017 54.7537
1904 1 35.6094 35.7409576017 50.2397
1092 1 34.8183 42.545749122 63.2361
3458 1 47.7682 34.2679576017 53.7388
7868 1 36.1592 42.9341660814 50.8994
3320 1 52.8803 39.0059576017 50.2295
4050 1 33.3496 35.3659576017 54.206
3803 1 47.3965 37.572749122 59.7147
7478 1 44.1367 44.7749576017 60.6391
3096 1 45.3897 39.360749122 60.6452
3339 1 41.6035 37.921749122 63.114
4179 1 37.7927 35.1609576017 54.0546
7215 1 46.9909 42.168749122 63.9701
6052 1 39.2467 35.3589576017 59.751
1027 1 44.9687 43.6319121124 65.7347177013
653 1 50.5319 37.503749122 62.3109
753 1 48.2147 44.786749122 64.9146
7792 1 46.2656 38.4079576017 57.1246
223 1 46.2204 45.908749122 66.5968
5838 1 41.2328 39.260749122 65.4534
5339 1 52.7521 39.193749122 62.4622
7077 1 37.5853 35.8349576017 57.6284
3356 1 38.9775 45.0739576017 63.355
5614 1 49.6072 35.5699576017 57.7083
6006 1 44.5071 42.2821660814 50.0045
6265 1 37.3568 38.695749122 62.0486
4479 1 47.0774 43.7599576017 57.2261
5759 1 33.4563 36.0689576017 60.2332
3212 1 50.9544 36.5919576017 53.2428
5390 1 39.799 37.711749122 60.8866
1689 1 49.8954 38.7709576017 59.9043
7283 1 47.4093 35.6709576017 49.918
155 1 36.2843 40.314749122 64.2414
5223 1 50.3487 38.1209576017 56.9849
7565 1 44.6997 40.606749122 64.1652
4056 1 33.2375 39.1712121124 66.0481077013
6741 1 38.8822 43.6649576017 51.615
7217 1 47.0102 34.9589576017 58.6918
5563 1 43.2971 36.1529576017 57.485
1017 1 49.8733 41.423749122 60.5902
3285 1 35.4019 37.359749122 58.1386
7538 1 44.5124 37.968749122 63.0781
6942 1 48.437 37.987749122 64.0264
3508 1 37.5537 37.672749122 64.8514
3450 1 45.4812 34.9319576017 56.3175
6511 1 45.0594 42.4439576017 52.8859
3057 1 49.904 44.2219576017 56.6718
6500 1 38.3666 42.442749122 64.1587
2926 1 37.7948 46.065749122 65.6894
7472 1 52.0204 43.1469576017 59.7942
921 1 36.294 44.2539576017 59.1349
5861 1 35.6557 36.3339576017 52.8328
7156 1 48.1556 40.9639576017 49.9833
2713 1 36.3385 41.5869576017 59.5229
5758 1 33.0936 36.7889576017 56.7147
5672 1 50.8941 40.9329576017 50.6623
4312 1 34.1562 43.255749122 65.8288
7423 1 41.7249 36.2919576017 55.2453
2617 1 44.7745 38.1519576017 52.9822
1210 1 39.3402 33.7449576017 52.1731
3713 1 35.4294 39.9819576017 55.2192
2699 1 41.9511 40.9089576017 50.0758
5816 1 39.3937 39.2949576017 57.0889
4169 1 47.1197 41.6579576017 61.1499
4020 1 36.6855 39.7869576017 57.5309
3354 1 39.3991 43.0039576017 55.9923
3388 1 42.4846 42.901749122 59.3957
6645 1 52.8957 43.1679576017 52.46
6964 1 51.5607 40.9509576017 53.3855
1511 1 44.9965 42.5229576017 55.6226
4654 1 38.2898 41.2029576017 61.5156
1045 1 49.0008 36.800749122 66.3714
7871 1 41.0447 41.547749122 61.1758
86 1 49.0689 38.0539576017 54.5594
4918 1 46.7002 36.8139576017 54.5792
5810 1 40.6742 42.0289121124 65.5070977013
1658 1 44.3827 36.9045121124 65.6951577013
2409 1 43.0669 41.2449576017 57.225
5415 1 46.8091 40.2459576017 52.266
6960 1 49.6997 40.7299576017 57.7264
162 1 42.2881 41.5069576017 52.924
4245 1 42.6183 42.1566121124 63.3343677013
3594 1 51.5828 41.8869576017 56.0756
6542 1 43.8522 35.7119576017 51.6945
5370 1 33.2267 37.1269576017 50.3239
1627 1 41.1021 40.7789576017 55.5158
7467 1 46.9422 36.391749122 62.2207
710 1 36.7086 38.8729576017 53.1802
6402 1 39.4723 38.0769576017 53.0054
2473 1 46.0772 37.9989576017 50.2691
446 1 34.9015 42.7209576017 54.8448
5600 1 52.3341 34.6609576017 54.6942
6364 1 42.2069 38.7319576017 53.8389
1817 1 33.6826 39.9261660814 50.2027
4208 1 47.2404 40.9409576017 56.5292
596 1 40.9843 39.4499576017 59.3409
7334 1 50.8725 44.647749122 65.8025
3834 1 43.6681 44.745749122 63.3763
2886 1 50.0946 35.5799576017 50.886
3603 1 45.4193 33.7849576017 50.5425
2737 1 48.8313 40.6119576017 54.1136
3726 1 39.8551 36.2239576017 50.8909
7126 1 39.7488 40.7559576017 51.9219
469 1 36.3663 40.2859576017 50.8324
2763 1 52.4221 43.062749122 64.043
597 1 41.9006 34.1769576017 53.3798
7227 1 40.7413 44.4239576017 57.7747
1893 1 50.9195 41.111749122 63.1035
722 1 52.7626 38.426749122 59.5867
6855 1 44.2502 35.243749122 62.0951
1155 1 42.4311 44.120749122 66.6672
7835 1 52.9221 39.5419576017 57.0448
2291 1 49.9613 32.8899576017 50.1635
5699 1 50.7205 45.245749122 59.0962
56 1 33.4417 42.7521660814 49.762
843 1 39.0707 38.549749122 67.0064
2507 1 52.822 38.4274915203 4.65184
6304 1 45.8821 38.2675370096 -1.8209777013
72 1 32.8274 35.0681915203 2.23576
4648 1 37.1951 34.5403 -0.112801
2301 1 43.3949 37.4232 -0.947061
2558 1 32.7608 40.2720915203 9.83781
4147 1 39.2468 44.6098 5.97025
952 1 32.7313 35.4663915203 11.3018
2531 1 52.0477 35.006 0.774061
6392 1 45.1721 39.0394 2.80496
859 1 46.0412 45.8864915203 14.4189
6214 1 48.7989 36.8854915203 9.93414
7561 1 42.6754 44.8785915203 11.4597
4725 1 43.5136 37.1085830407 12.8373
5741 1 46.3172 43.1094 4.86797
96 1 34.8888 38.3530915203 0.383407
6810 1 34.8781 41.0915370096 -0.1252777013
6063 1 46.3406 35.9487 0.727678
105 1 42.8042 43.0913915203 7.35919
5193 1 49.6302 34.2422915203 6.11003
4171 1 41.9849 40.9205370096 1.2053222987
3011 1 50.0932 42.1895915203 3.57467
4200 1 49.2746 42.402 0.985549
5575 1 45.7528 35.3711915203 3.50057
6965 1 34.4283 37.2777915203 12.5235
7563 1 47.6253 39.5608915203 14.4124
76 1 52.6523 44.1932 8.08193
32 1 52.6884 41.0278915203 3.89194
6531 1 36.3216 42.0128915203 6.68654
406 1 36.2954 44.8696915203 14.4564
3272 1 52.1971 35.0838915203 6.21933
6212 1 47.0962 36.9575830407 13.5423
2037 1 41.4763 37.6487915203 11.1166
97 1 32.7893 34.4505370096 -0.6019777013
1462 1 52.0561 37.7415830407 14.144
5540 1 40.8199 39.7672915203 6.4742
5633 1 46.8597 41.4255370096 0.5190222987
1851 1 42.6638 42.8542 3.18441
6276 1 48.3215 34.3915370096 -0.3644777013
6172 1 45.2728 41.8188 2.70563
7674 1 34.4109 34.8241915203 6.13317
3698 1 36.4634 40.6561915203 4.2829
387 1 40.8942 42.358 5.34452
4600 1 38.7119 35.6513915203 8.5274
497 1 39.3435 41.2794 0.981582
583 1 48.3856 41.3344 5.46374
4711 1 41.5037 36.0062915203 8.73058
7837 1 50.9076 37.0735370096 -0.8436777013
2825 1 35.0764 34.0902915203 3.50948
2434 1 38.9048 44.1995915203 8.59381
7168 1 42.357 41.5669 -1.48735
3051 1 51.9699 44.8291915203 10.6159
3591 1 49.7221 44.8005915203 13.4583
5849 1 43.1588 35.42 2.41655
5122 1 39.1587 40.9175915203 3.56358
6193 1 42.9078 35.4183915203 6.40516
3197 1 37.4507 37.3716 0.175578
1967 1 46.8329 42.9133915203 8.41037
2076 1 35.6402 38.1568915203 4.20937
483 1 48.004 36.2761915203 7.42279
3684 1 40.5639 38.4379915203 3.73061
3404 1 38.4212 40.4220915203 7.73951
3595 1 33.1864 39.7835830407 12.5766
3841 1 36.7258 37.7029915203 11.0803
5253 1 39.163 37.8386915203 12.6592
5032 1 51.1498 40.5756 0.160249
1805 1 37.6187 34.9979915203 2.67598
5878 1 37.6905 40.2985915203 11.6966
4266 1 42.3993 38.8449915203 8.50357
7484 1 35.6816 41.0863915203 13.4027
4843 1 49.0277 38.6123915203 6.21305
474 1 49.8484 33.9505370096 1.9651222987
401 1 37.3178 37.8605915203 8.26118
3241 1 47.0183 39.2097915203 10.1949
3390 1 43.7671 44.2938915203 14.0588
3454 1 35.065 37.4317915203 6.79273
6692 1 42.0173 41.1652915203 13.2644
2118 1 50.3433 39.8019915203 13.4869
5776 1 50.9942 39.7614915203 7.99932
59 1 50.9345 42.5825915203 12.1985
7381 1 44.3734 34.9195 -0.959858
4729 1 33.4404 37.0495370096 -1.4134777013
1799 1 41.617 40.5429915203 10.6716
6624 1 49.7374 38.4443 1.25546
3623 1 45.4295 36.6040915203 5.98034
5141 1 35.4906 42.3378 2.31762
705 1 50.5595 39.0141915203 10.7802
2646 1 44.687 41.6198915203 13.46
2053 1 39.1638 41.8848915203 10.0432
1422 1 43.4758 42.7106915203 10.0739
2157 1 47.057 38.6891 0.612493
71 1 33.1086 42.8115 3.70763
5327 1 46.2511 39.3034915203 5.32263
4980 1 37.8759 37.5959915203 2.87396
1827 1 34.523 43.5496915203 12.7896
3073 1 34.5045 44.3478915203 10.1589
5192 1 48.5786 35.4476 3.77115
4201 1 48.8061 41.4952915203 10.8104
6509 1 45.143 41.4208915203 6.96319
5026 1 41.167 35.6533915203 4.28132
7522 1 45.088 38.8089915203 7.90241
2179 1 42.7732 38.1742915203 1.82327
265 1 45.5023 39.0489915203 12.5093
3256 1 38.1651 39.7775370096 -1.1280777013
4491 1 50.3035 37.6332915203 3.88996
7447 1 40.009 43.8047915203 11.91
4707 1 33.572 37.6806915203 2.54352
6057 1 40.8292 38.8915830407 14.5654
6764 1 36.7485 44.3528 5.27711
6433 1 47.3032 44.7761915203 12.2171
4995 1 37.9942 45.5969915203 12.3866
4604 1 46.094 42.4421915203 11.1528
7114 1 34.1114 42.1453915203 8.35155
462 1 49.5469 42.1418915203 7.96688
4431 1 39.9825 42.8700915203 14.6133
7476 1 51.0161 35.3725915203 10.8157
3938 1 35.142 33.0456 -0.949008
4395 1 32.8742 38.2405915203 7.91689
1154 1 45.0753 40.9935370096 -1.9540777013
4023 1 49.9696 45.0285915203 7.58139
5491 1 52.7461 37.5470915203 7.34163
3558 1 50.647 44.539 4.87749
3170 1 35.1826 37.4475830407 15.1845
3732 1 51.1998 42.0718915203 15.1868
4811 1 38.3307 43.7213 0.733248
4624 1 47.505 42.1695830407 31.9127
7094 1 43.5822 46.4025830407 22.6071
3280 1 50.75 40.4475830407 18.7303
7972 1 51.786 44.7415915203 18.1855
7818 1 32.8497 44.5035830407 24.5872
6780 1 34.0798 40.8085830407 17.934
4012 1 36.5828 43.2945830407 22.0039
5943 1 34.6149 45.5805830407 18.3521
5343 1 49.746 43.0759915203 19.048
6318 1 44.3942 40.6035830407 17.6932
6781 1 41.2944 44.9555830407 21.8186
1328 1 49.6961 45.0915830407 23.1019
3111 1 50.6017 46.8835830407 28.614
370 1 36.788 46.2285830407 22.1344
1303 1 48.186 46.204374561 31.3047
6549 1 35.9617 39.9925830407 16.0859
3201 1 40.3813 46.9895830407 25.2864
2392 1 52.4029 47.686374561 30.5774
980 1 34.7942 43.1485830407 19.6074
7893 1 45.7219 45.6815830407 24.2407
1111 1 47.2565 46.5005830407 20.3353
975 1 48.5397 39.4995830407 17.1114
5295 1 50.0984 37.3655830407 16.2534
7740 1 41.2587 42.5205830407 20.5678
1298 1 38.6408 41.6915830407 20.5459
487 1 39.9225 47.444374561 28.0404
3351 1 42.2716 42.1812915203 17.938
2439 1 38.4205 45.2052915203 17.9655
190 1 44.1632 46.1255830407 28.6904
4837 1 47.0769 43.7935830407 19.5208
4977 1 36.3249 46.6145830407 16.5188
1087 1 46.031 41.6973915203 15.7705
7187 1 42.5338 36.8583915203 15.4507
6457 1 43.1453 44.7085830407 16.8212
447 1 47.2221 44.2675830407 22.4223
1936 1 44.5639 49.098374561 31.637
4993 1 45.8833 44.3944915203 16.9382
4157 1 50.244 39.0815830407 25.1334
6865 1 34.6949 47.1595830407 20.6385
6700 1 35.1625 46.9985830407 26.8793
4423 1 51.876 40.494374561 26.8293
7091 1 37.1532 42.8115830407 18.2791
5618 1 37.2699 49.095374561 32.2961
6240 1 37.9825 40.0905830407 17.9661
216 1 40.0301 44.3575830407 24.2351
6696 1 40.2897 40.7565830407 16.5019
5552 1 43.5459 37.9365830407 17.6573
3418 1 48.6726 42.3891915203 16.5033
6572 1 50.8951 43.0585830407 21.6094
5740 1 44.143 38.4035830407 23.5824
2596 1 35.5196 45.4135830407 24.5682
6663 1 49.6235 41.1835830407 23.303
5014 1 35.1107 39.207374561 29.1986
1105 1 39.8168 39.483374561 28.2245
7348 1 49.9653 43.2655830407 25.2876
6956 1 37.4607 43.435374561 24.8515
3881 1 33.1402 41.928374561 26.0952
225 1 45.5525 44.5515830407 26.6292
3607 1 42.0239 42.3905830407 24.8162
1839 1 49.4915 44.572374561 29.373
245 1 44.4122 41.2455830407 23.8915
553 1 39.0484 46.0725830407 20.5922
1222 1 34.7295 38.252374561 24.4275
5893 1 46.993 41.3955830407 22.6833
6929 1 44.8931 41.4635830407 28.6983
7494 1 50.6727 38.1595830407 20.2083
6845 1 42.1823 38.3625830407 21.3914
94 1 39.2043 42.118374561 28.8185
3204 1 45.7851 41.0185830407 19.9598
3628 1 39.6842 39.5295830407 22.0632
3158 1 36.7748 46.781374561 30.9437
6931 1 52.9369 41.1082915203 17.2358
4697 1 46.3231 47.797374561 29.7432
5801 1 40.0872 40.4895830407 24.677
888 1 32.9035 40.4465830407 23.573
5634 1 49.2655 48.9615830407 26.1914
5534 1 51.7135 39.2375830407 22.5338
5989 1 46.9297 38.5165830407 19.1138
4389 1 38.526 37.4065830407 18.7049
3392 1 41.5669 46.591374561 29.9204
3162 1 35.7908 39.5585830407 19.9865
6258 1 32.9036 49.516374561 30.4017
4030 1 51.5468 43.042374561 30.6074
6175 1 40.5049 45.3049915203 16.0203
1444 1 42.0212 48.270374561 32.1611
2671 1 48.5857 47.6565830407 22.409
4295 1 47.9561 43.5855830407 27.3009
799 1 37.2998 40.5775830407 24.9986
25 1 43.1366 42.9935830407 27.3131
3794 1 48.3375 45.2706915203 16.0187
4047 1 43.4263 40.9365830407 21.2706
7779 1 50.5813 40.905374561 29.0607
4662 1 37.4062 46.3745830407 28.2804
3048 1 37.6879 42.316374561 31.0668
6046 1 34.5209 43.222374561 28.1976
1671 1 42.6224 47.0355830407 18.6663
7713 1 45.5128 40.1895830407 26.1826
5799 1 44.9791 43.893374561 30.1851
1930 1 47.7663 41.464374561 29.1126
6664 1 35.5987 40.606374561 22.6196
1626 1 50.6464 47.4095830407 24.4439
2265 1 41.3466 43.772374561 29.1941
3470 1 37.2465 43.697374561 27.6434
7684 1 33.9997 47.072374561 30.7865
6481 1 41.2912 37.1605830407 19.0438
3489 1 42.5533 48.764374561 25.7657
7576 1 47.0376 38.4125830407 23.2493
5678 1 45.1598 48.2285830407 27.0959
4407 1 35.0032 41.746374561 30.3468
5756 1 42.7524 42.810374561 31.366
2861 1 33.2646 45.689374561 28.6176
6147 1 43.653 39.927374561 30.8319
6135 1 38.2421 47.9005830407 24.0389
5694 1 48.7696 49.049374561 29.0818
5880 1 46.9813 48.2605830407 24.7661
2161 1 37.2469 42.5379915203 15.4759
472 1 52.1254 46.073374561 26.2796
7536 1 51.8839 44.8708915203 15.444
260 1 44.7363 47.4126915203 20.3608
3066 1 52.686 43.1625830407 26.2685
1529 1 36.2549 38.773374561 26.7043
3697 1 51.971 47.3855830407 19.2459
6638 1 38.0306 44.733374561 32.2536
2433 1 51.5471 40.911374561 32.4666
7269 1 40.6401 45.554374561 32.4843
7038 1 47.6769 42.5551660814 42.8482
7584 1 36.1839 47.547374561 34.5522
5963 1 41.6462 43.9061660814 44.4008
5479 1 52.09 44.557374561 32.9491
7611 1 48.9508 43.7001660814 44.963
6898 1 43.3582 51.9991660814 45.9911
5774 1 44.7147 42.5161660814 40.087
2175 1 44.1344 49.0951660814 49.1731
6316 1 34.8349 47.1961660814 41.4099
499 1 47.3339 46.2551660814 41.6725
6109 1 47.8972 44.8559576017 47.3148
7823 1 37.9479 42.380374561 35.974
5362 1 42.2947 50.1511660814 44.2941
2423 1 48.5557 51.4961660814 49.116
2366 1 36.33 52.2951660814 47.4428
3775 1 35.7091 51.3391660814 44.8748
3099 1 34.7593 49.0031660814 45.529
4777 1 39.8444 50.2301660814 45.3918
4511 1 35.7131 44.9991660814 46.1741
2012 1 33.0077 49.2881660814 47.6234
919 1 51.0159 45.3411660814 43.6505
3540 1 44.3468 43.4901660814 44.7757
7941 1 41.1918 45.6271660814 48.4729
5862 1 45.121 44.9441660814 46.9084
5219 1 33.4281 50.995374561 39.1734
1332 1 44.7558 47.7421660814 46.7296
1822 1 50.6945 47.8661660814 47.1033
7814 1 51.4574 47.287374561 33.0169
1399 1 45.312 44.0951660814 42.3092
3501 1 36.3283 44.7121660814 42.1488
2547 1 36.7928 47.4181660814 46.4439
4481 1 51.2786 42.0841660814 40.3775
4027 1 35.5039 50.1181660814 49.0574
3349 1 40.9308 46.0461660814 45.8124
2859 1 50.8138 50.7661660814 47.4622
7887 1 33.3488 44.6831660814 47.5138
6446 1 33.9113 44.6441660814 43.8944
4279 1 36.0099 43.0401660814 40.0603
336 1 42.8571 47.5131660814 44.6913
115 1 43.5148 46.3821660814 42.3041
2427 1 38.966 47.6011660814 44.91
3648 1 41.7344 44.2301660814 41.6324
4484 1 47.1697 44.162374561 37.3094
7257 1 45.5086 43.634374561 35.1993
673 1 37.4415 45.5771660814 37.2886
3342 1 42.802 47.9931660814 39.913
4429 1 39.5613 45.3951660814 40.416
186 1 39.2005 52.0861660814 47.319
1287 1 51.1063 51.3401660814 44.5332
5486 1 38.2491 46.8831660814 42.2894
6582 1 48.8054 46.9571660814 44.1839
1041 1 36.6735 49.2511660814 41.6865
7541 1 42.8011 44.062374561 38.9543
3590 1 40.5322 41.527374561 34.9605
1420 1 46.2665 49.3901660814 45.1016
488 1 34.2216 48.581374561 38.0042
3685 1 47.757 47.5879576017 46.7526
5642 1 41.0253 42.7261660814 37.5158
632 1 51.484 48.5631660814 41.3683
1513 1 48.9816 48.376374561 32.9015
4470 1 40.2148 47.7091660814 39.0749
1062 1 50.2945 45.9061660814 41.1295
1440 1 39.861 50.055374561 32.8569
5463 1 39.2651 40.614374561 32.5172
7158 1 33.7328 41.818374561 32.759
6978 1 49.2067 41.256374561 33.7743
7897 1 33.4577 43.7531660814 38.717
6206 1 50.276 43.717374561 34.9725
2751 1 45.0707 40.886374561 34.9805
2624 1 34.0193 41.132374561 37.8276
1031 1 46.5224 46.2761660814 38.8793
2488 1 42.9217 51.6671660814 48.5929
3983 1 36.606 44.633374561 34.8788
7065 1 37.0251 43.1141660814 44.3856
2550 1 47.2945 48.030374561 35.3713
7067 1 39.1484 47.574374561 36.4737
3738 1 52.0469 51.1651660814 38.2528
5665 1 45.2619 47.089374561 33.7191
3230 1 50.1468 45.6389576017 49.0966
2383 1 46.2548 50.128374561 36.8118
7747 1 46.0771 52.2171660814 45.4162
7231 1 33.0524 46.138374561 33.1101
2816 1 50.6696 48.8391660814 38.6555
6384 1 45.6977 48.4331660814 42.662
1347 1 43.7962 49.955374561 38.1622
5691 1 52.4771 47.1571660814 45.118
6303 1 47.4759 50.0361660814 41.3033
2989 1 47.1024 49.2379576017 48.9783
4768 1 52.5067 47.5019576017 49.3341
5451 1 35.1727 46.2011660814 38.8298
3563 1 41.3965 47.404374561 34.7625
3997 1 38.1026 50.9931660814 43.5138
723 1 49.6017 49.2481660814 43.0947
1527 1 38.1233 49.5031660814 39.2867
121 1 43.1212 49.506374561 35.3102
5108 1 37.2096 43.9671660814 48.6262
518 1 43.5482 45.531374561 35.4348
1826 1 51.7971 42.6361660814 43.0991
5260 1 49.0601 45.821374561 36.0671
6091 1 34.0036 43.990374561 34.6361
2115 1 43.6234 44.6911660814 49.1261
1857 1 33.194 47.4121660814 43.928
4437 1 39.5191 42.3919576017 45.1346
1546 1 51.2302 46.5461660814 37.5153
4603 1 42.1674 43.613374561 33.9549
2694 1 43.9074 46.3191660814 38.0292
1809 1 46.2695 44.606374561 32.5539
5970 1 38.4513 43.3671660814 38.649
252 1 35.0813 51.6501660814 41.3389
2707 1 45.4489 50.570374561 33.9551
4755 1 37.4363 48.2069576017 48.9749
413 1 46.6903 41.6221660814 38.291
3402 1 43.4895 49.9931660814 41.739
4410 1 32.6471 47.0221660814 49.2697
4135 1 36.7175 49.1251660814 36.9426
3661 1 47.8217 48.8591660814 38.8462
3917 1 33.5594 47.599374561 35.3537
6118 1 52.1276 44.6471660814 39.2742
7863 1 52.0762 43.129374561 37.023
3283 1 51.7725 43.5099576017 49.6713
322 1 48.687 41.5061660814 40.5105
786 1 40.3423 52.0131660814 49.7381
6987 1 33.5937 52.4611660814 43.459
7987 1 47.5721 53.4971660814 47.5626
26 1 41.875 52.3341660814 42.4468
7368 1 47.1876 43.6589576017 49.6867
5202 1 45.9131 39.898374561 32.581
6444 1 52.48 52.149749122 63.1372
3733 1 44.0257 47.369749122 59.7474
4998 1 33.8283 45.5279576017 58.7627
798 1 38.6027 53.0609576017 55.6607
3357 1 46.7372 50.3281121124 65.5807577013
3995 1 38.6273 53.2711705921 60.0938177013
390 1 42.2447 49.7299576017 59.2578
841 1 49.6452 49.938749122 61.9963
6963 1 42.282 44.3999576017 53.488
5504 1 42.0243 52.3940121124 65.7378177013
7170 1 34.8553 44.4229576017 52.7369
7899 1 39.2631 56.307749122 64.5934
2238 1 41.4771 47.5489576017 60.8812
3851 1 39.4397 55.489749122 61.8782
3414 1 38.3965 48.2090305921 57.4344777013
2790 1 52.6248 47.848749122 63.9427
161 1 41.0019 51.8659576017 60.7071
2666 1 35.4977 51.724749122 65.5978
1182 1 37.8882 48.8707121124 62.1351177013
6388 1 50.3485 52.308749122 64.7087
3802 1 35.561 46.9019576017 53.9124
3542 1 51.5712 47.8059576017 59.8268
727 1 49.9376 48.398749122 64.1816
6579 1 49.9596 49.1369576017 57.7105
4782 1 33.8321 53.005749122 63.7079
4324 1 33.2633 48.9359576017 61.7713
4287 1 48.2287 48.6879576017 59.9959
5259 1 50.9482 45.2879576017 52.8332
850 1 48.1637 52.343749122 62.9487
4278 1 41.7735 47.6241660814 50.4103
3571 1 46.2475 55.7707205921 59.8774777013
10 1 48.6537 56.6139576017 65.7217
73 1 49.3897 50.2474121124 66.1753077013
1434 1 33.3165 46.1379576017 61.4056
3061 1 50.8205 46.5129576017 55.3344
3491 1 35.0538 46.810749122 65.2498
1217 1 45.6536 49.1679576017 61.1999
3602 1 47.409 54.948749122 63.8322
1612 1 36.0994 49.5859576017 58.1759
3695 1 45.7265 51.268749122 63.0414
7234 1 47.7303 50.9759576017 58.4107
2973 1 50.5085 54.5732121124 66.3868477013
949 1 40.3934 49.6970121124 62.3582077013
5099 1 43.7107 52.9389576017 63.5655
3425 1 39.5645 46.4269576017 59.218
6267 1 45.9862 44.9909576017 52.7971
1724 1 37.9327 50.596749122 66.5098
3408 1 40.5269 50.305749122 65.137
6343 1 44.6752 55.1866121124 64.4097877013
4527 1 37.6017 46.2829576017 55.5152
4656 1 34.4003 55.8076121124 64.2462877013
340 1 34.2864 49.3699576017 64.3494
3345 1 39.5964 44.9929576017 53.9826
6142 1 46.4373 45.9939576017 55.3584
5161 1 48.335 55.0159576017 58.3487
1932 1 44.2109 47.2589576017 56.9248
1941 1 40.7992 47.5759576017 53.1574
5021 1 32.7797 48.5631660814 51.7062
477 1 33.5742 48.3969576017 58.7582
4705 1 52.0211 50.4999576017 60.7173
1713 1 42.145 48.019749122 65.2671
1630 1 48.5841 52.9709576017 60.1818
5336 1 33.4782 53.3571660814 55.0608
1991 1 44.8567 50.7319576017 58.9413
7733 1 40.6902 49.6109576017 56.9358
368 1 32.7572 47.3209576017 54.3132
5986 1 36.6842 51.0209576017 55.8768
1323 1 44.8273 48.2040121124 65.5568577013
2849 1 47.0222 53.6601660814 53.1952
2386 1 34.5944 53.0441660814 52.6397
1580 1 44.6729 53.4159576017 59.1374
4255 1 48.5306 52.8559576017 56.4478
2078 1 40.3368 52.4459576017 57.7192
1345 1 51.207 53.2569576017 60.6904
7406 1 49.0269 49.6689576017 53.2358
6024 1 34.948 50.3731660814 51.7766
7952 1 48.4486 45.5869576017 51.4281
4225 1 45.561 47.065749122 63.0915
3980 1 43.6463 45.8681660814 51.5805
6232 1 42.9533 53.3479576017 56.8669
7927 1 49.0727 52.1689576017 51.7832
2511 1 52.4349 56.5476121124 65.1816977013
7469 1 42.7854 53.6799576017 61.1503
7976 1 32.5138 44.9701660814 51.2639
5674 1 44.8862 48.4039576017 51.7925
5890 1 47.5903 48.1099576017 51.446
176 1 37.6371 46.0719576017 61.1997
2464 1 36.5791 49.4529576017 53.643
1898 1 51.8226 51.5059576017 52.5642
4211 1 42.4132 48.4449576017 55.195
2162 1 51.2037 53.1479576017 56.4747
3877 1 52.6639 53.6239576017 54.1206
500 1 34.3495 51.492749122 61.4349
91 1 52.2843 50.8839576017 57.8887
4878 1 36.8493 50.926749122 60.5919
2514 1 52.5597 46.6049576017 57.4076
5436 1 42.7811 51.9909576017 54.5207
4722 1 51.7309 48.9679576017 54.0681
5159 1 37.1463 48.686749122 64.6766
4769 1 46.0741 49.5019576017 56.7194
541 1 39.6584 49.4809576017 50.2713
6306 1 44.473 49.8579576017 54.1022
1659 1 48.3198 47.9899576017 55.4556
6204 1 47.035 51.2119576017 54.507
6985 1 34.0593 51.3569576017 56.7851
6989 1 39.1258 49.7209576017 52.9099
7369 1 33.1942 52.4029576017 59.0983
4434 1 35.9038 54.432749122 66.4444
3669 1 40.1377 52.2119576017 53.4799
5719 1 33.1773 55.2319576017 59.7847
1672 1 40.3402 54.552749122 66.3951
6561 1 44.3424 53.1499576017 52.6494
2042 1 43.1311 44.7229576017 56.2049
6693 1 41.9667 56.2259576017 61.432
3044 1 51.8336 56.1159576017 61.1387
5038 1 48.2816 46.625749122 63.0412
5994 1 48.4616 45.951749122 60.4287
1028 1 37.3684 55.5339576017 59.0409
2013 1 36.8168 56.935749122 65.4597
7955 1 41.4299 46.405749122 63.2621
1194 1 52.8578 47.2159576017 51.9739
5851 1 34.9806 56.0289576017 61.633
3386 1 40.1695 54.2339576017 51.6265
2321 1 38.6617 45.9021660814 49.9076
5808 1 49.7818 52.2174 2.08748
2274 1 41.5024 56.2940915203 14.6724
491 1 45.4769 50.9265 -0.351043
2821 1 52.4375 48.5064915203 12.3501
3690 1 40.5189 50.0217 -0.917366
2983 1 43.3146 52.7240915203 7.87004
373 1 43.5121 53.2067 0.404716
5677 1 33.778 53.2908915203 10.6548
6966 1 33.118 51.1809 6.60929
905 1 46.182 52.991 1.64995
1475 1 49.1051 53.2199 4.57225
3313 1 41.9696 50.8646 1.2501
2887 1 46.8797 46.8749915203 10.3928
1949 1 35.7286 54.7451915203 12.2558
7942 1 38.8711 48.1675915203 13.0274
7922 1 52.2785 55.1525915203 9.4326
28 1 50.5192 47.1073 -0.722457
5163 1 32.9533 45.4291 3.65764
1443 1 44.0857 46.9293915203 10.0638
6473 1 33.3516 48.6701915203 10.3709
965 1 44.5825 45.113 -1.4523
5874 1 36.3198 43.4612 -1.04424
39 1 36.8179 45.8283915203 9.67407
3233 1 35.8555 51.2842 4.08888
6368 1 44.6927 46.3834 1.14945
5220 1 39.5169 47.4415370096 -1.1735777013
2097 1 43.8308 48.8816 0.631085
7900 1 33.9238 49.473 1.06213
7074 1 34.8047 45.713 -0.6987
7791 1 48.8686 49.2996 -1.4086
3643 1 50.3591 48.1687 1.88007
5153 1 43.1051 54.2477 3.03174
3931 1 42.6775 49.2325915203 14.5241
7382 1 50.4864 53.109 8.72831
5659 1 34.7644 46.868 1.85897
1203 1 42.6734 48.6025370096 -1.8756777013
2562 1 38.1975 50.1073 2.9746
302 1 47.2905 55.4217915203 11.254
5742 1 50.1709 51.6104 6.35313
1996 1 47.2072 46.1875370096 1.8591222987
6443 1 35.7234 52.0712 6.75125
3900 1 48.0118 50.6914 0.837834
1145 1 44.1017 47.0656 4.17627
1698 1 36.5228 54.4407 5.57216
2800 1 47.9473 45.3437 4.41074
2253 1 46.4338 53.451 4.54653
2948 1 47.6909 54.0835915203 8.76992
5644 1 39.802 54.1407 7.98249
6004 1 32.6676 53.1085370096 4.6884222987
3641 1 38.134 50.6455370096 0.2819222987
6342 1 33.0972 55.7025915203 12.2008
4091 1 44.0413 51.8394 4.29016
5293 1 48.3147 53.9480915203 13.351
4306 1 40.5179 51.4828 3.49671
1772 1 42.3323 55.3264915203 7.94671
6225 1 45.9867 52.5863 7.15778
4510 1 45.8542 52.3370915203 13.6659
4941 1 42.3073 45.6147 2.57076
3222 1 52.2712 51.1297915203 13.6914
3098 1 51.7717 50.4278 2.47413
1886 1 42.524 45.9203 7.97529
6411 1 47.3504 49.5254915203 9.81247
5398 1 51.0205 47.8007 6.9585
2991 1 34.5173 52.6285830407 14.9217
2089 1 48.8451 49.304 5.86044
307 1 50.6852 55.2714915203 13.8152
367 1 37.0815 52.4002915203 13.4198
4482 1 40.5635 45.8551915203 9.8879
5687 1 39.8287 51.4078915203 7.55455
4123 1 45.0347 49.5518 3.11492
3277 1 39.2424 53.0403915203 11.565
7333 1 47.8194 48.7709 3.03721
1789 1 47.0357 48.1572915203 13.2107
5437 1 48.5772 44.8942 -0.230765
3446 1 49.7727 50.8586 10.1804
5553 1 43.1845 52.9392915203 12.7697
3043 1 35.9878 52.2594915203 9.44421
6130 1 32.8449 51.6124915203 12.8688
804 1 45.7096 50.3110915203 11.8254
4362 1 42.2903 48.042 6.12663
4077 1 40.432 45.4488 0.420426
1896 1 46.5366 47.4981 5.73083
5825 1 36.4127 48.1776 5.63416
306 1 35.8148 49.7263915203 10.6732
7882 1 33.8866 52.2746 2.27223
2958 1 51.6199 48.7649915203 9.5895
3719 1 43.9537 55.5341915203 13.447
939 1 36.7205 49.7084915203 13.2089
7838 1 35.4935 46.1702 7.27553
170 1 44.6135 45.1951 6.24993
2501 1 41.9745 50.8638 5.9151
480 1 37.5755 49.997 7.1967
1116 1 49.6442 51.5551915203 12.7547
3771 1 37.732 48.3998915203 9.40273
655 1 37.5201 54.5560915203 9.8568
6948 1 38.1354 47.3814 3.62397
1648 1 49.8415 46.6016915203 10.1624
5922 1 35.9749 49.752 -1.12219
7796 1 43.0061 48.9886915203 11.7825
4097 1 40.7408 51.2164915203 10.1905
4141 1 46.3771 49.9112 7.3674
6412 1 51.8057 46.6731 3.48227
4085 1 33.0698 48.9463915203 13.2836
3801 1 40.6005 46.4125 4.51496
4397 1 34.3212 48.8465 4.00976
7698 1 40.5236 53.7609915203 13.8705
6841 1 49.8569 47.5063915203 12.9259
849 1 40.1966 48.5659915203 10.6494
6575 1 43.877 49.2092915203 8.37112
7169 1 43.466 51.4071 10.3367
3945 1 52.2225 52.6502 -1.08782
4293 1 33.0299 55.0547915203 8.54552
2402 1 46.238 54.9636915203 15.121
7455 1 36.7062 44.9575370096 2.6519222987
4218 1 37.2539 53.2855370096 -0.4801777013
5386 1 48.7473 49.8217915203 14.807
5124 1 41.4746 53.5757454893 -1.6308777013
2108 1 47.1099 45.5972 7.93446
2421 1 51.3359 44.3256 0.225909
6769 1 35.6781 55.5225915203 7.89579
2765 1 40.3352 54.2511 3.10831
5583 1 35.4026 54.2822 1.34677
2428 1 46.7411 43.3165370096 -1.5526777013
3208 1 32.8498 46.2105 6.32302
4972 1 42.0599 44.2805 -1.71859
2777 1 52.8547 53.8134915203 13.339
3922 1 52.6009 50.8395 5.12534
7803 1 39.1933 55.2621 5.45549
5900 1 40.3042 48.0269915203 15.2401
4160 1 35.9409 55.2073915203 15.1169
538 1 46.2744 54.4684915203 17.8565
1388 1 35.461 56.6077915203 19.0762
362 1 51.4128 57.1205830407 23.4323
7593 1 49.8978 56.7056915203 18.1559
1362 1 49.8505 58.6125830407 27.9274
3890 1 52.5527 55.969374561 25.8313
2815 1 43.3459 49.1595830407 23.1304
2986 1 34.0899 59.473374561 29.1266
922 1 48.3088 47.4974915203 17.8916
1504 1 42.3781 51.8888915203 15.296
2021 1 42.8728 57.2245830407 18.9473
2732 1 48.5689 59.7645830407 30.1341
5795 1 51.0436 59.961374561 31.4923
5947 1 34.271 54.1375830407 20.2462
5267 1 40.7748 57.4495830407 25.1043
4540 1 50.9943 50.9705830407 16.2325
4364 1 44.0077 52.1405830407 17.6012
6213 1 37.8229 55.8875830407 17.3384
1989 1 38.3604 51.9555830407 22.5563
7109 1 35.6307 57.5075830407 25.3123
7499 1 37.1914 57.1345830407 27.8143
285 1 34.1475 50.9447915203 17.0228
5660 1 48.7119 55.8715830407 23.899
1491 1 48.4246 54.8935830407 19.6595
4267 1 40.7302 56.1470915203 17.3069
3177 1 43.824 54.5115830407 19.357
152 1 46.5348 53.288374561 31.9138
2284 1 38.5412 54.9715830407 19.9366
4885 1 33.0566 55.023374561 31.7394
4170 1 43.337 60.120374561 30.6543
4224 1 43.725 56.6865830407 25.1419
5118 1 40.9573 53.8415830407 19.2295
5074 1 45.9724 48.8932915203 17.4459
1521 1 45.6875 50.3245830407 23.4964
3395 1 39.4479 49.5192915203 17.4245
2087 1 36.8533 58.445374561 32.303
7689 1 45.0449 54.1485830407 21.8383
1263 1 36.4145 49.1295830407 25.6639
5945 1 42.0605 58.3705830407 29.1375
4206 1 36.6803 55.0585830407 24.2645
2353 1 34.3207 57.0435830407 27.8786
1538 1 47.9895 57.6095830407 26.11
4781 1 40.3744 52.1898915203 17.1914
7832 1 38.4521 49.4355830407 21.6871
5257 1 40.6718 59.4325830407 27.2289
7517 1 32.5567 50.6674915203 19.5562
6341 1 47.4871 52.0985830407 18.5712
6324 1 39.7306 58.5305830407 22.8736
1290 1 40.3481 48.4185830407 19.7894
5480 1 47.1203 56.0055830407 21.7438
7869 1 37.8025 56.6915830407 22.1645
4515 1 35.281 50.711374561 31.0251
5845 1 35.8152 58.6945830407 22.865
3134 1 45.4612 58.1825830407 26.875
7193 1 36.8376 52.9795830407 20.4979
5355 1 45.9308 57.2882915203 18.5535
7371 1 49.1825 53.199374561 30.4461
3920 1 50.2634 49.2355830407 20.9555
457 1 33.9447 55.5545830407 17.1005
5913 1 52.6599 55.1605830407 21.7111
6423 1 49.2502 51.7295830407 21.7732
796 1 46.5667 51.8685830407 21.2316
1252 1 36.0758 49.4805830407 20.2358
4002 1 38.0935 53.467374561 30.3515
1236 1 40.038 51.479374561 30.5889
2909 1 33.7674 51.7915830407 26.9054
547 1 45.787 59.280374561 29.4603
6889 1 52.3875 48.8725830407 22.8526
7960 1 45.0097 56.593374561 30.2734
3847 1 44.8408 50.832374561 27.6985
4552 1 48.6066 57.179374561 31.6092
879 1 42.1409 50.0095830407 20.9241
6390 1 44.5878 50.0975830407 19.6771
2071 1 50.9955 55.972374561 28.0662
6238 1 38.9382 55.7145830407 26.0842
6726 1 51.4016 54.9865915203 16.6128
5907 1 47.3826 51.456374561 28.9114
3135 1 35.8591 52.4475830407 28.7175
44 1 50.8209 53.5095830407 20.4053
3858 1 47.966 52.8565830407 26.536
938 1 49.384 49.9935830407 18.4254
4842 1 43.7132 54.0445830407 24.2568
7588 1 34.3904 50.4935830407 24.2354
4795 1 39.7144 54.8395830407 28.5144
6151 1 42.3806 53.813374561 28.268
3988 1 36.7178 49.3175830407 17.5457
398 1 34.9379 55.0665830407 29.6181
7619 1 32.9937 57.2735830407 24.5668
5873 1 40.0861 50.052374561 28.1733
448 1 38.5188 52.9205830407 25.2329
3219 1 46.5425 51.1961915203 16.0044
6110 1 42.1656 51.176374561 26.9022
5737 1 41.0366 52.4425830407 21.6997
1026 1 34.6442 51.5085830407 21.5186
6798 1 33.8597 57.8525830407 21.0693
5649 1 37.28 56.1615830407 30.5619
2906 1 36.6376 52.1195830407 17.8093
7553 1 47.3619 55.326374561 30.1547
1230 1 32.5361 53.8505830407 25.7399
1557 1 45.616 52.1795830407 25.4278
1864 1 33.0403 55.5725830407 22.3753
1974 1 40.1186 56.893374561 30.5023
4909 1 37.8093 51.0845830407 27.1096
473 1 42.3472 52.816374561 31.036
244 1 49.6192 53.2735830407 24.1782
2081 1 48.2282 55.3705830407 27.6159
4000 1 51.1127 53.240374561 28.3333
2971 1 41.3103 52.8795830407 24.5991
82 1 50.6359 51.4585830407 26.2781
898 1 34.4047 53.5395830407 23.6795
4017 1 38.1531 59.7715830407 28.215
4695 1 52.0859 52.7111915203 18.0357
460 1 46.136 58.5867915203 21.0593
331 1 43.6785 56.188374561 27.9359
766 1 44.7428 51.571374561 30.4206
5008 1 50.0805 50.4745830407 31.1252
83 1 44.1382 47.3667915203 16.041
5676 1 44.2484 58.4035830407 23.0665
7604 1 52.3956 53.8155830407 24.0795
2605 1 38.2171 53.5014915203 15.7398
7001 1 35.0893 60.5415830407 31.8736
1128 1 52.5169 48.7608915203 16.8239
2820 1 50.2893 47.4465830407 15.7493
4840 1 51.3797 57.124374561 32.0756
1394 1 51.0392 54.264374561 32.2553
619 1 49.6823 59.2295830407 24.5534
4826 1 32.5752 53.2073915203 18.1186
6821 1 41.2522 55.040374561 32.2124
6483 1 35.0407 48.8524915203 15.2774
4497 1 46.0796 60.769374561 37.9697
6152 1 51.9934 52.981374561 42.2604
7703 1 42.129 54.2031660814 44.6666
1541 1 34.0285 55.0531660814 44.827
3907 1 45.9635 57.5751660814 48.1202
3040 1 48.3824 61.1231660814 49.3994
4062 1 45.4037 54.769374561 33.8477
4614 1 51.064 63.6221660814 47.416
682 1 48.4059 56.7731660814 39.626
7270 1 39.2854 52.063374561 38.9456
5679 1 36.6186 60.3011660814 47.4686
3202 1 45.3333 60.6081660814 45.8583
7075 1 40.042 59.0051660814 44.9111
6155 1 33.9348 60.3441660814 47.9797
297 1 37.5763 60.4901660814 44.8591
1248 1 42.6422 58.7551660814 43.6852
7486 1 37.4732 54.453374561 33.0345
2935 1 38.3194 53.554374561 36.8559
2217 1 42.2027 61.5591660814 43.7357
4183 1 35.7656 58.5201660814 44.2794
7793 1 50.1147 53.4591660814 46.4662
1174 1 47.004 56.7441660814 42.1344
4119 1 51.2572 53.4081660814 39.6297
2135 1 37.4783 56.1731660814 40.4311
4254 1 42.1534 56.506374561 37.61
6086 1 51.2185 59.1061660814 44.1176
4759 1 36.637 55.8921660814 44.0157
68 1 41.5086 59.3941660814 47.1003
1715 1 50.2658 59.9891660814 47.5539
3554 1 48.6223 53.9971660814 39.4913
3371 1 40.1663 55.5521660814 41.194
674 1 44.0545 58.1151660814 46.1166
2526 1 45.5227 54.371374561 36.51
826 1 42.8743 54.476374561 40.8575
4259 1 49.3263 55.1271660814 44.4789
774 1 37.4969 57.7731660814 48.0284
831 1 40.9449 56.4891660814 43.6496
5658 1 44.3737 56.4141660814 41.7556
7245 1 43.1576 54.111374561 38.0549
5512 1 44.4188 55.7661660814 44.4508
1850 1 38.7251 56.4391660814 45.7141
1956 1 51.6381 55.6141660814 42.9297
495 1 34.1546 55.1761660814 38.0662
3149 1 32.5786 59.164374561 32.621
576 1 48.6556 57.8591660814 44.3497
3561 1 38.6688 60.371374561 35.1299
4051 1 35.4425 56.5061660814 49.2612
7530 1 36.8824 55.760374561 37.8892
5541 1 51.2084 59.8111660814 41.4317
1126 1 47.1202 60.0791660814 43.7588
3636 1 37.6388 62.5831660814 41.6787
2272 1 46.724 54.1841660814 43.527
4751 1 48.1751 51.215374561 33.2116
2788 1 35.8724 62.3231660814 43.807
1384 1 41.1206 57.7161660814 39.7331
7552 1 45.0537 61.738374561 40.3305
3504 1 35.5464 59.689374561 37.6687
432 1 49.5254 52.442374561 35.3038
2204 1 33.3598 59.1971660814 45.5028
5919 1 48.7266 57.6711660814 47.2259
3682 1 40.4452 54.6261660814 46.9684
6320 1 46.3529 59.3881660814 41.2529
7176 1 42.34 61.656374561 40.8745
6922 1 49.8384 61.6781660814 40.0247
6480 1 34.68 54.4491660814 47.5715
4574 1 33.1137 58.2051660814 49.5275
6408 1 40.0789 56.606374561 35.9004
2907 1 33.7427 52.553374561 32.6679
149 1 36.7756 53.9111660814 41.8896
213 1 41.8428 61.9461660814 47.8948
1064 1 36.4553 51.735374561 36.2684
533 1 39.1988 59.278374561 38.7607
6578 1 41.1839 51.657374561 34.9685
5003 1 46.1859 62.1431660814 47.9809
6305 1 51.047 57.1681660814 40.753
3190 1 41.7238 51.769374561 37.7729
3632 1 35.988 58.2121660814 41.4422
6932 1 41.208 61.172374561 38.2329
7964 1 52.3898 55.766374561 38.8402
283 1 45.2474 60.194374561 35.3001
6221 1 47.4443 52.678374561 37.1721
6285 1 42.6644 59.848374561 36.2399
3812 1 46.2722 56.955374561 37.652
928 1 43.4944 52.603374561 33.6281
2295 1 39.9972 58.2861660814 49.1077
4708 1 49.7553 59.037374561 36.6706
6359 1 47.4238 58.347374561 35.4591
7688 1 33.3059 58.1291660814 41.4456
191 1 37.0176 62.4441660814 48.9026
7378 1 50.1006 54.951374561 34.625
7873 1 37.8155 58.143374561 36.7074
5224 1 50.3881 55.5191660814 48.4027
2588 1 44.2275 58.618374561 38.209
6967 1 33.0735 59.838374561 39.0145
623 1 43.3376 58.868374561 41.0242
1376 1 47.7889 56.166374561 34.0443
4011 1 44.4361 52.130374561 39.9273
1943 1 32.5901 55.7441660814 40.2658
6886 1 41.8335 58.068374561 34.3931
2263 1 36.8955 60.4061660814 40.1223
2312 1 33.2824 56.779374561 33.9147
5604 1 33.0444 61.7181660814 43.9244
4970 1 48.38 59.5681660814 38.9818
3531 1 50.8238 61.6591660814 45.3543
4932 1 36.2671 56.809374561 34.4464
5449 1 43.5514 56.613374561 32.7172
821 1 39.4612 62.5351660814 43.9074
2077 1 34.1384 52.621374561 37.0373
2453 1 45.8298 55.0541660814 49.2077
5848 1 39.802 54.218374561 34.535
4442 1 51.1175 56.643374561 36.4075
113 1 34.1587 57.440374561 36.5426
4041 1 52.5996 59.3461660814 48.9262
2493 1 46.904 52.7261660814 41.1474
7410 1 48.46 62.3861660814 44.1389
2227 1 41.1019 55.6441660814 49.3183
7745 1 36.5032 51.738374561 33.4785
5787 1 51.7947 60.485374561 35.5381
3604 1 43.9613 63.0081660814 45.1508
7082 1 32.5377 62.6231660814 48.2772
5503 1 47.8053 59.602374561 32.9313
6083 1 39.2684 52.6771660814 41.5483
7303 1 44.9512 59.186374561 32.796
4346 1 39.7159 62.6641660814 49.4028
4006 1 52.857 58.051374561 34.4017
4962 1 39.6561 58.704374561 32.8849
1550 1 51.9068 51.104374561 35.4706
7618 1 44.105 61.5901660814 49.6854
3340 1 50.2781 66.6145905921 62.2763877013
2643 1 39.5965 61.2719576017 58.4298
1317 1 51.1813 60.7758121124 65.7173677013
1998 1 42.5225 55.3569576017 52.6882
5921 1 45.5072 64.8096121124 65.9871077013
6686 1 45.3475 56.7229576017 54.8621
4057 1 48.3395 63.3779576017 62.9986
5745 1 51.6639 57.0519576017 54.9179
6114 1 44.9971 62.7429576017 58.866
1890 1 46.3634 64.4381660814 52.729
7011 1 38.5947 57.2169576017 57.1486
747 1 43.2218 61.6149576017 63.9041
238 1 39.7088 60.3191660814 51.031
5188 1 49.9196 63.3851660814 53.9864
1157 1 41.3413 60.0302705921 60.0916677013
1706 1 50.2122 59.2659576017 57.6488
3583 1 41.2164 58.265749122 64.5007
3752 1 41.0134 60.9789576017 65.6694
6020 1 51.393 58.5311660814 51.5336
647 1 43.202 61.8909576017 61.1011
3157 1 34.7485 58.6839576017 60.9321
8000 1 45.1035 57.9969576017 58.8182
2528 1 38.7866 61.0039576017 63.9172
3176 1 38.5031 65.4389576017 64.336
5069 1 39.6244 59.0959576017 62.0936
6283 1 47.7826 61.6219576017 60.7894
7672 1 36.6265 66.4394121124 66.0523777013
5097 1 41.2002 57.2674315921 56.7811777013
286 1 49.8377 54.9991660814 51.0907
4783 1 34.8883 59.0229576017 58.0793
4242 1 52.0574 60.6001660814 53.1492
2557 1 47.2197 62.8219576017 65.5055
3625 1 34.8347 63.8981660814 59.91
3882 1 49.8392 58.0519576017 62.0655
869 1 45.3583 60.1299576017 60.4712
7284 1 34.005 66.5138805921 64.9312977013
2613 1 42.4886 57.6929576017 59.2702
6146 1 50.1095 60.1569576017 60.346
1968 1 47.4766 60.2481660814 51.8519
3148 1 40.8496 65.7094121124 65.6890277013
4749 1 37.8849 63.3199576017 62.8213
6311 1 47.4347 55.3639576017 55.6059
3621 1 37.4581 59.8389576017 57.3813
2521 1 34.7477 62.1521660814 56.1871
1601 1 50.1215 65.865749122 66.6085
6918 1 37.42 55.5719576017 55.2497
2359 1 52.8734 59.1639576017 56.2324
1122 1 50.2954 56.7929576017 58.7841
4129 1 43.176 64.3219576017 64.6335
940 1 36.5749 59.735749122 64.8644
1301 1 33.7328 61.5969576017 58.861
6907 1 44.1961 64.0571660814 50.9781
7247 1 51.0917 62.5564105921 63.4439877013
7830 1 51.3091 65.0929576017 64.243
5964 1 43.3777 54.1451660814 49.9377
6470 1 49.841 63.4291660814 49.872
6879 1 45.2393 60.5879576017 54.906
1662 1 50.4585 58.442749122 64.6549
7602 1 46.2112 67.2499576017 64.8112
110 1 40.5674 65.9429576017 60.0785
5440 1 35.1092 62.9999576017 62.4545
1564 1 43.8097 66.9919576017 63.2295
3582 1 45.4681 60.5739576017 65.1792
2835 1 33.4283 58.4231660814 55.8716
2760 1 48.9607 57.7939576017 55.5125
6360 1 45.5001 65.0629576017 60.6399
2984 1 47.4831 66.0219576017 62.4465
2993 1 37.2545 64.8618405921 58.7041777013
1831 1 35.2942 62.3331660814 51.2269
3555 1 44.6579 57.1951660814 52.2704
858 1 35.8139 55.4671660814 51.7267
1461 1 33.3085 56.4151660814 52.825
6891 1 41.3369 61.6679576017 56.2088
1813 1 39.5797 65.5391660814 57.4415
1286 1 38.1346 63.9531660814 54.2052
7412 1 47.0938 65.7469576017 58.2784
3041 1 43.6367 57.3907121124 63.3856677013
4861 1 37.7932 61.9331660814 52.4653
5923 1 50.3427 64.2669576017 59.0464
1646 1 45.6762 59.0439576017 62.9213
1150 1 42.9085 64.6709576017 61.6137
621 1 43.937 62.4059576017 56.3595
2742 1 37.1206 60.0479576017 54.5733
3657 1 43.3711 59.3181660814 53.38
2824 1 41.1666 59.2659576017 54.9558
4391 1 45.3834 59.0701660814 50.3642
2480 1 40.5784 64.2729576017 55.1858
5126 1 38.5195 56.1711660814 52.6445
2141 1 38.9351 63.5629576017 60.2657
7721 1 36.3536 64.2669576017 56.0257
5722 1 48.3049 61.1599576017 56.591
3262 1 34.6552 55.9599576017 55.1731
1418 1 34.4407 60.2041660814 54.1062
1458 1 51.0905 61.3491660814 55.6522
3899 1 42.3475 61.1321660814 51.7368
5232 1 47.3675 62.1861660814 53.8277
5643 1 46.3984 58.8119576017 56.4847
1456 1 52.1435 55.8471660814 52.4385
2119 1 37.4365 57.4620695921 61.1017577013
1162 1 44.1188 64.6039576017 54.6376
1549 1 47.1616 55.9581660814 51.446
1153 1 34.733 60.2949576017 63.0409
2074 1 34.9444 56.2069576017 58.0565
4256 1 42.0112 63.7741660814 52.7392
4959 1 39.2189 58.6501660814 53.2561
1465 1 47.8594 63.1289576017 58.4874
836 1 52.3219 63.1851660814 57.439
6249 1 48.7212 57.9361660814 52.7871
3484 1 47.2448 57.038749122 61.9803
7292 1 51.6535 62.9221660814 51.8462
6169 1 52.3095 61.4499576017 61.2279
89 1 33.1479 64.1729576017 63.9661
5542 1 42.955 55.7049576017 55.4952
2998 1 32.7284 60.3579121124 66.6206977013
6909 1 32.9063 61.9471660814 52.5714
5373 1 32.6301 63.6361660814 54.9404
6363 1 48.3432 68.0059576017 66.4577
6369 1 52.1494 55.6244405921 57.2090777013
3679 1 32.506 65.3849576017 59.6506
7944 1 38.9798 67.1629576017 62.2115
2279 1 36.8633 61.553749122 66.9881
80 1 61.7085 17.7613285299 -0.5917777013
4691 1 56.5598 14.9739915203 9.24846
90 1 53.4118 16.2088915203 12.6705
5898 1 60.5618 12.4089915203 -0.106883
6604 1 64.3479 19.8923915203 9.32171
2447 1 71.7987 14.7996915203 2.68626
1274 1 70.2702793752 17.0045370096 -0.5682777013
3568 1 66.4688 22.2624915203 11.1869
4791 1 54.969 23.7488915203 13.4091
2120 1 63.3658 14.9061915203 2.14164
7480 1 56.1166 20.9751 4.44216
6615 1 61.5305 21.9974915203 4.88748
3020 1 68.6787 19.4145915203 5.10232
2797 1 67.5697 19.2543285299 2.5559222987
4784 1 58.6107 20.0086915203 5.32845
6058 1 69.6689793752 14.9625 4.44913
1852 1 56.0924 21.5275370096 -1.3290777013
1181 1 53.8463 19.2554915203 4.30851
720 1 55.5988 22.1308915203 11.1162
4546 1 65.9974 22.1102915203 8.47193
3620 1 72.9245493752 20.8931915203 9.19838
4983 1 56.253 12.3673915203 0.609065
2143 1 58.017 20.2852915203 0.407317
3183 1 54.1901 23.4917915203 9.11064
3160 1 59.544 22.6830915203 2.96742
498 1 62.2562 14.3673915203 6.77429
468 1 62.3028 19.6659915203 3.80783
6508 1 67.4734 15.2945370096 2.8094222987
405 1 69.8331 21.3850915203 6.52703
6870 1 65.1957 15.6376915203 4.20746
1753 1 60.023 21.5675915203 7.3628
2996 1 71.9505 12.6301915203 1.19402
6248 1 71.9368 22.4057915203 5.09894
3054 1 64.6984 19.5046915203 2.36299
5833 1 72.7751493752 20.8120915203 2.93739
981 1 72.8462 22.6265915203 11.3341
3597 1 55.2802 22.7784915203 6.49763
3199 1 71.1131 19.6755370096 -1.2820777013
3318 1 68.0564 17.0251915203 0.947115
3532 1 55.8511 21.3919915203 1.58859
7033 1 70.0826 23.3699915203 11.521
1289 1 53.1858 19.2495830407 13.3288
4532 1 64.4012 21.1185 0.165006
3225 1 67.1203 12.6612915203 1.77475
4677 1 72.4957 16.2663915203 9.86741
5615 1 59.8814 17.3992915203 1.25224
5172 1 57.3736 17.4780915203 0.0338823
247 1 53.1291 16.6777915203 7.83924
2536 1 68.5339 21.6296915203 1.30602
5850 1 61.0288 13.9625915203 9.0911
3553 1 60.1048 21.8295370096 -1.0274777013
6570 1 62.2587 20.2102915203 -1.71626
6611 1 65.9372 13.3763285299 -0.6706777013
5088 1 59.5951 19.8090915203 2.76337
7265 1 64.05 17.2833285299 0.9084222987
1307 1 65.4025 21.6542915203 4.10694
404 1 58.0036 23.0405830407 10.2679
6803 1 68.457 23.3945915203 7.62783
7509 1 66.0005 16.1757915203 -0.708776
1665 1 71.2723 21.6921915203 0.729197
6370 1 72.7878 17.3805830407 12.4901
2027 1 66.7498 24.6122915203 12.4359
4507 1 71.0714 18.9665830407 14.1382
1595 1 62.6519 18.2714915203 6.18547
1363 1 71.6482 24.2515830407 14.7467
6773 1 72.4298 21.5236915203 14.0438
2320 1 56.4475 13.8740915203 6.65973
4512 1 58.6074 16.8022915203 8.94031
1615 1 63.3679 12.5983915203 0.265194
6904 1 63.8452 15.9724915203 10.0652
3947 1 61.5478 23.7981915203 8.16138
6687 1 60.8255 16.2740915203 5.50054
4289 1 54.0533 19.2721 1.49666
5622 1 61.5885 19.4046915203 8.62336
1291 1 70.3039 19.9805915203 8.91189
1044 1 70.3787793752 17.3500915203 8.47393
943 1 59.6163 20.8838915203 10.1137
7331 1 65.7674 17.3875915203 8.68653
4309 1 66.3851 20.4168915203 6.25302
6534 1 58.8224 13.5883915203 1.67388
2153 1 68.617 15.0594915203 10.9793
3336 1 67.1137 15.3805830407 14.9158
1757 1 67.0611 21.6955370096 -1.0141777013
6051 1 56.8118 16.0864915203 4.77954
7438 1 58.5347 17.4939915203 6.16013
1950 1 60.672 16.4895830407 12.5304
1685 1 56.9781 15.5973915203 2.12843
2845 1 65.2568 17.7119915203 6.06564
5558 1 61.6108 21.6545830407 11.9176
7965 1 72.1845 17.0979 1.37516
1146 1 54.54 16.894 0.0535622
3405 1 67.3288 16.8416915203 12.5986
4696 1 55.7552 16.0815830407 14.0025
4865 1 62.8922 17.1405830407 14.0391
852 1 70.4112 17.2604915203 5.74359
7387 1 59.1327 18.5725830407 13.2866
209 1 68.6473 19.0995830407 13.2354
5697 1 67.9936 16.0340915203 8.5555
4581 1 53.6665 13.7159915203 7.47182
7599 1 54.1003 21.4745830407 14.855
4647 1 60.739 15.3928915203 2.81568
4142 1 54.3227 16.8092915203 5.33128
1582 1 64.7147 17.7765830407 12.0777
239 1 57.9189 18.6978915203 10.8212
5464 1 68.8305 20.9039915203 11.0498
6720 1 64.3124 20.6895830407 12.1518
7098 1 54.5551 16.9260915203 10.1555
4257 1 60.4497 20.7185830407 14.2527
1985 1 55.1569 19.3214915203 11.3502
6503 1 61.2275 16.6495830407 9.77528
1 1 64.8263 20.9645830407 14.8831
4264 1 54.3427 14.3513285299 1.2980222987
6090 1 72.4558 18.3702915203 3.9487
1283 1 64.8982 13.7675915203 6.1349
1869 1 69.2148 25.0424915203 13.8524
5895 1 72.777 15.0178915203 13.8525
636 1 57.7432 23.5267915203 7.52425
5375 1 61.5467 24.3105830407 11.1305
117 1 67.309 13.4346915203 7.58328
3716 1 53.1459 15.0220915203 3.60327
3718 1 52.9684 21.2035915203 5.99751
5389 1 62.6894 19.5295830407 15.3591
4565 1 73.0513 20.851374561 27.3103
7819 1 56.8088 27.495374561 31.2987
7134 1 73.0567593752 19.8885830407 17.441
5146 1 65.6894 25.1605830407 21.8317
6349 1 69.2768 19.1885830407 20.9312
1034 1 55.814 21.0655830407 23.8742
7606 1 64.4849 16.8445830407 17.8595
5846 1 67.2453 19.620374561 22.8696
1070 1 60.7442 22.113374561 23.4872
2448 1 68.1712 26.333374561 22.7838
3634 1 60.0502 22.4075830407 16.474
2866 1 69.1913 17.445374561 18.6796
5976 1 60.094 18.053374561 19.1644
5912 1 54.0106 23.4305830407 19.9931
5316 1 68.1629 21.791374561 24.2644
2743 1 54.9832 18.2595830407 20.7755
2513 1 54.1715 19.3185830407 18.4323
4875 1 58.209 22.4125830407 24.3707
4810 1 57.5902 21.8135830407 17.4898
1935 1 66.7864 25.772374561 26.2311
6055 1 72.0882 23.3765830407 19.0936
1413 1 68.6893 21.410374561 26.918
2075 1 57.9113 24.374374561 26.2119
1532 1 63.5182 18.631374561 20.6542
4238 1 61.2233 17.474374561 21.9605
4568 1 61.9653 24.383374561 24.6697
3548 1 64.0715 22.916374561 25.5974
1385 1 54.41 25.654374561 24.2415
4965 1 55.5433 19.112374561 28.5112
4001 1 65.8658 22.8035830407 20.5062
3864 1 58.6351 17.743374561 25.3891
904 1 68.2325 21.5755830407 19.5716
70 1 60.3802 22.4825830407 20.7479
1891 1 56.9679 19.615374561 21.821
5664 1 66.0045 25.293374561 28.8488
7147 1 65.1293 23.3765830407 15.9603
7694 1 57.9889 23.958374561 21.7572
4718 1 61.9847 25.0385830407 20.9385
1371 1 62.4921 18.9265830407 18.0474
5057 1 69.8942 23.2085830407 20.5936
4013 1 72.1603 27.107374561 30.6223
4185 1 60.5321 25.087374561 26.9621
3298 1 55.8108 20.0755830407 16.4588
5083 1 55.2156 23.5555830407 22.4455
663 1 64.0273 23.2215830407 18.4549
3288 1 61.7949 21.5655830407 18.4845
5400 1 56.1394 26.275374561 26.269
2933 1 66.3067 23.918374561 24.2996
41 1 70.4897793752 22.370374561 23.1197
2608 1 71.8471 20.0885830407 21.98
7034 1 63.2389 19.617374561 27.3624
5587 1 64.9305 20.6565830407 21.8361
1336 1 62.9834 15.1105830407 15.9075
4223 1 58.6419 20.5385830407 19.8056
1714 1 66.7554 16.775374561 22.8192
256 1 68.7825 21.6065830407 16.9349
4765 1 58.4639 17.643374561 22.7721
2084 1 59.0687 16.8045830407 17.0477
7950 1 70.2179 25.628374561 24.6818
2685 1 70.7252 19.597374561 26.6202
376 1 71.8953 24.314374561 30.4809
7983 1 67.7923 24.1455830407 16.3332
1164 1 56.1254 18.766374561 25.726
7940 1 64.1707 20.231374561 24.6325
4382 1 72.0959593752 25.4315830407 17.1689
2517 1 58.2254 25.0521660814 31.8157
7815 1 69.53 27.653374561 29.9797
3065 1 71.5452793752 21.9615830407 16.738
4352 1 56.1225 23.9995830407 18.1841
4076 1 63.548 26.221374561 23.2103
2841 1 72.5391093752 19.5011660814 29.6143
5788 1 54.3498 20.5531660814 30.5829
3506 1 58.003 19.115374561 29.7003
7078 1 60.9338 25.994374561 30.9509
1738 1 66.2395 18.210374561 25.3057
5739 1 62.5452 27.952374561 29.7198
4059 1 67.1043 17.3905830407 16.8694
5768 1 64.5235 18.5321660814 31.5986
3478 1 56.0382 24.263374561 29.9919
6523 1 70.3408 23.532374561 28.3088
4903 1 61.0104 24.8905830407 15.7684
3671 1 73.0613293752 18.259374561 23.5658
2941 1 61.8345 18.2331660814 30.9006
2145 1 67.9058 25.2321660814 30.9519
6270 1 70.699 17.360374561 24.8163
2403 1 70.0033 19.5071660814 30.9014
4184 1 54.177 23.193374561 31.7325
4354 1 60.6214 19.248374561 26.5766
4219 1 67.5788 22.771374561 29.2509
7514 1 59.7802 22.698374561 31.7859
5959 1 65.4001793752 21.1041660814 32.0433
4996 1 62.6987 22.4831660814 32.3013
4367 1 57.3756 22.714374561 28.2566
2007 1 64.8648 16.2925830407 20.6098
5670 1 61.5676 19.514374561 23.9007
825 1 69.3579 26.158374561 27.184
7356 1 55.4128 21.522374561 26.6896
4244 1 69.5158 18.1371660814 28.5693
5495 1 61.2145 23.622374561 29.241
3987 1 66.877 19.366374561 27.9442
2619 1 72.2835193752 23.930374561 24.5841
7053 1 55.1476 26.526374561 28.7906
1137 1 60.7655 27.839374561 27.6728
3776 1 59.6983 21.300374561 28.6318
2775 1 62.2909 20.884374561 29.9609
5979 1 63.8875 23.545374561 28.3327
5215 1 68.2656 21.5711660814 31.7418
2551 1 65.1041 21.266374561 29.2583
1509 1 60.0057 25.470374561 22.9703
7971 1 72.9644393752 23.470374561 27.1411
2222 1 53.2198 18.596374561 22.8008
6202 1 71.1008793752 18.0865830407 16.7063
2602 1 62.4863 25.4875830407 18.1231
6371 1 56.0132 25.0385830407 15.6293
7706 1 53.0234 17.0425830407 17.3267
7485 1 57.6592 25.8155830407 19.7803
5823 1 58.2344 20.5141660814 31.9427
7104 1 53.8863 17.335374561 25.1478
7928 1 69.481 16.826374561 22.3729
1953 1 69.6705 26.1685830407 20.4445
5183 1 59.3926 28.439374561 31.0317
1951 1 71.9285 15.4325830407 16.3915
4572 1 64.8266 27.766374561 28.3211
4010 1 55.0272 15.4785830407 16.6355
5972 1 67.2784 19.7765830407 15.5302
1700 1 70.0556793752 23.9131660814 32.4714
770 1 57.4034 18.0779915203 15.2519
7850 1 63.8961 27.701374561 32.3166
708 1 58.8548 22.0559576017 47.1925
6755 1 63.8756 20.8791660814 39.3355
6288 1 53.2558 19.8921660814 36.9831
1783 1 68.3418 21.8281660814 38.7716
4270 1 64.2673 29.2801660814 38.3815
180 1 53.0979 27.0749576017 47.98
5285 1 69.0793 22.8779576017 46.2215
3598 1 67.3914 23.1309576017 48.3093
330 1 61.5461 21.8909576017 46.4645
3522 1 57.3096 22.2939576017 44.9361
6873 1 70.5322793752 19.178374561 33.7127
2314 1 57.3071 31.0381660814 44.9852
4445 1 66.0035 25.9841660814 32.8108
3971 1 53.8447 29.8701660814 42.4461
1382 1 66.3943 21.0671660814 40.4719
6378 1 60.1797 21.0651660814 37.2579
1795 1 68.1069 29.1911660814 36.1077
4953 1 72.7788 28.260374561 33.0184
3782 1 65.2386793752 23.1929576017 46.3674
2873 1 71.1270793752 30.1701660814 45.9762
4867 1 72.8857 22.7761660814 43.1066
6698 1 54.7255 24.3691660814 41.8017
2905 1 67.7089 30.4521660814 42.8936
7650 1 60.3657 29.8969576017 49.2355
5430 1 72.3550593752 30.1911660814 41.4015
3557 1 72.2117 22.1891660814 40.4303
6047 1 69.3151 28.5811660814 44.4505
6991 1 63.5945 22.5581660814 35.5009
7860 1 56.449 20.6711660814 39.5174
2148 1 63.8226 28.0231660814 40.8309
3472 1 58.4087 24.5579576017 48.4598
4735 1 58.7213 23.1001660814 42.5469
479 1 71.211 23.0089576017 48.169
6430 1 63.0721 23.4811660814 39.8366
3854 1 70.9889 24.3881660814 44.5749
7280 1 72.0587493752 25.5889576017 47.0016
4156 1 68.2139 22.6321660814 34.5695
3863 1 55.671 20.9101660814 33.0542
1960 1 60.7015 24.5521660814 41.2391
3895 1 65.7589 22.3701660814 42.7072
7379 1 55.2156 23.4709576017 46.5525
3589 1 63.0028 23.0011660814 42.7553
23 1 58.8677 25.4759576017 43.9726
2931 1 55.5277 25.3669576017 48.4774
4676 1 67.2513 24.9111660814 45.1104
5860 1 62.6432 24.6241660814 46.6306
1109 1 53.6751 20.6979576017 39.6933
5886 1 65.4963 31.2131660814 47.358
7808 1 63.5062 25.4621660814 35.882
5065 1 56.3568 23.1531660814 36.4105
4612 1 68.3261 24.5331660814 36.5544
7878 1 55.025 24.744374561 34.1233
1391 1 72.0027593752 24.5191660814 38.8872
1881 1 60.3372 23.8921660814 34.4561
188 1 61.6179 23.5571660814 37.2074
3876 1 60.0664 25.4829576017 46.3909
1199 1 57.8721 24.9651660814 34.664
683 1 62.8077 25.3991660814 44.1108
2955 1 56.8243 23.2381660814 40.5301
5969 1 70.6633 26.6419576017 49.193
7320 1 70.5823 26.5981660814 43.1421
7009 1 72.9688 28.3199576017 46.7346
2296 1 66.5823 24.9451660814 42.4785
4870 1 64.7985 20.4301660814 36.7695
5186 1 66.0309 25.8321660814 37.4525
3431 1 65.0034 25.4671660814 40.132
615 1 69.7028793752 25.8541660814 34.5916
6474 1 53.5351 22.5341660814 35.883
2337 1 53.8121 26.7001660814 35.6798
3686 1 60.9217 26.7401660814 42.8306
2072 1 60.4262 18.9811660814 32.931
3161 1 60.0935 25.2561660814 38.7321
3243 1 65.5046 30.0981660814 44.7003
2728 1 66.8331 27.7321660814 45.2097
5596 1 56.4974 26.6889576017 44.4353
1942 1 71.0451793752 21.7741660814 34.2984
114 1 69.3614 24.4331660814 39.1102
6758 1 57.3389 25.0421660814 38.5653
4834 1 68.6082 26.0821660814 41.1145
7820 1 54.2697 30.6419576017 49.1882
4756 1 61.1763 28.3381660814 40.5199
6064 1 55.3561 27.9831660814 37.6678
1691 1 57.9183 27.1141660814 36.5719
2298 1 55.4425 26.6081660814 40.1369
2095 1 67.8992 27.8231660814 33.7372
3981 1 60.0129 28.1319576017 46.731
6099 1 53.2684 31.8899576017 46.8117
912 1 62.8271 28.0899576017 47.2718
7926 1 64.8149 26.9981660814 43.4049
4675 1 57.4081 20.6841660814 36.9836
2059 1 69.6805 29.1559576017 48.4132
7846 1 67.1156 28.8769576017 47.6468
696 1 67.9031793752 28.7171660814 40.6354
4852 1 55.722 28.1929576017 48.5992
7190 1 66.6594 28.3351660814 38.271
3665 1 59.2444 27.1179576017 49.421
6837 1 63.118 30.2231660814 48.9729
335 1 70.1924 20.3691660814 40.2535
3490 1 63.8488 25.9139576017 48.8566
5884 1 59.9417 20.5941660814 41.9101
7117 1 54.2248 24.8521660814 44.4697
6828 1 57.2319 28.5911660814 46.3207
5530 1 67.4961 20.5961660814 36.3567
3549 1 62.6376 28.1561660814 36.6677
5911 1 70.1681793752 30.0631660814 39.6294
3954 1 53.4479 28.7881660814 33.8574
3462 1 71.8894 27.2571660814 35.3896
320 1 61.3572 21.0151660814 34.5484
5091 1 60.2367 27.9761660814 37.9175
1526 1 56.1175 28.3251660814 42.1011
1855 1 65.7124 23.4271660814 33.6977
6827 1 60.5226 29.3681660814 44.0284
2090 1 62.5844 25.1261660814 33.1836
2723 1 63.211 29.6451660814 43.0664
49 1 70.6919 29.3061660814 36.9741
6295 1 73.039 27.6471660814 42.3942
7026 1 55.3867 19.2951660814 35.2825
3941 1 58.2912 30.3041660814 42.479
193 1 64.7818 23.2929576017 49.405
287 1 58.0244 29.4931660814 35.0152
6992 1 66.4585 26.9849576017 49.518
5175 1 58.8577 32.1959576017 49.1556
7208 1 62.6765 29.404374561 34.2948
7088 1 71.7601 28.800749122 60.834
1964 1 65.0463 32.7079576017 52.9708
611 1 59.761 24.876749122 56.7307
3075 1 70.6682 27.640749122 65.3508
1197 1 63.7779 28.185749122 63.5652
3385 1 68.3967 25.1169576017 50.1487
2566 1 67.0058 28.583749122 61.0992
6217 1 60.428 28.016749122 66.3569
5635 1 53.7548 25.482749122 59.5134
4414 1 70.2240793752 23.3539576017 50.8087
7249 1 71.0124 29.4249576017 52.9011
3156 1 69.4148 26.3436121124 63.3008877013
654 1 69.4305 25.158749122 59.1331
3844 1 72.464 23.7129576017 52.2703
3124 1 65.7932 25.0989576017 56.2627
7591 1 55.4213 31.7109576017 55.6654
5383 1 57.6989 24.448749122 58.5702
6545 1 57.8597 27.6886121124 65.3619977013
3108 1 58.701 26.565749122 60.2865
1189 1 73.0571893752 27.3719576017 56.9495
1939 1 62.0022 24.674749122 58.3017
1114 1 53.9196 23.4809576017 49.8642
1214 1 63.9589 26.530749122 57.538
5191 1 68.282 26.0319576017 56.822
5854 1 58.1978 27.184749122 55.7901
634 1 57.2425 27.148749122 62.6839
120 1 58.6454 23.7259576017 51.2615
7666 1 66.4255 23.7799576017 51.8264
2918 1 64.9024 28.496749122 59.4432
481 1 69.43 27.399749122 60.6537
6949 1 62.7259 28.465749122 61.074
6882 1 63.3824 30.7199121124 64.5982377013
3925 1 62.2148 23.6539576017 54.2857
7523 1 55.9247 24.9569576017 51.4265
7641 1 61.4164 26.198749122 60.647
5565 1 55.8267 25.925749122 55.1125
2460 1 62.7682 27.9199576017 55.3583
7981 1 70.0212 30.378749122 65.7549
2168 1 58.5476 28.383749122 58.1885
2543 1 54.0465 28.202749122 58.6412
7132 1 61.1366 30.5876036328 66.2956077013
5628 1 68.8162 23.4249576017 53.3963
3914 1 64.8109 25.1489576017 53.6727
6077 1 71.861 31.475749122 61.8851
4923 1 66.4923 27.037749122 63.3832
581 1 66.7148 28.6789576017 51.5987
2219 1 70.8657793752 27.7569576017 55.0053
4198 1 56.9284 29.755749122 61.7537
1641 1 72.0017093752 31.673749122 64.5248
3482 1 59.222 32.2313121124 65.0440177013
6775 1 67.8235 31.7152121124 64.4682477013
164 1 65.5172 31.8718121124 65.9205077013
5438 1 73.3738393752 31.6889576017 50.564
3221 1 68.6584 28.6919576017 56.4804
6829 1 60.7445 25.1539576017 52.4038
5680 1 59.0898 34.132749122 60.8574
4659 1 56.3913 25.8503121124 66.9234177013
3674 1 58.0964 31.0329576017 53.1401
344 1 73.0432 24.637749122 60.8371
3546 1 60.5213 30.333749122 58.4003
7824 1 53.361 26.7788121124 63.8050877013
5251 1 69.5487 31.870749122 60.4014
4713 1 62.966 32.489749122 62.3786
2774 1 67.2835 31.287749122 61.8478
6786 1 64.9429 30.573749122 57.5712
4240 1 69.9104 30.7159576017 57.8396
6121 1 60.3587 27.3859576017 54.1726
5228 1 55.2821 27.4119576017 52.7184
7774 1 69.2687 32.6419576017 56.1743
7908 1 61.9574 26.8109576017 50.6003
6066 1 68.1937 34.354749122 64.0237
1315 1 65.27 33.082749122 61.1222
3360 1 62.4658 34.0749576017 57.9288
5318 1 61.5375 33.9204121124 64.5555777013
5104 1 56.2336 29.629749122 59.1836
5544 1 54.7679 30.817749122 62.8389
2346 1 57.2983 28.3249576017 50.919
6315 1 56.0387 32.2501121124 58.3826777013
3992 1 61.2292 30.797749122 61.0686
4304 1 66.2458 29.5389576017 55.3276
145 1 64.9241793752 27.9279576017 53.5137
2537 1 62.513 31.4299576017 53.6103
3805 1 60.4514 32.6019576017 56.7793
1952 1 54.3331 28.267749122 56.0541
3951 1 56.5795 29.3509576017 54.7366
7046 1 54.1277 33.551749122 60.2383
6732 1 69.3954 34.3629576017 61.4464
4277 1 70.2135793752 24.9939576017 55.0923
1870 1 62.857 29.2609576017 51.8346
7210 1 72.3935 28.1539576017 50.8352
3838 1 67.4137 31.6209576017 54.2711
2379 1 72.3868793752 29.6249576017 58.3108
5056 1 55.2261 24.579749122 57.4408
7138 1 68.676 30.6339576017 52.0107
2400 1 53.0828 32.6129576017 52.8407
3018 1 55.0872 25.577749122 61.9917
828 1 57.1278 34.2688121124 65.6443477013
2852 1 57.3044 30.473749122 66.3805
7422 1 62.315 26.4548121124 65.0953677013
3153 1 65.0521 34.6213036328 66.5182277013
5082 1 59.8953 29.1889576017 52.156
566 1 53.1082 29.411749122 64.7078
4363 1 72.4199893752 31.7029576017 53.2527
4739 1 53.4428 36.034749122 66.7073
1211 1 65.1703 33.0829576017 58.3876
973 1 66.5174 26.2218121124 66.0506977013
382 1 56.6992 31.1829576017 50.5236
7616 1 65.1126 30.7919576017 50.8534
3394 1 57.1186 23.8229576017 53.7343
1386 1 62.4959 30.401749122 56.2589
544 1 58.2997 33.670749122 58.3946
4466 1 55.086 33.0814121124 64.4277177013
2033 1 58.8285 31.6503121124 62.1818877013
2590 1 54.5688 31.018749122 66.4787
7752 1 59.1421 35.651749122 64.1779
2675 1 60.1488 32.8249576017 53.9388
5134 1 73.101 34.045749122 65.6472
6080 1 71.9958193752 25.149749122 58.5225
2446 1 61.7921 34.201749122 60.5412
7090 1 69.1997793752 35.5382121124 66.3684677013
593 1 73.3152493752 27.690749122 64.6123
2925 1 70.7082 31.1949576017 49.9049
846 1 73.0042593752 25.8509576017 54.3658
7625 1 55.2134 35.190749122 62.4584
3913 1 66.3753 24.658749122 61.7973
6487 1 58.1751 28.5585370096 -0.9724777013
5608 1 59.9708 31.2641 2.8664
2449 1 54.5471 27.6006915203 7.74176
1076 1 68.3178 30.7848915203 0.676112
4483 1 65.2247 27.4774915203 3.96535
6076 1 58.5332 33.2775915203 3.64992
6476 1 55.8374 24.6477915203 4.48763
5274 1 56.4632 32.7333 -0.359317
6346 1 56.1238 25.5505830407 9.05222
4730 1 54.0589 28.9070915203 3.88279
4640 1 71.2602 31.9909 -1.29323
5770 1 54.9775 32.5154915203 5.99143
4724 1 67.1254 23.5581915203 2.75414
6026 1 69.5835 31.7135915203 7.09956
7575 1 64.77 32.5989915203 7.34097
5469 1 61.6955 27.9345370096 0.2712222987
3384 1 59.6229 26.1446 -0.494973
1191 1 54.0799 28.9212915203 1.16017
5018 1 67.0199 33.4531915203 13.1775
7060 1 64.4377 24.2174915203 7.97385
7580 1 55.9704 30.0761915203 5.20177
3826 1 68.3658 26.2585 -0.617069
4338 1 67.1663 28.8175370096 -0.8924777013
6711 1 64.3868 29.0558 -0.248081
4229 1 68.1057 24.8025915203 5.28413
7826 1 71.4253793752 30.2971 3.64004
820 1 72.9626 28.0667 0.949262
1269 1 60.713 23.9883915203 0.86468
7742 1 58.1723 29.3616915203 3.53297
4321 1 58.787 33.0651915203 6.48622
3483 1 63.7617 23.5730915203 5.43461
6027 1 62.5497 25.4235830407 13.583
782 1 59.5018 31.5705830407 14.7613
2407 1 56.7808 28.3840915203 1.36224
4096 1 67.3937 33.2309915203 7.61872
2977 1 64.5677 29.5135 2.4474
2502 1 60.0902 32.5468915203 9.11763
55 1 71.9699 33.3440915203 6.39474
4380 1 65.9549 33.2154915203 3.26016
3254 1 59.7821 27.1895915203 4.36221
2715 1 63.6769 31.3825370096 -1.4742777013
1610 1 72.8081 24.1335370096 0.8843222987
6512 1 70.9902 30.1295 0.944926
5442 1 68.006 27.3265915203 3.93305
5962 1 62.1646 35.5351915203 13.497
2612 1 55.9856 33.3795 2.43785
7031 1 61.1641 29.0062915203 5.81785
2212 1 62.7031 33.9327915203 8.83516
154 1 68.9322 32.6733915203 11.2539
7152 1 56.1241 25.8705830407 11.759
3143 1 60.2586 32.4375370096 0.4821222987
2494 1 66.9491 30.7846 2.9773
7710 1 60.38 30.0274 -0.972721
4282 1 72.8039 34.7690915203 11.7132
7569 1 68.9826 30.0636915203 4.82407
5477 1 62.4291 30.5010915203 3.80084
7778 1 72.7921 27.2870915203 11.6462
1144 1 58.9747 25.4525830407 11.8334
1396 1 63.5968 32.9349915203 4.85526
1763 1 61.8805 26.3265370096 2.5589222987
914 1 71.5594 25.9925915203 2.43923
7939 1 72.8937 32.5739915203 3.79942
4112 1 64.4545 25.0373915203 3.18305
3046 1 54.1734 33.6495830407 12.7711
3588 1 58.6174 34.7511915203 12.2388
2591 1 70.7740793752 24.9173915203 4.82791
1928 1 67.5274 28.4816915203 11.7022
6707 1 56.6208 29.2889915203 7.70736
607 1 63.6783 26.1445915203 10.0509
7700 1 59.7829 34.3335830407 14.7314
5980 1 55.9595 31.0211915203 9.75099
5078 1 65.0513 25.5645830407 14.3947
69 1 66.7219 26.3161915203 10.1938
5387 1 63.414 23.7035370096 0.6937222987
326 1 56.8492 25.6832 0.465617
6603 1 53.8153 26.4956915203 5.25007
5207 1 58.318 27.2663915203 8.69547
423 1 71.5333 32.4362915203 11.8853
7885 1 68.9377 27.9816915203 6.7088
3164 1 55.2621 33.6947915203 10.1733
4922 1 72.8519293752 26.111 -1.14021
5797 1 59.4022 28.0574915203 11.1712
1597 1 71.5436 26.9800915203 6.41892
2776 1 59.1726 30.3212915203 7.31816
7417 1 69.0763 27.7605830407 13.9814
1768 1 60.8919 29.5722915203 9.49118
2210 1 71.2981 27.0379915203 9.31614
959 1 63.2205 30.5303915203 10.3821
1296 1 65.3201 30.2447915203 8.47258
6673 1 62.8929 33.0919915203 11.7934
3663 1 57.8207 30.2385830407 11.8535
1508 1 66.643 26.3724915203 7.29427
2802 1 56.1467 35.3971915203 13.1818
436 1 72.0986 31.3922915203 14.3843
6832 1 60.0298 32.2113915203 11.9358
3630 1 55.7796 28.4595830407 12.9512
288 1 64.8426 32.0355830407 13.6258
6908 1 58.5371 24.5233915203 4.69491
2908 1 56.782 24.1997 -1.88477
7194 1 62.2287 27.5611915203 7.99084
7612 1 70.1047 29.4609915203 8.87391
7924 1 53.9444 29.7060915203 11.1311
4049 1 60.0221 25.9048915203 6.96582
493 1 71.5925 28.7475915203 13.5805
3378 1 64.6516 28.2601915203 6.6753
452 1 68.8138 25.665 1.91132
2474 1 72.4412793752 30.7509915203 9.8235
3888 1 61.3132 27.8837915203 13.2017
2132 1 57.858 34.1358915203 9.69345
6243 1 55.1256 24.1145915203 1.84344
887 1 56.8443 30.6355830407 14.638
6031 1 63.6726 28.2871915203 11.8114
6452 1 67.7161 30.5733915203 9.88309
578 1 65.6948 29.4515915203 13.4932
4681 1 53.5819 33.6946915203 4.03482
2686 1 69.1524 25.0881915203 9.6093
567 1 64.166 24.9995370096 -1.5762777013
7914 1 58.6196 25.6915830407 14.6741
5222 1 53.168 33.2217915203 8.22617
974 1 66.869 24.3265370096 -1.8018777013
2055 1 73.2694 25.2330915203 8.09757
2865 1 73.2627293752 28.8894915203 5.36273
6864 1 61.3995 34.1500915203 6.19512
1792 1 70.9853793752 28.6065830407 20.2876
6463 1 70.9187 36.0835830407 25.597
1761 1 56.3685 35.1405830407 15.859
6528 1 61.2028 32.252374561 32.0601
3165 1 65.2652 37.7285830407 26.6263
5213 1 59.0847 27.7305830407 16.6425
2570 1 54.5627 32.1215830407 18.0865
4766 1 66.7849 35.3925830407 23.1208
7259 1 66.4283 37.948374561 24.1682
1853 1 56.8242 29.2645830407 17.2328
1692 1 63.08 34.6995830407 16.1591
6290 1 60.9284 30.7325830407 18.7915
5239 1 69.1725 35.7255830407 21.9512
5235 1 60.1134 34.226374561 22.0035
1651 1 55.7803 33.9715830407 19.8822
1971 1 58.7799 31.5135830407 17.4205
7760 1 70.9698 27.8335830407 17.6204
5601 1 72.8977 37.0235830407 29.1371
5324 1 71.1886793752 38.690374561 30.6171
18 1 55.02 32.5585830407 15.3582
4896 1 65.4829 30.018374561 31.6322
5034 1 58.4066 36.1945830407 25.6125
816 1 55.0516 27.7325830407 15.578
2631 1 65.9948 31.7955830407 20.242
400 1 56.6207 38.211374561 26.8902
7246 1 57.832 38.153374561 29.2802
4068 1 68.0822 31.6435830407 22.0012
6250 1 72.2385 36.2003915203 18.5339
6838 1 66.788 32.8535830407 17.7039
622 1 68.7159 31.0465830407 17.5496
6715 1 69.9316 31.3025830407 19.9758
1180 1 63.8352 27.7505830407 17.6538
4971 1 67.4715 33.1205830407 24.2327
6606 1 63.6405 32.7435830407 21.265
6144 1 70.445 32.6252915203 16.109
2252 1 62.9619 30.2955830407 17.0308
1187 1 54.9694 34.1525830407 24.135
4274 1 71.648 33.3665830407 18.5656
5238 1 65.5186 32.863374561 31.5843
5190 1 61.4148 33.2825830407 19.8972
2794 1 55.3973 31.6775830407 21.4759
4500 1 63.1616 35.7515830407 26.8796
3453 1 57.7145 33.9415830407 17.8998
4385 1 69.2152 34.006374561 26.2751
1774 1 72.1743 34.568374561 30.2157
2867 1 61.0581 36.6515830407 22.9263
3984 1 70.8766 37.4835830407 23.138
731 1 64.5158 32.4184915203 16.3035
408 1 55.1978 29.6485830407 19.4109
6350 1 54.2724 36.1995830407 20.2211
7508 1 61.1076 36.8725830407 25.6055
505 1 53.8375 37.798374561 29.4977
4136 1 68.4161 28.3785830407 16.6061
3564 1 62.9807 31.0785830407 23.5532
1318 1 59.7789 36.330374561 30.0838
4421 1 59.9397 27.948374561 24.2637
4761 1 67.4717 37.514374561 28.4477
6259 1 71.0003 33.6275830407 21.4973
5483 1 70.5637793752 29.1295830407 22.9192
2719 1 60.7458 28.7665830407 20.7123
765 1 71.4773793752 31.6745830407 23.582
5227 1 71.7722 38.417374561 26.8962
1331 1 65.6292 29.1185830407 20.9964
3196 1 66.3744 35.3625830407 18.8733
2625 1 67.6075 29.0155830407 23.0037
1528 1 60.5104 32.3955830407 23.9682
616 1 54.5429 35.427374561 31.0914
5887 1 72.2833993752 27.491374561 24.3786
2336 1 58.7185 29.3365830407 22.2381
1552 1 65.2485 31.9205830407 25.108
7232 1 55.5452 31.430374561 31.4913
4115 1 56.8616 37.2145830407 23.3039
2733 1 62.904 30.639374561 30.2426
1506 1 55.8253 30.099374561 24.7829
5276 1 54.5583 37.0225830407 25.1496
3129 1 57.1835 34.5805830407 22.2587
1824 1 70.7967 30.524374561 32.427
234 1 65.0723 35.1505830407 21.2089
4606 1 72.2001 31.573374561 30.2541
2731 1 53.7369 35.817374561 27.5862
7128 1 62.3015 31.256374561 27.6555
356 1 71.3527793752 32.337374561 26.2731
1378 1 71.3353 30.131374561 27.7917
3083 1 55.8561 38.978374561 31.1073
5789 1 55.8897 29.462374561 29.4922
5325 1 63.6434 38.600374561 30.1315
3332 1 60.5667 34.7625830407 17.6169
1587 1 56.5993 28.0195830407 21.1065
870 1 64.0979 33.212374561 27.3023
886 1 59.1116 33.469374561 30.071
5042 1 57.7092 28.415374561 25.8105
5149 1 58.5942 29.483374561 28.3941
7461 1 54.8465 28.153374561 23.1429
2287 1 66.5812 29.855374561 28.9556
3694 1 54.6264 30.847374561 27.2478
7757 1 62.0471 29.193374561 25.573
2573 1 56.1938 33.599374561 29.825
1089 1 60.1182 26.6195830407 19.116
5559 1 68.0144 34.783374561 28.5631
2067 1 58.2888 33.310374561 25.781
5040 1 73.2360393752 28.463374561 26.6677
2285 1 68.7241 28.933374561 27.4753
4247 1 59.6821 31.955374561 27.8159
773 1 57.6339 31.7725830407 23.3834
3074 1 55.526 33.562374561 27.0719
4216 1 69.4492 35.059374561 30.8069
4763 1 62.4966 36.328374561 29.4189
7142 1 63.1416 34.199374561 31.2326
7957 1 63.1838 28.7445830407 22.1473
1349 1 68.288 29.648374561 31.5234
7408 1 53.011 31.954374561 32.4449
4204 1 66.2819 32.718374561 28.9402
7997 1 66.6492 29.463374561 25.4379
3367 1 66.2195 38.341374561 30.7104
6264 1 58.2636 32.169374561 32.3846
3155 1 65.6414 26.8275830407 19.5571
4075 1 72.8639 29.1323915203 16.0587
1436 1 53.532 31.6175830407 23.6797
3188 1 68.1295 34.0895830407 15.674
4212 1 72.8777 37.1095830407 21.2759
7847 1 53.0094 35.2085830407 22.4185
6084 1 65.8528 27.8714915203 15.6325
7229 1 64.588 27.643374561 25.483
6670 1 73.298 33.743374561 27.6691
3766 1 61.0445 29.2415830407 15.4994
5920 1 67.8884 26.2075830407 18.331
233 1 63.2816 37.2235830407 21.4606
6293 1 73.39 35.0155830407 24.9919
2174 1 70.0311 37.176374561 32.482
2232 1 71.1509 33.8501660814 38.0032
6228 1 69.4158 32.6481660814 43.6497
7389 1 69.4923 38.9821660814 41.7897
4188 1 56.0849 43.0149576017 49.053
2519 1 66.9083 31.5721660814 35.8878
4004 1 60.9476 31.9321660814 45.3023
5952 1 65.9709 40.6131660814 39.862
4373 1 62.0784 32.7841660814 37.2634
6387 1 71.9766393752 31.4411660814 43.668
5726 1 56.3049 32.7351660814 38.7456
5910 1 64.084 31.9441660814 38.9274
6535 1 67.5872 38.070374561 33.1163
2239 1 69.1239 32.6381660814 39.4256
3125 1 62.4229 34.9041660814 48.8782
7095 1 62.8864 32.6361660814 47.2472
569 1 63.8753 38.8851660814 47.587
232 1 58.8316 36.9659576017 48.4738
311 1 56.8173 39.1709576017 48.8216
930 1 57.9675 31.482374561 36.7508
7079 1 71.977 39.452374561 34.8801
6060 1 70.5053 40.8629576017 46.0427
1981 1 67.06 34.7779576017 47.4258
5365 1 56.0919 37.0219576017 45.476
1426 1 53.35 38.1999576017 45.664
5405 1 60.0854 37.1111660814 46.1456
6414 1 61.6145 33.8701660814 43.2384
7751 1 68.9846 34.4571660814 41.5669
6120 1 65.8865 36.5171660814 42.8038
2451 1 70.3939 36.4179576017 45.3777
3461 1 55.3029 33.8881660814 42.9058
2465 1 63.5807 35.5241660814 44.3871
3267 1 62.6122 36.6081660814 46.6267
3735 1 57.4573 32.8311660814 41.3356
6257 1 59.2935 35.0049576017 44.6462
4090 1 59.4431 39.3119576017 44.518
1573 1 54.7827 31.6081660814 44.4484
2628 1 65.0417 33.6231660814 45.7216
2364 1 68.6555 36.8521660814 43.2229
5538 1 69.3621 33.9641660814 46.0852
434 1 57.2795 36.0181660814 43.1853
7044 1 58.6282 32.9911660814 46.4595
4094 1 63.0293 31.9341660814 41.5204
3107 1 57.1892 39.5999576017 45.9993
7352 1 66.1844 34.4041660814 40.8736
2374 1 55.0044 40.2221660814 39.5411
1628 1 72.0752293752 31.6911660814 36.3158
1096 1 66.3737 39.4299576017 48.3166
1452 1 60.2122 33.9731660814 40.9894
7049 1 71.1361 38.3909576017 47.1829
3966 1 60.0939 29.939374561 33.2265
7731 1 72.8587293752 34.644374561 33.1443
1242 1 56.9653 35.1941660814 47.4038
4779 1 73.0835 36.1311660814 41.7542
6728 1 66.2225793752 40.9541660814 44.4461
4599 1 56.4101 36.840374561 32.9385
7383 1 55.0316 35.1711660814 49.3763
1091 1 53.726 35.7511660814 39.2939
2216 1 55.3394 37.951374561 35.5286
2509 1 59.2328 36.532374561 32.7556
6776 1 71.064 32.656374561 33.9785
3750 1 67.3731 34.592374561 32.6726
6218 1 68.6564 33.579374561 34.756
6892 1 64.7448 31.4981660814 34.0543
1234 1 60.1708 30.9001660814 38.0188
4876 1 73.3977693752 33.7289576017 48.5268
4332 1 67.4746 37.0599576017 48.9756
6647 1 61.875 35.0501660814 38.8841
1765 1 63.4461 35.830374561 33.6611
6094 1 66.5981 33.1361660814 38.2107
5993 1 67.5109 40.8831660814 42.1324
4055 1 54.1926 39.8209576017 47.8274
1159 1 53.0673 33.990374561 35.3207
4095 1 58.0261 36.9561660814 38.5889
1356 1 55.5232 35.093374561 35.1204
6389 1 71.0396793752 35.6141660814 40.2099
4154 1 57.8166 33.3971660814 34.8483
2 1 54.4914 30.6181660814 37.6894
7607 1 69.6442 35.532374561 36.3794
1837 1 64.156 38.4971660814 39.9485
2722 1 71.3885793752 40.2291660814 43.3558
6950 1 59.0845 36.4281660814 41.1077
872 1 66.4253 32.9631660814 49.5072
3307 1 65.5082 32.5751660814 42.9479
3786 1 62.0191 39.6921660814 38.7661
3950 1 56.6389 39.194374561 37.7067
690 1 66.6477 35.7551660814 37.0429
4703 1 71.6978 36.744374561 34.8857
7100 1 60.1799 36.5121660814 37.0444
7294 1 62.4015 33.222374561 34.4892
2069 1 60.0386 40.3971660814 40.5618
5582 1 56.2621 38.4841660814 42.2833
3576 1 53.9273 38.0561660814 40.667
6367 1 70.0097 38.3009576017 49.7396
4828 1 63.9683 39.5851660814 44.8151
6763 1 61.0176 39.1171660814 36.2073
1937 1 72.6274 39.3391660814 37.8184
5313 1 61.9716 41.0789576017 48.0361
2264 1 58.0535 40.8481660814 42.3899
2459 1 70.6179 38.1741660814 39.4133
2639 1 63.534 37.9581660814 42.694
2419 1 61.5387 37.880374561 33.6652
7799 1 68.5419 38.102374561 37.5357
7635 1 60.1122 34.8161660814 34.8477
4949 1 65.9344 36.204374561 34.4352
3543 1 60.7374 38.3511660814 42.2425
5777 1 72.1007293752 42.5741660814 47.3469
5029 1 67.8325 41.2149576017 46.6385
1976 1 61.559 40.9119576017 45.3292
357 1 56.0151 35.2481660814 37.7945
726 1 64.5992 35.8781660814 39.18
2220 1 53.7404 35.4781660814 44.7294
2705 1 60.4069 30.9891660814 40.7856
2026 1 54.9519 40.1211660814 44.1935
1123 1 59.7071 42.7691660814 48.1347
7007 1 72.9771 35.7659576017 44.5248
2927 1 71.1117 32.6159576017 47.4958
2178 1 57.4792 42.3481660814 46.5599
542 1 60.2517 39.2559576017 49.6135
5310 1 56.0113 29.267374561 33.1938
259 1 52.9924 31.1761660814 35.2999
7785 1 67.1203 38.246749122 60.7002
7631 1 71.8106 44.744749122 65.6214
3529 1 54.3984 41.5009576017 50.8857
261 1 72.1427993752 45.5209576017 62.867
6688 1 67.82 43.859749122 62.5141
2206 1 56.8152 39.854749122 63.2479
7415 1 69.0036 38.9019576017 57.0992
1338 1 58.2809 41.1539576017 50.1265
173 1 72.3690493752 42.278749122 60.2182
6702 1 72.2560393752 36.5189576017 54.4212
4969 1 64.7839 39.8969576017 60.6989
4912 1 70.035 42.766749122 65.127
4884 1 68.0312793752 35.7889576017 59.3911
2043 1 62.5283 38.601749122 65.249
2503 1 55.2475 39.421749122 61.0164
4323 1 69.0592 38.479749122 62.8437
1530 1 71.3104793752 33.9359576017 54.636
1875 1 70.3971793752 40.893749122 63.1649
5308 1 71.7466 35.525749122 62.0741
3341 1 59.1562 38.2789576017 63.0908
966 1 64.0726 36.7759576017 55.0688
4303 1 67.5208 43.9029576017 57.4009
2838 1 63.3414 44.891749122 63.4271
4890 1 59.0651 43.5699576017 53.5097
6501 1 59.9938 42.8729576017 64.2267
7515 1 72.4876093752 45.2379576017 59.9517
7670 1 64.6608 42.676749122 64.8291
3023 1 57.829 36.0789576017 57.1281
465 1 60.4422 39.4539576017 60.9512
5241 1 64.3276 39.882749122 63.6848
2787 1 63.0995 36.496749122 61.1341
7839 1 65.9424 34.8849576017 54.8264
7418 1 67.2623 43.527749122 65.2474
7913 1 69.4738793752 42.174749122 60.9711
2718 1 66.5822 38.438749122 64.4687
6313 1 66.0887 46.029749122 66.1495
3467 1 59.4705 38.063749122 65.9457
6486 1 56.2152 43.239749122 66.0769
5960 1 55.1005 39.432749122 65.2089
907 1 62.9796 36.210749122 63.8279
6897 1 62.8008 38.6119576017 59.329
1567 1 73.2320993752 35.4159576017 58.5931
1920 1 57.1906 42.520749122 63.6538
6648 1 67.4987 36.3899576017 53.3347
1534 1 56.8026 42.4669576017 54.1391
7174 1 63.7226 42.3419121124 62.0973077013
6852 1 60.1398 44.2709576017 60.0246
3036 1 57.6221 36.251749122 61.5658
5302 1 56.4438 34.3729576017 55.3109
7825 1 56.4933 37.2819576017 59.2969
5020 1 61.5075 45.232749122 65.5871
4741 1 60.7594 40.657749122 65.9174
4908 1 63.1228 41.752749122 66.8412
482 1 71.8818993752 42.6969576017 56.5007
7784 1 62.4612 36.7399576017 57.1144
2966 1 58.3491 39.561749122 59.3017
2680 1 53.7639 42.2609576017 57.8891
7798 1 53.0142 46.3167121124 65.9946377013
1383 1 59.9732 35.4069576017 52.5139
430 1 71.7265793752 38.2419576017 56.5408
4396 1 56.0957 41.1969576017 59.0562
3901 1 59.9739 37.2079576017 56.1321
2139 1 73.1507893752 39.446749122 60.9055
686 1 57.1091 34.9089576017 52.8132
102 1 56.6166 40.5079576017 52.1976
2171 1 56.5739 37.8329576017 53.1001
1859 1 53.8908 41.842749122 66.0199
3411 1 65.7125 42.0149576017 58.7661
5027 1 61.1102 39.6349576017 52.38
7092 1 63.826 40.3819576017 57.2612
1429 1 65.8043 35.686749122 61.4022
3028 1 53.7881 37.146749122 64.15
2569 1 57.6198 45.2579576017 60.0859
3936 1 55.765 45.997749122 66.0536
3440 1 64.5034 34.6379576017 50.9153
2645 1 70.2899793752 43.7259576017 58.5508
4052 1 59.1944 39.9049576017 56.7816
1719 1 56.1916 43.114749122 61.1429
2479 1 61.7693 42.0879576017 53.6501
564 1 61.0295 42.1349576017 61.6894
4518 1 54.385 35.8699576017 56.2113
1272 1 68.0344793752 40.5919576017 59.2532
6629 1 55.3244 33.3199576017 51.3978
5346 1 73.2556 39.4349576017 52.7477
2981 1 71.7142 37.1289576017 51.567
1600 1 72.4482 36.485749122 64.6076
4499 1 73.1999893752 40.521749122 63.5411
1110 1 69.8197 35.1709576017 52.4964
6335 1 63.9694 38.8339576017 52.0679
464 1 55.1488 37.5959576017 50.5441
431 1 64.5632 42.1719576017 54.2211
5785 1 62.736 36.2019576017 52.6154
7608 1 56.4287 40.5219576017 56.2381
4236 1 67.5566 38.7279576017 54.8361
1490 1 69.3763 43.2319576017 55.1625
7574 1 66.8207 42.0869576017 52.2613
902 1 69.8842 40.7659576017 51.053
2332 1 71.6428 42.6899576017 50.02
813 1 70.2207 37.966749122 65.4072
5350 1 68.9347 40.9399576017 53.6974
7817 1 65.9651 36.9969576017 51.2123
5630 1 54.7179 38.3899576017 55.178
3700 1 65.6703 43.7839576017 60.8175
6644 1 59.4386 37.8319576017 53.4305
4577 1 53.5823 44.0159576017 61.7611
3903 1 65.1854 40.6969576017 50.5607
7986 1 54.0759 36.0019576017 58.877
7357 1 61.3656 41.4639576017 56.4008
700 1 64.911 39.3699576017 54.7636
2667 1 65.8885 35.8424121124 64.1066777013
4124 1 71.6251 40.3909576017 54.7207
4883 1 70.5494 36.6579576017 58.5125
2438 1 70.9642 37.810749122 60.9695
3737 1 61.0206 43.9299576017 57.4873
7261 1 65.3532 44.3649576017 55.8606
2884 1 70.4256 40.3175121124 66.6814077013
3585 1 68.8633 33.2039576017 50.7818
1492 1 54.4094 44.6149576017 56.8911
3815 1 59.7868 34.7129576017 49.9164
3573 1 62.4784 37.6581660814 49.909
978 1 67.2983 34.2069576017 57.138
3503 1 63.4021 42.5739576017 49.8175
3500 1 61.5827 43.4255 5.18502
2753 1 66.9192 42.2351 2.37288
5876 1 65.6237 36.5645370096 0.9350222987
3967 1 58.6836 40.1774 1.93269
6278 1 70.2253 35.066 4.77926
4226 1 60.6776 38.1256 2.39477
3886 1 69.4985 44.1653 7.11475
4337 1 61.8505 39.3665370096 0.2359222987
950 1 66.4564 45.2377915203 10.185
5708 1 65.6654 41.8355 -0.0764897
6275 1 67.5638 34.5003915203 4.9925
4092 1 58.3684 45.0551915203 12.3666
1537 1 57.2252 43.1851915203 7.38201
484 1 73.0003193752 42.819 3.80389
2004 1 63.8429 37.7965370096 -0.8155777013
2682 1 68.0585 38.2261 3.97311
5306 1 56.5246 34.6575915203 6.30989
7212 1 62.6199 38.9526 4.57592
5052 1 69.2728 41.5115370096 6.3941222987
4081 1 58.728 45.6954915203 15.2443
5443 1 71.3339 40.6833 -0.123548
6092 1 54.9669 42.3905370096 -0.4626777013
1682 1 63.4847 35.7925830407 10.7983
6536 1 71.4613793752 37.8015370096 0.0097222987
6771 1 64.6582 41.0243915203 7.60211
3785 1 67.4402 40.3491 8.24595
986 1 55.6553 38.5625 4.7222
201 1 68.3009 36.5638 1.64749
5357 1 65.7338 39.6629 -1.72773
1836 1 70.1342 43.2314 -0.685032
349 1 60.1979 44.1265915203 10.4187
7836 1 70.0094 40.9845830407 14.3955
1421 1 59.5012 42.859 1.51311
6000 1 66.4829 43.2325830407 13.8682
1183 1 53.5985 40.8484 1.2213
3825 1 62.8131 44.8194915203 7.23766
6807 1 63.0806 41.7205370096 1.1511222987
5111 1 59.0923 41.9717 5.59895
5112 1 53.535 36.1790915203 9.89032
756 1 69.0649 44.5861915203 9.87086
1760 1 57.2908 38.4386 0.431894
1134 1 71.9287 40.9385915203 7.37129
7354 1 53.604 33.4773 -0.820644
4501 1 67.8005 41.1193915203 12.5383
7686 1 72.5473 35.8308915203 7.52294
5627 1 70.9799 44.1706915203 11.8777
312 1 53.4413 38.0925370096 -1.4610777013
4102 1 65.6302 42.0242 5.06016
6999 1 59.6786 38.9415830407 14.291
2000 1 61.9245 36.5320915203 7.75602
1565 1 66.6168 35.7365915203 11.4445
1163 1 53.6388 36.2974 2.77696
144 1 62.7855 33.5644 0.272924
2362 1 71.0509 35.6774915203 9.74187
1395 1 55.2378 42.5032 3.22605
2747 1 56.8434 39.2425830407 14.6466
6524 1 68.9063 40.7254 3.8564
4886 1 57.0466 40.7155370096 3.8357222987
4757 1 71.4123793752 40.7655370096 2.6815222987
1568 1 72.1829 43.491 6.37278
6762 1 65.5535 33.9275370096 0.6394222987
207 1 64.1278 42.3725830407 14.982
3090 1 69.17 36.5033 -0.982364
7130 1 71.1094793752 36.2925370096 2.4444222987
6977 1 62.7254 35.5059 -1.66036
5815 1 63.1367 41.5965 3.96307
3451 1 54.3659 44.9347915203 14.3748
3511 1 70.2159 43.9783915203 14.4926
7890 1 68.2707 37.5891915203 8.52958
124 1 71.2669 40.3974915203 10.0556
1613 1 59.5958 42.1250915203 8.59628
5784 1 57.7781 40.8608915203 10.1396
84 1 60.0306 37.1163915203 12.1869
6683 1 55.9375 38.0845915203 12.3287
2739 1 60.4699 39.6058915203 6.22611
5734 1 65.5994 37.2279915203 9.15561
5636 1 65.8135 45.6501915203 12.7286
2355 1 62.8153 43.6090915203 11.0691
508 1 55.4704 38.2594915203 7.45596
4529 1 72.6502 36.9655830407 13.6759
4022 1 65.9804 39.4913915203 10.6304
554 1 72.6093093752 38.5157 3.43033
6308 1 57.9361 38.1276915203 10.5653
478 1 69.5748 37.3224 6.14896
1249 1 68.8143 41.8287915203 10.0287
3784 1 58.3935 36.3205 1.85233
1439 1 53.4226 41.4323915203 11.6238
906 1 66.0809 36.8853 5.27937
534 1 66.8318 44.0855370096 6.7624222987
2683 1 69.9025 38.1226915203 10.9423
1963 1 64.2057 37.0132915203 3.32636
2348 1 62.611 41.6142915203 12.9384
7 1 55.2286 42.4800915203 13.4309
4033 1 55.766 40.8673915203 8.27289
1614 1 61.8516 40.3893915203 8.51544
4190 1 61.7892 37.9640915203 10.1581
4460 1 63.0735 45.4555915203 13.0175
4642 1 56.3229 35.9934 3.82698
6128 1 60.2114 35.6434 3.91026
5924 1 67.3178 38.1175915203 12.6315
2333 1 57.4544 36.4512915203 8.30071
366 1 63.4692 39.3253915203 11.8179
3816 1 72.1802 38.2738915203 6.17458
2563 1 60.0235 41.7199915203 14.0192
1071 1 64.2062 38.2003915203 6.96157
7520 1 64.7127 43.6185915203 8.81037
989 1 57.7823 42.3592915203 12.4613
2091 1 62.7661 34.7807915203 2.93353
4742 1 67.4587 32.8055370096 -0.8287777013
6008 1 70.0299 38.2085915203 13.7615
6176 1 59.427 37.1051915203 6.35409
5201 1 72.9705893752 41.4283915203 14.6
5196 1 58.6353 34.6135370096 -0.4407777013
1829 1 54.5191 38.3485370096 0.9915222987
7451 1 63.3125 38.0125830407 14.2435
941 1 73.1013 34.5554 1.84331
1379 1 58.3939 43.103 -1.13709
7714 1 53.2947 38.5680915203 11.601
4452 1 53.3057 43.4119915203 5.37984
6123 1 72.9072 44.0852915203 15.2318
3753 1 53.1229 41.5068915203 8.8704
4618 1 55.8846 44.6007 5.21656
2401 1 58.3562 44.3154 3.75231
997 1 68.3824 34.9558915203 9.45563
1517 1 66.0398 38.0322915203 15.216
3855 1 54.5298 39.8375830407 27.6866
4732 1 68.6452 36.8915830407 15.6747
58 1 58.7408 48.704374561 28.2698
2695 1 53.5579 43.1315830407 21.5698
1292 1 66.2907 44.3765830407 19.9536
1649 1 69.3153 43.3415830407 22.6605
2595 1 61.6868 39.3105830407 16.1429
2651 1 70.4847793752 45.7975830407 22.8113
2391 1 72.6283293752 44.8755830407 17.8021
2756 1 55.2872 44.8335830407 22.7914
75 1 70.6272 40.4065830407 18.0703
5753 1 61.2463793752 39.4605830407 26.4503
717 1 70.096 46.1015830407 18.1346
4767 1 56.1551 46.1461915203 16.0616
6994 1 69.7807 41.7215830407 20.4096
1849 1 70.7878 42.4735830407 24.8473
4637 1 69.6051 46.7435830407 25.2659
6425 1 60.7985 41.4735830407 19.7138
5738 1 54.129 43.3175830407 18.8112
1840 1 62.5838 42.4195830407 21.7427
2708 1 68.5584 41.6595830407 16.7359
3873 1 62.2784 41.7345830407 17.3472
3102 1 55.7061 45.6055830407 18.8112
7495 1 67.9191 48.162374561 28.9182
3943 1 65.8931 40.5927915203 16.3619
6409 1 66.8437 40.936374561 30.5177
6777 1 60.2644 43.5145915203 16.2706
6564 1 71.5380793752 47.653374561 31.0882
407 1 59.044 43.5105830407 18.8655
5999 1 54.567 47.7065830407 20.0087
6229 1 63.5421 43.6495830407 19.3001
4554 1 54.0937 40.6635830407 22.6974
7393 1 54.4154 47.4105830407 25.8314
5395 1 55.6542 45.3765830407 27.1601
4426 1 59.344 39.2005830407 19.9183
5592 1 56.6344 42.2255830407 18.2813
6001 1 65.4139 41.5255830407 21.5282
2247 1 67.1345 46.3665830407 26.6589
5498 1 59.2055 43.4335830407 24.5314
6200 1 68.7194 43.7875830407 18.779
6565 1 73.1119793752 41.0085830407 17.2402
776 1 63.7879 39.883374561 27.6411
228 1 71.7485793752 46.356374561 27.0661
1079 1 65.2057 45.2065830407 17.3969
5144 1 57.4897 45.0335830407 20.8873
2842 1 61.7706 43.9005830407 25.9062
1121 1 54.5289 45.908374561 30.4557
3773 1 68.1942 37.3015830407 19.847
6896 1 56.5606 43.7915830407 25.017
7994 1 62.4769 44.7735830407 23.0791
2126 1 62.8169 44.9872915203 15.8544
3469 1 65.2793 49.4055830407 29.5494
4082 1 60.7447 37.5895830407 18.2896
3082 1 64.5901 36.6215830407 17.2466
4549 1 56.6215 42.528374561 32.1372
6705 1 58.9038 36.8105830407 16.2201
2482 1 69.8616793752 46.250374561 29.1773
6637 1 55.7547 49.368374561 31.0491
4994 1 61.0774 45.2095830407 20.231
2114 1 68.6083 40.9685830407 25.4208
4314 1 56.7847 39.5395830407 19.0887
3444 1 59.9722 40.0985830407 28.8837
5696 1 60.5056 48.2825830407 26.2869
1735 1 67.728 44.2502915203 16.0853
2240 1 66.5971 43.3205830407 23.2607
4608 1 70.0027 37.7626915203 17.9285
4069 1 64.8324 47.2365830407 25.2524
293 1 64.5661 40.8495830407 18.8268
1622 1 69.9809 44.497374561 31.6303
785 1 53.5567 38.3285830407 16.5125
5198 1 68.6564793752 39.1525830407 23.3914
5820 1 64.162 42.2435830407 26.0477
1355 1 65.0623 45.6585830407 23.1213
6694 1 62.7627 43.4135830407 30.0935
3806 1 69.3958793752 47.3125830407 20.7643
7113 1 73.1091493752 40.101374561 32.1678
7527 1 65.7308 46.379374561 29.9086
7251 1 70.9914 41.851374561 32.0899
4924 1 55.3143 38.5675830407 21.3405
4127 1 63.3722 38.2205830407 19.0124
1200 1 60.8643 41.509374561 31.0375
1160 1 55.5164 41.3075830407 15.7627
3799 1 61.7237 47.515374561 30.4915
6410 1 62.6577 39.887374561 32.2676
3910 1 67.615 39.9105830407 20.9959
4044 1 64.4386 39.2355830407 22.8062
918 1 60.2069 43.9825830407 28.5138
4361 1 55.7585 41.6195830407 29.5289
4799 1 56.5962 47.344374561 29.2611
695 1 69.4615 40.791374561 30.023
7219 1 62.5005 40.8485830407 24.2274
5607 1 72.5328 41.1485830407 20.9233
6731 1 58.1807 42.0835830407 28.152
5853 1 63.2698 45.822374561 28.9243
3382 1 64.9524 42.204374561 29.0971
6934 1 54.9336 47.6415830407 22.8441
4163 1 69.5901 43.419374561 29.0446
5757 1 62.5419 46.4875830407 26.4056
7327 1 53.8731 43.650374561 28.7977
1961 1 59.1617 38.5285830407 22.445
6005 1 59.4947 48.0085830407 23.8168
1842 1 56.3038 37.8595830407 16.8823
6205 1 54.9244 41.4975830407 25.1747
5028 1 57.6348 40.5065830407 26.0015
463 1 66.6421 46.9145830407 21.2373
6843 1 66.7592 44.147374561 28.3175
573 1 59.5593 40.7415830407 24.229
2195 1 59.2338 46.285374561 29.8385
6489 1 59.6179 45.5055830407 22.7035
418 1 72.8385593752 41.2865830407 23.6841
4575 1 66.7513 42.7985830407 26.0149
1574 1 69.3868 39.451374561 27.5869
1572 1 71.7427 43.4595830407 27.2524
476 1 72.9743993752 38.7645830407 24.4733
951 1 73.1676 46.2355830407 22.7428
317 1 68.4332793752 49.794374561 31.2435
6585 1 69.3007 46.5069915203 15.3668
5481 1 73.3611593752 47.7135830407 28.7421
7598 1 68.7491793752 50.724374561 44.5492
6577 1 66.0364 52.4711660814 48.0632
2432 1 65.1032 50.941374561 37.3951
6183 1 53.6616 46.657374561 36.1327
347 1 64.2869 46.796374561 36.227
2656 1 69.9255 48.687374561 33.3133
2583 1 58.0394 52.7141660814 49.7445
7086 1 67.8849 50.7651660814 36.727
5358 1 61.5915 48.885374561 38.5325
1138 1 54.4751 51.1891660814 39.4105
7518 1 55.0073 44.686374561 32.7637
755 1 58.0602 48.941374561 37.923
3743 1 68.7256 46.0221660814 47.0155
5048 1 71.7111 48.1261660814 43.5883
5100 1 55.7314 47.387374561 37.7437
199 1 55.1585 48.597374561 40.3123
4447 1 60.0727 46.2329576017 49.0521
7056 1 60.4442 50.544374561 40.349
30 1 69.5733 47.134374561 39.5339
3819 1 65.2783 48.167374561 34.0252
5981 1 62.449 50.443374561 36.2694
2890 1 53.3295 48.781374561 34.4469
5561 1 65.3965 49.483374561 44.5823
530 1 64.3736 48.416374561 38.5921
7042 1 68.7704 43.2751660814 42.2919
6025 1 72.1918693752 45.477374561 35.4435
1575 1 65.4013 47.871374561 41.0981
2181 1 61.8674 43.027374561 35.8094
7443 1 72.0721 48.126374561 36.1785
7377 1 53.4097 41.375374561 34.2907
1239 1 71.3778 49.159374561 38.7382
1979 1 61.4141 50.3881660814 42.9125
3186 1 53.857 48.2041660814 42.8587
7840 1 53.9928 43.984374561 35.2787
5096 1 67.901 48.332374561 35.2415
6806 1 54.6412 46.2951660814 46.7642
4764 1 67.3198 49.401374561 42.4078
4960 1 68.3706 46.302374561 36.8664
7326 1 65.7218 45.825374561 32.6636
931 1 67.96 44.316374561 33.4792
5509 1 63.7535 41.902374561 34.0732
1192 1 57.6008 45.748374561 36.3395
4061 1 65.9129 44.931374561 37.2192
1919 1 66.3963 45.0831660814 42.942
2329 1 61.5417 47.6821660814 43.0062
5397 1 61.7592 46.699374561 33.267
7652 1 66.3057 42.097374561 32.9795
2809 1 71.6778 42.8841660814 42.5773
1267 1 66.9725 50.2421660814 46.8622
5284 1 63.5825 52.7061660814 46.6015
7289 1 67.6864 43.5911660814 48.1516
6576 1 55.0266 45.6491660814 42.6193
6018 1 63.6241 51.5591660814 44.1025
1147 1 60.9782 43.4331660814 44.4453
7394 1 57.046 46.367374561 33.7798
5384 1 57.8834 49.0861660814 40.5862
4643 1 64.2199 47.2901660814 45.5271
3870 1 59.9057 46.8111660814 37.5543
3424 1 59.8341 41.324374561 35.0895
1661 1 59.2835 46.9401660814 41.65
1599 1 58.7216 48.1851660814 45.0737
1059 1 55.1374 50.7291660814 46.6667
5045 1 72.1321 45.4311660814 43.8726
7782 1 63.6651 44.5831660814 46.3119
4243 1 57.2094 41.1151660814 35.8643
7655 1 61.9348 49.5331660814 47.8446
5804 1 53.281 50.1739576017 48.625
5938 1 56.4995 48.2681660814 46.8021
7110 1 55.9841 48.881374561 33.6275
6742 1 53.688 50.6701660814 44.2793
6490 1 70.016 41.501374561 34.6977
561 1 59.0296 50.7591660814 44.2607
6704 1 54.125 45.1851660814 49.2628
7875 1 62.9289 43.7201660814 42.4414
7980 1 72.0461593752 50.282374561 34.5838
3577 1 66.3864 47.5891660814 47.5306
4621 1 66.1622 45.373374561 40.0016
7566 1 69.7638 44.183374561 35.688
470 1 68.8277 44.5211660814 39.8228
5381 1 56.7422 44.0791660814 39.4598
3994 1 69.5974 42.6891660814 38.022
1533 1 54.5623 45.7321660814 39.9209
7929 1 69.5503 49.7891660814 47.8883
6478 1 59.226 45.0961660814 39.5762
840 1 65.3017 42.3591660814 36.5428
1005 1 62.6916 49.343374561 33.8672
4553 1 62.9524 42.4201660814 38.2149
3710 1 57.2129 51.2371660814 42.287
1411 1 69.0856 45.6651660814 44.1078
1984 1 61.3636 47.5171660814 45.8943
6544 1 59.2761 42.886374561 32.7384
3468 1 57.5487 46.0371660814 43.504
6348 1 56.2702 43.372374561 36.8339
6314 1 64.6718 43.1041660814 40.2782
6635 1 73.0193693752 50.6911660814 49.2433
6157 1 72.3713 42.1701660814 38.2348
35 1 56.0264 42.1221660814 41.2534
1038 1 54.5261 42.8391660814 43.5781
5164 1 61.8072 45.723374561 35.8779
924 1 61.1596 43.0271660814 40.3826
3361 1 60.9984 44.9071660814 46.8436
5226 1 64.9183 43.3321660814 44.3321
6382 1 67.6883 40.365374561 34.5564
308 1 65.0895 44.4541660814 48.5788
425 1 69.3937793752 47.6741660814 42.207
3711 1 58.2819 43.1261660814 44.0324
4880 1 55.0202 43.5911660814 46.2899
475 1 71.2581793752 49.8061660814 45.6156
403 1 63.8544 46.3641660814 42.8082
6395 1 71.4084 45.1201660814 46.6237
7545 1 61.0488 52.2091660814 47.7924
7057 1 72.7481393752 46.6021660814 48.6678
5706 1 72.9628493752 53.2031660814 48.1283
7192 1 64.4365 49.0141660814 48.9962
6553 1 58.999 52.8631660814 46.0301
7196 1 70.0254 47.3531660814 49.2013
7211 1 72.4445793752 45.631374561 32.7291
3699 1 71.8478293752 52.4831660814 45.6523
2761 1 57.6705 48.0229576017 49.3466
6930 1 56.4483 53.0611660814 47.2079
3094 1 59.4773 50.1299576017 49.1483
3474 1 54.6617 52.2091660814 42.1174
272 1 70.0349 51.5251660814 38.1397
6088 1 67.1501 51.970374561 41.4199
3789 1 55.7998 40.284374561 33.6388
2720 1 67.3794 40.807374561 37.5157
2524 1 63.444 44.343374561 32.5058
1433 1 59.3589 45.584374561 32.5145
2681 1 64.1263 46.1205121124 59.7408977013
993 1 70.4534 50.8871660814 50.341
7112 1 54.7587 54.0039576017 63.1548
1769 1 67.9682793752 54.429749122 64.3274
471 1 57.5713 50.5430121124 66.2816077013
1594 1 72.1664 51.6631660814 52.493
6730 1 67.2288 52.4651660814 52.376
1008 1 66.3903 50.8719576017 59.4442
2592 1 65.076 51.2591660814 50.4112
2463 1 71.1812793752 50.8329576017 61.0198
4116 1 66.4911 49.8181660814 52.5896
1712 1 65.3631 46.7259576017 50.3211
6073 1 59.6305 47.6609576017 56.2958
226 1 55.0452 52.5649576017 55.0629
5821 1 57.4039 53.038749122 63.8076
2548 1 56.6009 55.634749122 66.5905
3593 1 57.0244 52.9759576017 57.0414
7687 1 54.2415 54.5046121124 65.8539677013
2881 1 59.6783 51.8879576017 62.3521
4318 1 57.052 45.4489576017 57.4238
5456 1 66.9877 45.9359576017 59.4487
7769 1 69.8684 55.6179576017 58.7368
6153 1 65.2868 54.638749122 64.6739
6003 1 71.5213 48.8719576017 59.1877
4193 1 53.6085 46.781749122 61.6121
6045 1 61.0332 48.208749122 62.2059
4956 1 70.8278 45.1231660814 50.844
7735 1 71.5974 49.5668121124 63.4390077013
3445 1 54.7508 49.472749122 60.222
7852 1 60.3386 49.724749122 66.1655
182 1 71.8490393752 51.9899576017 56.8827
2288 1 63.076 49.836749122 62.5334
364 1 61.1524 51.968749122 64.7643
4855 1 61.8589 45.8249576017 61.3547
5639 1 63.7802 52.703749122 63.4619
248 1 64.1933 49.376749122 65.2131
1340 1 69.4798 56.4049576017 65.7259
2334 1 54.2083 48.9459576017 57.41
100 1 69.8882 46.4989576017 59.3081
3539 1 64.4947 48.8709576017 60.3845
3309 1 62.5722 47.9419576017 56.4485
1800 1 55.933 52.0357121124 59.4706377013
1053 1 67.8042 50.0039576017 62.7727
7963 1 72.2491 51.6989576017 65.4311
3787 1 66.9217 48.2849576017 57.8635
1040 1 57.0644 48.3859576017 56.9391
6049 1 57.1674 47.343749122 64.2052
1701 1 69.1639 45.8679576017 54.4016
5084 1 62.0497 47.9119576017 50.2661
7310 1 64.603 52.973749122 60.711
6734 1 66.1131 51.2619576017 64.4611
1195 1 69.065 48.7321660814 51.52
7103 1 60.5175 51.1939576017 58.4546
393 1 57.9986 50.0379576017 58.9819
6938 1 69.3564 47.5929576017 56.4867
594 1 54.7571 50.2133121124 66.8849777013
4803 1 56.814 50.1730121124 63.7494077013
7340 1 60.6144 53.4299576017 60.2468
6745 1 58.6854 49.4239576017 61.5372
7435 1 68.8919 54.2019576017 61.8421
1013 1 69.2876 53.3341660814 50.844
1779 1 67.5204 46.4439576017 52.11
7537 1 68.1894 44.1359576017 50.6264
3335 1 71.8521093752 56.5909576017 64.2109
3537 1 61.8505 54.6849576017 62.3729
3481 1 64.4223 50.4321660814 54.3273
6887 1 54.0913 51.2181660814 51.0396
2689 1 56.5725 49.8609576017 51.4573
3070 1 58.8899 55.4829576017 60.2421
6770 1 65.5829 46.2449576017 53.9414
4937 1 66.4976 53.6169576017 54.9028
5724 1 56.8179 45.5499576017 50.3146
3760 1 62.9148 53.7719576017 58.4025
1348 1 69.408 48.172749122 64.1542
6809 1 60.8084 50.2229576017 51.5215
2339 1 61.9342 44.0479576017 51.4639
7571 1 68.7022 51.8089576017 60.7347
2213 1 65.0451 46.970749122 63.7985
7183 1 56.635 54.2499576017 61.0535
7570 1 66.7784 47.6519576017 61.6862
4021 1 53.462 53.5029576017 58.9581
5152 1 60.1661 56.294749122 66.1229
7876 1 71.7312 49.2759576017 56.353
5932 1 67.8711 52.4799576017 66.2389
1865 1 62.7825 49.7289576017 58.448
7931 1 58.3059 55.2939576017 57.3039
531 1 56.854 48.4939576017 53.995
7865 1 55.4256 46.4979576017 52.601
5404 1 54.5665 49.8849576017 54.7248
6581 1 64.5503 51.5859576017 57.248
2377 1 70.7744 49.2139576017 53.6362
6137 1 62.777 52.2559576017 51.1702
2652 1 59.4374 55.1449576017 63.7251
43 1 54.0161 50.141749122 64.2152
2491 1 67.5057 51.7229576017 56.8087
6261 1 61.7274 53.3409576017 55.9476
6903 1 65.2513 48.2319576017 55.732
6573 1 56.5858 47.4509576017 61.5031
788 1 59.1856 43.9839576017 50.7745
7841 1 69.4616 46.174749122 62.3269
2869 1 59.4655 49.7449576017 54.1518
2638 1 63.8372 53.1779576017 53.8178
6107 1 71.5254793752 54.7159576017 62.0935
7030 1 63.2831 46.4739576017 52.3388
7015 1 69.6055793752 52.8559576017 58.2991
7061 1 71.7175 46.5339576017 53.1909
3049 1 58.5071 51.8249576017 52.3015
7691 1 68.2571 49.9131660814 54.9164
5419 1 62.194 48.7989576017 53.685
3063 1 59.4547 51.7009576017 55.9931
7592 1 65.4413 55.6519576017 60.3743
6165 1 63.311 45.3679576017 57.296
600 1 70.5278 53.716749122 66.5305
3712 1 59.2729 45.0359576017 55.7602
158 1 73.1111 44.9509576017 54.9878
3906 1 56.8971 53.7299576017 53.563
4544 1 60.0376 47.453749122 64.5456
443 1 55.684 53.6991660814 50.8763
5128 1 72.8486393752 53.9181660814 50.8425
3715 1 72.8893093752 53.3201660814 54.6021
1695 1 60.5874 53.8149576017 52.6469
4299 1 54.4848 55.8879576017 60.3156
275 1 57.822 53.2549121124 66.7376977013
5906 1 73.0951393752 52.6549576017 61.1861
3731 1 60.4609 53.7050121124 66.8835977013
2201 1 60.5471 53.8581660814 49.8957
967 1 54.7948 44.2719576017 54.129
1983 1 69.5495 48.354749122 66.9209
5809 1 71.8315 45.2247 -1.72749
4543 1 61.0962 50.7937 3.14423
5790 1 67.0281 53.1746 8.68804
4590 1 56.4744 46.5315915203 10.9912
7380 1 58.8437 55.4044 7.76978
6928 1 56.8667 56.3431915203 13.1953
4342 1 70.1046 50.8496 6.15033
6632 1 57.0404 45.7495915203 8.42929
3904 1 62.2808 50.4987454893 -0.9351777013
1308 1 63.3652 51.8505 6.59686
7285 1 68.3348 47.4535370096 -0.5170777013
6799 1 57.0832 49.3979 3.71396
2698 1 56.761 51.1702 1.82615
6787 1 72.0739 49.6447484797 8.04309e-04
6065 1 71.1985 51.8117454893 1.5835222987
5624 1 58.962 47.1562 7.0995
7664 1 63.7493 54.2118 4.99975
3374 1 72.3623493752 54.8484 5.24217
453 1 67.3565 50.0077454893 -1.7063777013
5602 1 63.3389 47.1635 6.12862
6819 1 65.4451 51.334 2.24241
1784 1 59.5172 48.5927 2.49796
6650 1 72.7357593752 51.7959 5.2743
2956 1 69.7499 53.0097 7.90297
5975 1 73.0957 53.3615370096 2.7903222987
4110 1 66.7235 50.4537 4.45304
6210 1 69.7323793752 54.1862915203 13.4347
6171 1 54.5481 46.2784915203 7.35091
3964 1 54.9361 46.2995 1.44965
4625 1 60.3113 52.3454 -0.734417
7324 1 70.73 56.5497915203 12.2806
4929 1 60.8565 54.8985 5.615
4071 1 56.716 47.2237454893 -0.7212777013
1036 1 54.0701 53.6515915203 10.7993
1729 1 62.1735 45.9072 3.7205
7405 1 66.9405 55.5046 10.4441
4042 1 70.8357 47.7305370096 -1.3186777013
7749 1 66.1123 52.8073915203 5.86475
7750 1 60.923 52.0766 5.56102
792 1 56.4272 54.1466 5.19039
2189 1 72.1852 54.3693 8.01759
5053 1 64.7196 53.9479 2.35739
4334 1 53.4996 50.8058 0.432841
3492 1 64.8689 56.6096 14.2691
4921 1 59.162 52.3293 1.9379
524 1 54.786 52.9811 1.89014
672 1 62.5221 54.8678915203 10.4512
2949 1 63.1986 50.0244 1.60521
4906 1 67.7755 51.6192084797 0.736718
759 1 59.2895 47.6967 -0.184649
6555 1 58.7397 54.4171 3.69046
4079 1 69.1321 51.118 3.31621
7807 1 66.2122 47.6714 8.8557
7376 1 56.3152 55.2266 10.7821
6331 1 69.7377793752 47.0097 7.33146
6381 1 64.0772 45.6068 0.140751
2378 1 72.6675 48.1284 2.27747
5059 1 53.926 46.2221915203 11.9886
5526 1 62.0007 44.2715 1.33673
3893 1 62.7182 50.7117915203 13.308
6913 1 60.7996 54.5662915203 12.6995
3822 1 71.1968 52.0366 12.0801
1339 1 53.9874 53.0402 4.39228
2647 1 63.8455 48.7215 9.68209
3213 1 55.402 54.3144915203 14.5418
5918 1 54.7963 49.8160915203 13.2651
3286 1 56.6943 44.0655370096 1.2003222987
2190 1 72.5428593752 56.045 10.1996
2183 1 67.2427793752 53.6788915203 12.4192
2864 1 67.3629 50.0378915203 13.411
5523 1 56.7512 51.3054 5.8059
6124 1 70.3286 51.0161 9.73972
7010 1 66.1832 47.7023 3.41076
2520 1 66.1085 46.7485 6.05329
6102 1 70.2303 47.1518915203 10.0714
1449 1 71.7087 48.4679 5.92606
6466 1 58.7798 52.5032915203 11.9828
266 1 54.4655 50.6467 7.21839
5519 1 64.1322 50.8965915203 11.0991
1142 1 65.3183 53.9035915203 14.6529
5507 1 66.512 44.5806 -0.520804
4804 1 60.7147 49.0140915203 12.6147
53 1 55.4397 47.2072 3.98278
5329 1 56.1369 49.3212915203 10.9154
1132 1 60.8636 46.0551 8.78296
6822 1 72.4557193752 49.841 8.48228
6788 1 68.372 49.2234915203 9.62976
1484 1 68.1686 53.731 4.11323
2376 1 62.4861 49.3628 7.37099
6376 1 60.3928 45.1559 -0.967071
1560 1 69.472 53.978 0.587452
6566 1 56.5107 52.0958915203 13.454
5826 1 59.5683 46.7006 4.31596
6580 1 70.1808793752 48.4961 3.38405
805 1 57.8562 53.3573 9.27798
2015 1 66.9569 47.5001915203 14.4692
1205 1 54.2514 48.4048915203 8.77493
1264 1 63.9022 47.4436 2.11608
532 1 62.6443 53.4449915203 14.4336
2676 1 55.4994 51.6472915203 9.64516
7558 1 66.8102 51.2325915203 10.8981
3959 1 58.8412 50.0232915203 10.9104
6021 1 62.0329 47.1896915203 11.0901
6893 1 68.3531 46.7993 2.246
1675 1 56.1807 50.1424 -0.672933
3086 1 69.9926 49.8099915203 13.2965
1095 1 64.0298 52.8194915203 9.08934
6189 1 59.0022 51.779 7.33819
1324 1 70.7301 46.9746915203 13.0827
2726 1 59.9099 49.4770915203 8.4535
4775 1 67.8556 49.0035 6.72731
1871 1 72.8344 47.2394915203 9.48876
4311 1 53.0784 44.4883 2.37825
4819 1 69.4850793752 55.2321 5.90728
725 1 53.2572 47.9513 5.40332
2616 1 53.1274 43.7734 -1.90471
3640 1 64.6385 56.3835 11.5219
7226 1 59.4807 56.7233915203 13.5091
7473 1 73.0829593752 46.0713 5.29758
1032 1 68.5677793752 44.1491 1.2725
6421 1 53.257 47.8838 -0.301292
7708 1 60.1437 48.0133915203 15.1977
5473 1 70.3983 53.435 -2.00521
7139 1 60.4888 54.8498915203 17.7735
24 1 59.6229 50.3045915203 16.6906
2950 1 62.6308 55.9355830407 26.6747
6053 1 57.8262 55.0909915203 18.8078
1605 1 56.3277 56.5405830407 24.4649
6015 1 72.8747 54.2635830407 30.1468
4589 1 63.3746 57.8825830407 24.7967
670 1 60.0052 53.2715830407 21.4238
1473 1 55.6445 58.1217915203 20.6543
784 1 56.8965 58.8755830407 30.0689
2505 1 68.0123 58.2955830407 29.0009
953 1 68.7224 50.3535830407 27.2464
7597 1 69.6992 48.8115830407 17.0581
2914 1 58.9454 57.6305830407 28.495
2462 1 71.3336 50.8295830407 18.535
7426 1 57.7585 57.4355830407 22.2581
1012 1 60.8268 56.4655830407 24.3441
666 1 68.6476 55.3355830407 27.8733
1463 1 53.0747 50.432374561 30.654
4038 1 70.6828 53.5317915203 18.1425
3693 1 56.1745 53.5025830407 17.1666
16 1 63.4637 50.2482915203 16.1321
3867 1 61.9057 55.9438915203 19.738
1276 1 70.1292 55.6145830407 24.2759
7133 1 65.1605 48.1416915203 16.8601
6216 1 58.7748 57.5315830407 25.7177
2231 1 70.9334 58.2375830407 29.5384
62 1 67.6249 54.5292915203 20.7918
2556 1 60.126 60.0665830407 28.7849
650 1 54.1437 55.5011915203 17.0482
2677 1 69.2448 59.357374561 31.5862
108 1 67.2847 50.8660915203 20.7307
7155 1 71.6293 53.2616915203 15.481
3274 1 67.8665 52.9810915203 18.6133
3012 1 61.5207 52.3108915203 16.8051
383 1 72.2689993752 51.584374561 30.7576
7233 1 63.482 53.8755830407 20.9419
7646 1 62.6749 49.4535830407 20.3149
1343 1 71.5364 50.3945915203 23.2532
5422 1 54.5824 51.9781915203 18.9029
6986 1 55.9933 49.5717915203 18.6315
5445 1 54.9685 53.4365830407 21.1874
6722 1 67.9417 56.5205830407 25.5256
979 1 71.1489 56.2795830407 27.7177
3152 1 65.2902 48.9055830407 19.5876
5899 1 66.3528 54.2465830407 24.5463
1467 1 68.6168 55.8918915203 15.6138
4517 1 65.6999 52.8255830407 22.0673
1830 1 64.2699 57.258374561 28.7833
2799 1 65.3899 56.1435830407 20.763
6853 1 58.8001 50.7445830407 21.5216
2010 1 61.9585 52.0485830407 19.5835
2057 1 59.756 50.980374561 29.9431
612 1 58.7876 49.3238915203 19.0293
7416 1 55.0582 48.7895830407 15.9471
3755 1 72.0275 54.0829915203 20.6836
3963 1 73.3896393752 52.2485830407 22.0467
4028 1 72.8252 54.1925830407 27.3537
2186 1 61.2688 49.8455830407 22.6366
3080 1 69.9379 55.5575830407 21.5741
270 1 57.6427 54.7001915203 21.4815
2365 1 62.4803 50.085374561 29.4445
5585 1 63.8258 52.349374561 28.0439
1358 1 66.3143 54.8014915203 17.0325
7998 1 70.0629 50.0375830407 20.8714
3240 1 62.6102 56.088374561 30.6022
806 1 70.1478 56.3278915203 17.8155
7567 1 68.2432 52.9165830407 26.2696
2826 1 61.8621 58.303374561 32.2898
2827 1 70.3473 57.8837915203 20.2183
3647 1 65.5894 59.7085830407 29.4402
609 1 60.6091 57.2835830407 21.7077
6075 1 60.3892 57.0962915203 16.0784
1057 1 65.0392 49.8695830407 24.7561
7343 1 55.6122 51.6055830407 23.3546
426 1 68.3346 59.0955830407 26.1508
6241 1 66.5935 55.8075830407 29.9936
2798 1 56.9281 53.9025830407 24.1261
4816 1 70.8253793752 55.7355830407 31.3233
1503 1 59.8929 52.905374561 27.6548
7175 1 68.7173 54.1805830407 30.453
5214 1 61.5695 50.772374561 26.7639
3948 1 53.5685 56.5846915203 19.6022
7948 1 57.2 49.3795830407 23.3886
4029 1 56.4472 56.2885830407 28.7432
4920 1 57.1319 50.1235830407 26.3915
7029 1 62.7352 51.3845830407 24.2389
7101 1 62.3777 47.6547915203 16.8383
2554 1 69.7078 51.793374561 29.6525
2176 1 53.3451 52.861374561 31.9801
1897 1 55.9534 53.394374561 28.781
7450 1 63.8076 53.7865830407 25.5768
7970 1 67.2233 50.2158915203 17.7561
3820 1 57.1745 57.8197915203 18.2622
1921 1 60.6165 55.386374561 28.7991
3644 1 61.9238 54.0915830407 23.2958
1551 1 64.3406 56.4832915203 18.1456
6733 1 54.947 55.010374561 31.058
4451 1 54.2141 57.7915830407 23.0931
1861 1 53.7985 60.493374561 31.4093
7487 1 54.3377 49.9515830407 26.5837
3464 1 66.0339 51.0695830407 27.0363
1629 1 57.4919 52.7625830407 26.6433
7633 1 64.4687 53.912374561 30.1946
4416 1 54.3253 59.187374561 28.9488
1540 1 53.5969 51.859374561 28.3893
668 1 57.0565 51.629374561 30.5769
3473 1 70.6353 52.8345830407 24.6452
3146 1 67.0242 49.0215830407 23.0745
1304 1 72.0461 57.4535830407 25.2017
5416 1 69.2624 49.5065830407 24.6272
7614 1 65.7559 56.8175830407 23.5589
6633 1 56.989 50.8903915203 15.9563
7519 1 71.3783793752 51.6475830407 27.1894
4704 1 54.7362 57.4505830407 26.6546
5291 1 64.1897 59.5885830407 26.9493
6488 1 73.0392 57.3780915203 20.5286
5485 1 71.679 50.4300915203 15.4684
5856 1 66.0312 51.3185915203 15.4013
2755 1 61.6869 51.325374561 32.2901
754 1 53.059 56.7695830407 29.9298
6587 1 60.8206 47.6725830407 19.202
3144 1 53.024 51.0715830407 24.5522
5368 1 65.9575 50.358374561 32.2247
150 1 71.4250793752 52.680374561 33.2439
1710 1 60.5955 52.327374561 36.5366
3282 1 54.9473 55.7301660814 39.9592
6703 1 55.5456 62.1761660814 46.8107
1604 1 57.9987 53.3841660814 40.7636
1751 1 69.1496 53.3121660814 40.0474
6143 1 55.2037 54.9361660814 42.5618
6833 1 62.9017 53.726374561 40.4013
6824 1 64.9635 53.035374561 35.308
3908 1 54.0973 52.684374561 34.782
2982 1 72.1699 59.740374561 34.6229
7833 1 62.6859 54.422374561 36.0547
7221 1 63.8266 54.0971660814 43.0031
7278 1 53.8775 58.7821660814 44.6078
771 1 66.7912 54.0111660814 43.3296
7420 1 53.8236 55.9791660814 44.662
2028 1 59.1008 57.3141660814 46.9193
1874 1 66.4963 55.9561660814 45.4393
4576 1 54.7302 59.6811660814 47.0517
2532 1 53.7263 64.0311660814 47.9937
740 1 64.1553 55.5801660814 46.6791
7146 1 71.8483593752 57.4211660814 45.3838
6906 1 56.2505 53.444374561 38.6215
389 1 62.4215 55.8181660814 44.4931
7363 1 59.6886 55.2651660814 45.0662
4985 1 71.7966 55.8121660814 47.7737
6954 1 70.4929793752 54.0001660814 42.2939
6743 1 57.9623 55.3311660814 42.783
3866 1 65.8228 63.4791660814 45.0475
6037 1 56.4863 57.7201660814 47.7217
88 1 61.1545 62.419374561 39.5629
4720 1 69.06 55.3241660814 46.6892
4144 1 67.7353 54.2501660814 48.8672
6375 1 68.0715 59.7701660814 47.304
7603 1 55.1483 55.3961660814 47.0914
586 1 68.8529 57.8411660814 45.4418
2668 1 66.4518 56.1521660814 41.6165
6187 1 60.5199 53.060374561 39.438
2780 1 64.9268 52.086374561 39.8295
5946 1 53.9096 54.531374561 36.7965
7888 1 58.0906 58.0041660814 42.0352
7510 1 63.0655 56.9991660814 48.5887
4370 1 59.8784 60.0951660814 46.988
737 1 53.4345 61.6491660814 41.9131
4596 1 57.5858 60.8481660814 39.9864
1908 1 65.9485793752 60.7621660814 48.7656
2702 1 60.4546 60.4161660814 44.4455
4037 1 68.8652 53.604374561 33.2631
3514 1 63.9537 56.3381660814 40.3736
7323 1 62.3159 59.8071660814 48.2261
4525 1 72.4885193752 52.933374561 37.4747
863 1 60.3297 56.5331660814 49.3203
1319 1 70.2547 61.4511660814 46.8424
2515 1 64.0841 61.7081660814 46.9045
7346 1 69.3259 53.452374561 44.7085
5773 1 60.1766 53.238374561 33.8418
5423 1 67.2805 51.945374561 34.3906
2653 1 62.4694 58.5021660814 43.9163
5015 1 58.1696 62.1271660814 48.0882
1559 1 60.2253 55.740374561 38.6719
1081 1 66.092 59.472374561 38.1413
1660 1 72.3132093752 60.0721660814 45.603
5154 1 64.5626 56.748374561 34.091
2504 1 66.6207 59.654374561 32.9038
250 1 68.6325 55.954374561 34.5888
3362 1 72.2567693752 55.344374561 33.71
7202 1 57.6486 52.969374561 32.949
346 1 72.7214093752 58.679374561 41.3126
7433 1 68.6279 62.9931660814 45.0893
6233 1 58.833 55.503374561 35.0276
5287 1 61.8888 59.080374561 36.7076
1819 1 56.0365 62.5661660814 44.1215
6477 1 62.5816 54.919374561 33.2913
3112 1 64.7462 59.5361660814 45.0803
4957 1 54.9522 59.726374561 33.6722
7037 1 55.4846 59.8981660814 42.6538
999 1 68.2124 55.913374561 39.3931
92 1 72.2639 55.587374561 36.5335
1438 1 56.334 57.949374561 37.5814
74 1 69.6412 61.7461660814 42.7625
1381 1 72.3626 60.841374561 42.9155
6850 1 62.5512 58.434374561 41.2794
4947 1 69.9927793752 57.974374561 40.4257
1072 1 58.223 60.969374561 42.8002
3687 1 59.8498 60.162374561 38.4739
7935 1 57.5468 60.262374561 36.5673
2741 1 64.2809 60.535374561 36.3
7166 1 63.3682 60.954374561 40.7191
3004 1 70.4738 60.419374561 38.8833
5064 1 66.3137 60.873374561 40.5393
4390 1 68.1324 59.621374561 41.9243
7961 1 71.3927 62.7581660814 48.9828
3725 1 55.061 56.538374561 35.4095
6188 1 60.1595 58.052374561 40.031
4159 1 56.5785 51.440374561 34.899
4686 1 68.6791 59.397374561 37.1721
4019 1 65.744 56.785374561 38.2177
1743 1 56.6231 55.640374561 33.2248
7429 1 62.687 56.610374561 37.6696
411 1 57.7794 55.641374561 37.5483
7293 1 66.6562 58.1521660814 43.6035
7341 1 66.1805 55.517374561 35.9039
7766 1 68.3156 60.978374561 34.9892
1119 1 61.7749 63.1151660814 43.9238
7539 1 55.8682 58.454374561 40.2135
3343 1 57.7934 51.499374561 37.2172
3348 1 69.6736 56.696374561 37.0568
6666 1 72.7332 60.542374561 37.2388
3171 1 64.0048 59.446374561 33.8401
6271 1 70.4926 57.817374561 33.4366
5934 1 58.8676 59.664374561 34.2324
6946 1 60.5914 57.634374561 34.6802
2581 1 72.0461893752 55.9071660814 40.8663
2064 1 64.2352 61.7971660814 43.2999
5432 1 63.1513 63.8941660814 48.6312
7787 1 53.2731 63.1061660814 44.2171
1245 1 57.0619 58.417374561 32.7006
1680 1 64.1641 52.677374561 32.6637
2149 1 53.0613 56.5191660814 48.4871
4794 1 73.2837 53.7221660814 43.5528
4234 1 67.1503 63.2221660814 49.731
2107 1 68.9544 58.9501660814 49.6474
2485 1 66.8236793752 56.881374561 32.535
3015 1 73.3932293752 56.5211660814 43.2897
4353 1 53.9836 64.924749122 64.8894
3502 1 64.8372 60.1641660814 55.6542
832 1 56.3887 57.3674121124 64.4351677013
7755 1 71.8394893752 55.8391660814 54.2973
7857 1 63.3039 56.9589576017 61.864
7288 1 54.3366 57.3869576017 58.085
3791 1 68.1457 62.8223105921 65.0641777013
656 1 68.4906 61.2659576017 58.4517
2604 1 60.2658 64.9579576017 63.0855
134 1 57.53 59.3069576017 60.6888
7279 1 57.838 65.2409576017 64.2504
2957 1 67.4238793752 58.1459576017 64.5798
4253 1 61.5514 57.4509576017 54.7345
5835 1 71.3267 61.2819576017 62.7414
4738 1 61.5241 62.9171660814 50.5691
4919 1 57.0283 59.0601660814 50.2102
269 1 54.3637 56.1441660814 50.8988
1766 1 72.6881 64.6699576017 64.3722
5145 1 71.3476 58.4469576017 62.1098
7712 1 59.0604 60.860749122 65.6692
3810 1 61.3118 61.5279576017 59.7374
5584 1 64.6465 63.8240105921 64.1866677013
5505 1 57.0173 62.5209576017 64.6263
4521 1 70.8978793752 62.6919576017 64.9826
6357 1 53.6468 61.8441660814 49.8662
5269 1 56.4497 61.3219576017 62.3124
3759 1 63.9603 68.0024121124 66.9003177013
2138 1 72.0776093752 56.4299576017 59.9032
4862 1 62.5189 63.7791660814 53.068
6921 1 68.1917 66.7029576017 65.9157
3130 1 67.2178 63.5809576017 62.5498
1327 1 56.8224 59.4564121124 66.5070677013
6600 1 54.2844 62.3259576017 59.1158
2101 1 65.4972 63.2499576017 60.3512
4214 1 63.1324 64.9569576017 59.7476
2187 1 68.8933 61.6409576017 61.4129
3676 1 64.5832 65.2179576017 66.5982
1133 1 55.2394 64.4941660814 53.5563
1945 1 58.8319 63.5261660814 50.5831
7309 1 72.7305 65.9219576017 66.7638
1149 1 64.104 65.9199576017 62.3371
3779 1 67.3413 60.4239576017 66.2615
3618 1 72.7871 60.9099576017 57.7173
761 1 68.6344 58.7759576017 62.1885
794 1 59.4199 59.6889576017 58.8427
31 1 54.8586 62.8469576017 66.3135
4626 1 67.3406 56.6461660814 50.4917
4444 1 64.9934 60.5389576017 59.9008
7572 1 64.7887 61.0309576017 64.9879
2280 1 61.9364 63.1219576017 63.9612
2879 1 66.1625 57.9891660814 56.728
7582 1 69.9951 56.8349576017 56.2734
6738 1 61.7764 61.0339576017 62.4709
5352 1 56.7002 57.3079576017 56.5278
486 1 66.9918 58.9599576017 59.0718
955 1 55.5697 59.8239576017 58.8279
7845 1 70.5238 63.7579576017 60.2902
658 1 68.6903 66.0949576017 63.105
1011 1 70.3615 59.6689576017 56.8692
4541 1 67.4652793752 56.2509576017 55.1463
1905 1 69.7116 63.0681660814 51.0911
137 1 71.8383 65.9231660814 56.5607
159 1 55.6064 65.5481505921 62.6263977013
2943 1 56.3164 63.5765105921 60.6271977013
7145 1 72.6398593752 59.2969576017 64.6246
3520 1 61.9761 60.1431660814 50.8926
5673 1 56.3118 60.1441660814 56.1667
5648 1 58.9919 60.4349576017 55.9909
2896 1 64.7835 57.4219576017 64.1993
6132 1 67.1868 63.7559576017 58.3373
4950 1 59.4365 65.4161660814 54.9069
6140 1 59.9112 55.2689576017 54.9451
6419 1 70.7353793752 55.5601660814 51.8473
329 1 63.1411 65.0429576017 56.8799
6507 1 59.7109 58.6161660814 51.0202
7984 1 68.6567 57.3551660814 52.9107
7013 1 64.2906 59.7199576017 62.4116
6779 1 70.4066 63.5771660814 53.6873
1185 1 64.6057 56.7641660814 50.9463
1479 1 56.3528 61.7951660814 50.4026
5317 1 64.7145 59.6831660814 51.1304
6145 1 55.9195 62.7499576017 56.7646
1400 1 58.3788 64.4059576017 59.1472
3837 1 58.7374 63.2969576017 56.6372
4122 1 59.0235 62.8471660814 53.3201
5781 1 66.3278 61.8981660814 52.1969
504 1 60.6899 64.0895605921 60.5341677013
5930 1 54.2589 64.8319576017 56.2126
1747 1 65.2361 64.2341660814 53.2943
3433 1 57.9084 66.227749122 66.9163
6399 1 63.0391 59.4611660814 53.637
4268 1 56.4779 62.0581660814 53.1766
6533 1 55.8047 57.8141660814 52.3231
3605 1 73.1605 64.0201660814 53.8897
172 1 69.8733793752 59.6891660814 54.0194
7055 1 71.3143 65.5989576017 62.1846
3270 1 67.9751 56.7459576017 60.4214
6337 1 64.3389 56.2729576017 57.8199
2846 1 68.2729 65.6799576017 60.316
3985 1 54.1216 59.7949576017 62.6538
22 1 59.2625 58.5531660814 53.7036
3578 1 68.7706 60.6921660814 51.719
7789 1 71.0717 63.4471660814 57.5574
714 1 60.2202 59.2689576017 63.7174
602 1 62.945 55.6331660814 52.9266
7549 1 58.4637 57.4419576017 62.5642
2347 1 65.7758 65.0061660814 56.1159
1083 1 57.3249 56.4239576017 54.0806
7228 1 66.5652 62.3061660814 55.0799
4345 1 61.3729 61.5241660814 54.5646
4684 1 69.181 62.0801660814 55.7327
267 1 61.4319 62.7841660814 57.0982
3891 1 62.1247 57.6809576017 57.4505
4280 1 54.6793 59.7861660814 54.0233
3234 1 61.0964 62.7689121124 66.6370477013
5766 1 63.1903 60.3819576017 57.8237
4348 1 54.0722 60.247749122 65.4687
4901 1 72.6714 59.5671660814 53.7948
3702 1 73.1567 59.2359576017 60.0127
3064 1 61.029 57.4429576017 60.0028
1542 1 62.2141 58.116749122 65.3119
7880 1 53.9031 67.5430121124 65.8775277013
5231 1 72.9049793752 62.0979576017 60.4885
2967 1 73.1605093752 59.0531660814 51.0877
1519 1 62.7964 60.442749122 66.7999
181 1 54.0607 56.9159576017 63.0356
4633 1 71.2997793752 57.5021660814 49.9874
4646 1 61.7564 67.2149576017 63.0076
