# LAMMPS data file written by OVITO Basic 3.7.6
8000 atoms
1 atom types
3.3460864224 61.6539135776 xlo xhi
3.3460864224 61.6539135776 ylo yhi
3.3460864224 61.6539135776 zlo zhi

Masses

1 18.0153

Atoms  # atomic

1 1 29.8587720455 48.8051424779 44.1982410543
2 1 33.0678599287 49.9743893358 41.4063456745
3 1 31.0743153182 9.7763902167 55.4272207157
4 1 60.0706811469 20.7099241179 53.8975731781
5 1 26.4972091944 52.968554568 25.7553004016
6 1 19.8555978344 42.1961251933 7.2916896242
7 1 25.7311609612 17.5751204065 34.1024157059
8 1 21.6506042934 28.6011305216 5.3730938948
9 1 32.7833177321 51.9141741296 5.9598980365
10 1 22.4030668028 27.1139310822 26.0092309889
11 1 46.8994094551 56.9513873175 5.5797076803
12 1 34.988228216 30.0608086666 22.5169419893
13 1 32.1718435488 47.3332196891 43.5075848417
14 1 27.8413212259 16.4970086824 46.6427967078
15 1 21.4544567628 3.6913293993 60.7212215744
16 1 40.9162683872 28.3857997159 4.944134872
17 1 4.5055025807 18.5418058729 43.5552223364
18 1 28.7860246415 3.6995350598 54.5346444976
19 1 53.4857449949 37.1878326876 55.8352588901
20 1 33.4835364284 27.1518311698 48.6221725162
21 1 5.2970779805 26.914285082 15.7345172267
22 1 56.7669596602 25.3281955677 15.6346359188
23 1 48.4536628958 31.8758730181 38.0155122941
24 1 60.7862348017 36.0155538227 40.601930891
25 1 59.624684577 4.0516461156 5.1028487775
26 1 52.4634921692 47.4066292435 8.8025387183
27 1 36.5366508739 38.2905503148 27.2704292903
28 1 42.7212454846 56.7922652572 41.5047109789
29 1 28.0972925871 56.1307046503 60.1373853011
30 1 23.0448027485 19.2031915564 20.1661453218
31 1 40.9610487985 18.367057315 45.4060876938
32 1 33.2807418056 51.0836957474 47.9294172218
33 1 31.0217799659 17.5161711933 25.4509335439
34 1 41.9610280342 55.5317666498 12.9262956553
35 1 40.6110852199 12.3092822283 36.7106414302
36 1 38.4033176525 18.2295091507 22.6586883171
37 1 47.7831811913 19.5445838844 11.0348480502
38 1 13.4935725057 53.8579238556 41.6889054049
39 1 24.2213963927 5.3117890453 8.0986466289
40 1 11.3481360055 18.3690980889 45.3953007458
41 1 50.0649996992 51.4145926665 8.5935109888
42 1 9.2850301573 21.6846560644 20.1449212728
43 1 35.3922431504 30.3995771424 26.9877529442
44 1 56.3153072311 26.0491718505 24.5545090092
45 1 34.4774516501 46.441343165 18.4289802274
46 1 14.1287196669 34.1263802228 46.3833851848
47 1 36.3301245502 59.105511684 40.542223676
48 1 22.6251030086 26.030455038 54.0792020597
49 1 57.8324185859 48.75785483 25.2761266781
50 1 47.106577165 19.7028896351 24.1978983383
51 1 14.8969835975 39.576762674 22.3144972134
52 1 37.1792031292 26.2609458787 43.9994696715
53 1 21.2622741645 14.7575695827 17.1106985632
54 1 10.065713655 26.3610021101 5.5103038737
55 1 54.2655538753 47.0693184634 35.3863540598
56 1 19.2719364846 60.2526015676 44.7634188229
57 1 12.7608180418 40.2864855461 47.8502351925
58 1 16.5648789932 46.8915378984 46.0563365823
59 1 54.3407709723 41.1454181479 53.2795102103
60 1 14.8669550665 57.3891624838 34.8738282591
61 1 60.3555731903 44.3895490352 54.8524221556
62 1 14.0729190763 9.4544143951 10.6188217034
63 1 57.1402463697 7.2771884676 28.354721644
64 1 4.0091338789 39.6038175058 24.2655937256
65 1 13.3800471662 32.210909793 13.3760239261
66 1 38.7131071382 22.1195741472 10.119706703
67 1 36.3516401384 26.7441428424 53.7509289928
68 1 23.3524348446 39.044762059 23.7745835132
69 1 16.5799807205 53.2449336688 46.9093800936
70 1 59.487719491 8.7364584578 41.2555616334
71 1 35.1250183785 53.6546044624 22.7341969532
72 1 54.9625656411 13.0980122063 44.2029056805
73 1 8.0027010993 5.4584740461 26.9661207403
74 1 48.8786103401 15.2129537128 28.6705168359
75 1 44.5452892415 23.7991894162 15.9599935943
76 1 42.920833177 23.2891125443 9.2631647221
77 1 41.7156103897 8.1915309976 19.6167106666
78 1 28.509237386 6.9571601275 56.8039268227
79 1 54.5784919836 52.3164398291 5.2718306914
80 1 30.8497718758 56.0702977414 26.1741255241
81 1 56.3042870518 5.3169901035 16.4892537414
82 1 38.0993589495 24.5395822054 57.1715576729
83 1 55.7523451599 28.8420001556 45.7758176258
84 1 21.5247176946 22.0001014094 10.90470498
85 1 21.7416228116 13.081569399 38.2215138474
86 1 33.7679037015 39.7434647518 13.9242924249
87 1 28.4072569963 54.9493297643 48.4256168309
88 1 44.1437815438 17.512556108 5.6220275013
89 1 21.9210943036 17.7047387063 50.9421243431
90 1 28.5301115881 14.6477759442 15.7558578915
91 1 30.4282645933 10.6774210697 3.969898542
92 1 53.9025293434 47.2347377691 27.5346803629
93 1 49.8854698994 46.8657658388 11.8439857676
94 1 43.0361660591 51.1734314934 7.6013216788
95 1 56.4200863965 26.6695088236 53.6557706189
96 1 44.5819648648 11.9822336258 54.3537153099
97 1 38.746225984 58.3257611114 45.448535792
98 1 18.451370433 56.6035228207 55.3611579475
99 1 11.2333278938 19.6645230848 42.7249188778
100 1 38.2751570484 30.0220339615 16.9107027161
101 1 9.4667756545 55.8828380771 17.0304669931
102 1 35.8230213774 53.5512829926 51.7683462539
103 1 21.8607457025 19.1551459068 43.9708988362
104 1 53.1679673369 52.690601156 50.5173518223
105 1 35.0622208487 34.3504572026 17.275418175
106 1 8.2463636782 7.6821479888 49.9673340887
107 1 59.8703354528 37.9088089704 14.6390297701
108 1 10.2622110326 4.6611786484 4.9004273248
109 1 61.4194578046 13.2926437333 55.0669949595
110 1 29.061470817 40.5811149967 13.4388797638
111 1 37.9954544015 45.4986222155 9.556336477
112 1 6.6968098485 27.8260445752 24.8698960463
113 1 33.5501239671 42.6740161447 61.1628450573
114 1 46.7669923796 39.9519152339 43.4883432587
115 1 59.4058553016 8.8258851723 13.2999905195
116 1 18.2332991595 22.8983917945 58.3342740542
117 1 55.3932272525 45.1630023624 26.3179709337
118 1 52.304020262 9.9499726181 45.8500434898
119 1 48.4436922573 48.9305626141 59.445213085
120 1 24.7865741613 11.738273677 56.178050606
121 1 53.3806159826 39.2975264897 35.2103227296
122 1 48.6017647767 32.2959226049 53.5404377368
123 1 54.6971484119 52.3368475686 38.8472734485
124 1 56.8017694331 29.8541074193 39.7559426268
125 1 34.9506779753 31.7309197598 11.8910401841
126 1 60.5229749621 9.9901467111 37.2705714943
127 1 12.9937578113 59.5278935839 60.6037313027
128 1 33.5255763718 43.7909025738 49.4646623108
129 1 4.2899676976 36.9553010729 55.4696688139
130 1 46.3871751936 7.0730877494 60.5781924744
131 1 44.3645932852 45.962635904 5.1044930582
132 1 18.8759680304 32.2516669641 10.0366180493
133 1 36.6179902928 54.5307378732 15.9122977917
134 1 5.9204178067 11.3984556603 26.9422145312
135 1 8.2317167521 16.8509371933 36.1607986201
136 1 13.7058713043 5.4305329353 20.7337720192
137 1 16.6561890506 55.7154946132 7.0839563284
138 1 48.5966336879 3.5875204761 6.0545083169
139 1 8.5376462596 10.4282134165 5.676160488
140 1 16.24616841 25.6000266579 6.3826181218
141 1 8.0723264757 8.2446960744 26.3040936708
142 1 17.9976772299 52.7540983798 13.7768902378
143 1 47.2447667154 4.2069256901 54.4513226126
144 1 21.7289700131 47.6077329394 5.1011053735
145 1 47.3564262044 3.6497658308 38.4440748237
146 1 56.8910387164 23.6260151696 4.3003814755
147 1 41.5392292126 17.3464371084 8.354326451
148 1 10.2361474338 57.5376142118 45.6910380451
149 1 16.3286739854 31.6754690162 55.2415102862
150 1 15.1666572981 39.4646367224 28.3849250985
151 1 43.3693952913 61.5565978141 51.3033996401
152 1 30.2648277538 15.1566283518 43.2176200172
153 1 7.6224291122 43.3187840973 27.3220900251
154 1 26.0626992664 10.621678787 42.317988552
155 1 27.4605128068 23.0973381008 14.6069604652
156 1 3.7529252048 60.7918323531 55.932108191
157 1 56.5453316092 33.5337394676 27.5435431527
158 1 34.7544138291 56.2995058099 17.4322079222
159 1 61.5030129209 55.5757307515 35.8096105771
160 1 42.8185612482 26.5591321068 27.1413357609
161 1 12.0601911907 51.9118418165 12.3271244234
162 1 50.9010756328 40.0448579104 20.1690607132
163 1 26.7444343815 51.5223455311 34.8924867638
164 1 10.5355581263 60.2705603784 18.8917694515
165 1 15.7523594218 54.0920880895 16.5088451714
166 1 31.1997937623 44.62878605 43.789153339
167 1 51.3432238861 14.9324930642 13.8236531152
168 1 31.4670768419 21.0790126638 15.8500833402
169 1 7.0132289341 27.7811475483 34.7714980225
170 1 58.5588174966 26.033137198 50.2991056252
171 1 40.2386731279 6.2919086351 36.3389290321
172 1 38.6234880078 50.1134535036 27.7631887375
173 1 36.9569919999 6.0492197969 25.1228937083
174 1 45.3243401202 56.9735442919 14.5448626293
175 1 58.5162527827 28.8421750791 22.8229414662
176 1 23.6197179242 27.6718786802 10.0314869605
177 1 42.3147233137 59.8874196461 55.7915280198
178 1 22.0691961845 50.7514577483 49.7152110441
179 1 12.1630461978 12.1755823807 16.2740978592
180 1 53.917864302 5.3530243407 6.6918595139
181 1 23.486892694 49.5834353547 21.4953305497
182 1 41.9159560838 59.7215338779 41.6697804376
183 1 18.9656454685 31.7152349543 20.4309794728
184 1 11.792908111 42.825033417 4.065884887
185 1 25.0272105639 18.5074042549 24.6240119392
186 1 32.6520085054 39.9706903543 25.5380454377
187 1 10.3084491395 35.3363259441 6.9016860607
188 1 56.5778673768 45.5796117875 41.7214994802
189 1 25.8537823217 53.0135682106 21.0839688291
190 1 54.0615347881 31.1062680075 44.9630648231
191 1 3.9983061154 6.4240633254 60.1912034256
192 1 54.9826235336 43.3677043643 44.3139820912
193 1 58.9002098245 54.8520723086 34.802342863
194 1 15.8300254476 44.6737413848 18.7633173083
195 1 58.2263462661 29.9586533534 49.1715488637
196 1 17.5679485438 36.8481312866 35.2926533816
197 1 59.972140919 38.2962644818 46.6465284087
198 1 15.7803471789 28.2315172053 23.5918467829
199 1 49.2566782913 17.6703370883 57.4323685837
200 1 44.4996342129 21.8503086014 33.0829616559
201 1 60.3313171342 19.2609746131 19.8351317871
202 1 44.2375405298 38.155859234 39.8920914032
203 1 36.5213742232 35.7633141624 53.3498877576
204 1 59.6952370478 34.9871786751 24.0993581104
205 1 18.162280226 7.0201092577 6.8321539768
206 1 37.3136026708 27.2044831377 17.4193802002
207 1 11.2800324634 47.0830208028 42.9815899329
208 1 50.8283657723 32.3697403141 9.2982077262
209 1 22.8411918161 38.4755610503 54.6134183721
210 1 40.6966228023 55.7415582119 10.3425009106
211 1 48.3219455142 48.002885084 49.1505580459
212 1 6.3696562918 5.9769997222 31.1744298574
213 1 22.0165442166 44.9806737869 9.2404246695
214 1 7.9185162585 60.0671826772 53.3118127465
215 1 24.6043038936 32.8877470506 30.5504194912
216 1 10.2743390606 15.7557995836 45.0111687805
217 1 55.9150823055 18.2068274059 15.426768515
218 1 12.1558743351 34.5495784323 16.4881458927
219 1 40.7631520331 25.8081856009 45.7723191562
220 1 6.729479724 40.6206477036 42.3740806818
221 1 49.8941577656 25.6443989144 27.6397510675
222 1 28.1211404885 28.7641592063 55.9744979814
223 1 49.5710740954 52.6831377541 37.2080655036
224 1 5.062126591 32.7238437484 14.3959444387
225 1 34.4484143522 27.5226106427 21.4705497231
226 1 48.775055639 21.4402879608 22.9355338804
227 1 36.114618821 23.026085936 10.1798220728
228 1 46.8994094551 32.172426627 58.5442405398
229 1 41.4055293649 54.3450274437 31.7878281991
230 1 33.7262719129 22.2244699282 6.5287725214
231 1 58.9722782989 48.4151797298 9.2412992869
232 1 17.1095907145 8.4196778637 13.3854697941
233 1 59.7047412236 29.5454257824 11.9747119161
234 1 21.1372621831 48.1167019626 13.1328219791
235 1 5.9851453257 14.1544334187 58.314099546
236 1 3.9745281834 38.2842530694 13.0093260011
237 1 51.8735918819 19.895888543 55.7132789157
238 1 53.3105299743 56.4177540834 60.9699627651
239 1 35.7819143592 5.6218059315 37.8496848337
240 1 55.3526450048 14.0765341616 21.4460604357
241 1 37.3775080494 4.0662755495 32.482799191
242 1 5.409582933 4.8507199021 37.8957480171
243 1 35.1668833984 8.5793713407 42.2400309871
244 1 23.0411876632 32.8708960885 33.0142167277
245 1 28.5013075215 16.026581133 10.4173098528
246 1 7.9604220939 15.1120811718 12.6668841323
247 1 19.999093397 18.5050719418 37.8854858395
248 1 35.2211096777 53.0266874717 48.0035847779
249 1 11.4670256651 40.0481814565 31.8481184924
250 1 60.4315482891 16.7603851377 8.0155171597
251 1 22.607435737 5.7054543404 47.7037659307
252 1 6.5633898784 7.116760312 21.1602937748
253 1 16.5456374103 39.5016621926 24.686809469
254 1 3.9090310012 59.6704562213 9.5660738842
255 1 24.0051326617 32.8322963069 35.7434895012
256 1 17.0690084668 57.7467060799 38.1588329332
257 1 29.1657835198 54.1131372151 27.6732780681
258 1 56.1246406363 60.8922967393 44.4598099669
259 1 41.561327879 27.9168298621 54.106431815
260 1 44.2003401361 26.5902684865 54.1066067385
261 1 17.5971607652 4.5135782147 53.1849932224
262 1 22.0617327827 9.5601264858 4.3072734607
263 1 25.1639424186 19.5070336437 59.5520913321
264 1 14.2051029204 35.971589721 6.9530319333
265 1 16.8313457633 12.2087012265 20.3410688033
266 1 29.8120091681 15.7783647128 18.1691022418
267 1 10.2272846441 7.1090228633 18.0305628445
268 1 48.5235156727 52.6387071898 20.7491652856
269 1 48.8827501958 20.2982125503 58.0171960901
270 1 50.3948470774 25.3962991098 36.5799735895
271 1 34.2606631488 17.9955198403 58.9288389677
272 1 36.9560590747 24.3553877795 35.2906709155
273 1 7.5653457494 34.3703401716 59.3214255679
274 1 22.4403255044 41.4408056003 44.3563135737
275 1 35.0666522435 36.6646365546 30.6418461642
276 1 17.0393880906 6.3688458131 33.968774166
277 1 26.6307341185 3.8968190099 37.2999003314
278 1 30.5597487436 30.9784572504 59.6148305542
279 1 56.4733797505 26.3512063952 6.7846039438
280 1 50.5560099117 32.4543449713 58.4430181518
281 1 37.7888114621 32.9284459139 35.6478646646
282 1 57.5048452129 14.0065064612 57.5447277667
283 1 38.9567755479 49.6212188267 39.9780954483
284 1 15.0861924966 28.0978173576 29.706472001
285 1 18.7829087382 19.1226101392 58.3495507049
286 1 48.1838725795 21.7303110931 28.9399573052
287 1 29.46257036 29.695685053 23.4770386712
288 1 4.8935003549 38.8455242136 6.4644881419
289 1 48.5804824198 45.4343086822 44.4343877543
290 1 12.5977893571 7.1000201348 44.5354352188
291 1 40.8211100133 18.9040140952 31.8835696513
292 1 26.5859537073 46.4563282766 12.8200587942
293 1 25.7041061294 24.4838982305 12.9271119649
294 1 41.0564987115 49.1660096201 55.8500690782
295 1 32.2267695219 38.2076365846 36.8569940763
296 1 57.0504523159 45.4834621805 19.1792270394
297 1 54.2209483875 30.9879031184 36.0633662409
298 1 51.7506206744 53.5449857473 30.0248910451
299 1 13.342322002 20.0093555746 23.8682258836
300 1 46.0242672773 49.0877022082 40.7899736336
301 1 31.4194393471 36.988011764 46.2451373266
302 1 40.9764420649 7.5480516479 48.6619967622
303 1 53.6337885681 34.4896962938 29.9863495713
304 1 56.0019026601 6.3912185263 25.6955931866
305 1 4.9868745093 38.1871122294 44.3459347805
306 1 40.2735412085 6.7263485937 10.697245731
307 1 33.45263328 59.2033522179 47.0260540557
308 1 34.8205349051 18.3374369388 55.5342155785
309 1 16.6263354431 31.4562898939 58.1436074594
310 1 48.2215394359 53.5042868839 31.2037003867
311 1 41.8489603904 4.5093217433 22.5597982422
312 1 47.2663989192 51.6464245873 50.6596229205
313 1 55.9744396736 24.0046078913 54.3272435564
314 1 49.6929957619 14.8798994041 31.5222360464
315 1 53.1951387844 14.5557078851 61.1200471122
316 1 58.5934523459 44.4495477894 7.3406040604
317 1 25.2021923532 53.7190929192 44.3629023582
318 1 30.0514794143 54.0171042238 34.1413070266
319 1 30.5389911571 40.062525182 59.1869677185
320 1 58.12722296 52.3566722299 26.0028171279
321 1 20.1933750771 9.2993738827 47.8611387562
322 1 23.3466040618 35.7746258809 35.9913560744
323 1 25.1396863625 26.0978588862 15.4126580208
324 1 33.6566523673 29.0575058847 39.7148356087
325 1 9.3257873284 51.199203553 24.136616812
326 1 9.9222180924 44.5083220791 50.1006257816
327 1 37.2759941223 38.8572440869 54.7715491993
328 1 52.1865882981 54.4028105004 13.0908986513
329 1 13.8970626696 59.5021215243 41.5561967903
330 1 15.8430864009 32.97631664 5.6522134634
331 1 26.1482368488 41.9519320132 38.8056999677
332 1 34.0064410224 38.1618066324 40.2713838189
333 1 9.9287485691 55.5694335061 23.0366979605
334 1 21.7029064143 60.5351029902 47.8699432381
335 1 32.4332958457 37.7658381782 22.0451733597
336 1 33.3786989552 33.681025039 28.2183979442
337 1 21.7368998776 19.411117268 53.4288365556
338 1 3.8448346666 12.2783207721 36.7763543514
339 1 41.8017893582 49.4116604959 19.6680798623
340 1 11.5578109519 16.1527592709 11.2584002595
341 1 30.1951499004 38.3412198166 20.3393778763
342 1 32.8851231983 8.378664138 5.6228088262
343 1 12.2748806103 18.8535778247 37.6871226115
344 1 29.067534831 18.9768988792 31.2322129142
345 1 39.3921600932 41.9226614839 15.8580715125
346 1 20.6707995659 52.0727714195 27.3701356747
347 1 47.5066271671 42.4532044032 59.9741816929
348 1 40.3134237623 14.4375762273 28.2763559243
349 1 31.6268402883 5.6157360867 33.9541389014
350 1 15.824836051 36.3589869246 11.4760633783
351 1 53.1745561214 5.4335182961 14.2729732313
352 1 7.5143555546 33.0464026483 16.9467952611
353 1 57.5361565161 8.5182414147 32.7235522093
354 1 36.7398536516 45.9270681295 44.3331070585
355 1 24.8751437507 41.4455868421 20.8736524965
356 1 29.216627945 58.8490738601 27.4732239131
357 1 25.4167068493 8.5238739508 45.0559491918
358 1 30.1707189208 19.7932667672 12.7917211902
359 1 43.8375488355 39.632096802 15.3386070803
360 1 58.1683882859 16.0830231096 59.4494112485
361 1 61.3539198069 17.5000199252 40.1712109718
362 1 6.3642453255 29.0854936418 50.7754805731
363 1 56.7279517239 22.5663287189 22.4701791119
364 1 54.5884043142 28.0358361373 55.3152696876
365 1 37.4891092305 14.0592750447 49.9731065636
366 1 13.0834935573 33.80551225 38.5372507315
367 1 54.2586152439 31.2621248295 48.4931372947
368 1 22.5722178094 51.0376908718 40.2511510029
369 1 12.3344712097 20.0396756447 19.7304692373
370 1 13.6047655321 55.0638463369 18.0626321494
371 1 34.9437976517 22.552451456 16.5315852239
372 1 24.8528118529 20.7002450186 27.7360172901
373 1 34.30544356 15.7931749008 43.4341169794
374 1 40.4407680568 46.4136469471 27.7105950775
375 1 54.1761679763 57.6097409939 53.019165762
376 1 15.2763343209 25.5932046421 31.2303470637
377 1 53.9260857056 44.7525152593 41.8701261317
378 1 35.0047876389 47.1200462731 22.8144868312
379 1 5.2196801708 46.2562158138 16.1527592709
380 1 3.3565653884 40.5294542619 36.9211326862
381 1 35.6437831167 42.6513343999 32.9040149343
382 1 47.8555412048 23.9937043276 45.2308726732
383 1 26.6758643768 10.6350895872 54.2296945616
384 1 41.8080282957 20.3317978588 21.3690357961
385 1 54.1933687853 3.5091191886 47.1008046901
386 1 34.8386686394 45.2920958917 58.9912866506
387 1 60.5523037992 34.3701069403 44.1206333364
388 1 55.7961926459 32.3098581756 24.844357218
389 1 35.9736304949 53.3876129218 55.7837730788
390 1 46.3550475808 36.7881908403 41.1471673828
391 1 50.3561306802 9.2416491339 22.9671950305
392 1 40.4273572565 58.8766534624 18.1489860414
393 1 46.4016355347 40.5551680137 10.4889701724
394 1 36.2619043924 47.5840016537 20.2368144084
395 1 33.6881385939 17.695409454 13.2458808559
396 1 20.2872506788 7.7887463584 61.6135645612
397 1 12.8521280991 30.8820161043 10.9381736728
398 1 38.4656487197 6.7972392499 22.9287701725
399 1 36.9458552049 48.7296921495 30.4102474747
400 1 22.756528851 19.5618430012 35.2499137443
401 1 34.5993733167 43.1104502309 13.1717716076
402 1 11.4681335138 23.4933648628 13.8291923588
403 1 3.6232672557 8.465099661 27.7544425635
404 1 57.1316751191 4.3889802189 13.879395398
405 1 27.4820867028 41.9834765477 11.3624214231
406 1 46.7163228778 24.2551566246 52.0715469551
407 1 36.2605050045 13.3188822555 15.647055486
408 1 4.9544378651 30.969127998 7.440922677
409 1 9.4587874822 27.7293701978 36.542015194
410 1 54.8132392958 38.6491434518 21.0889249944
411 1 43.9990615168 5.0527798463 5.9799151136
412 1 47.3739185525 49.3416911033 19.5284326162
413 1 25.5750709079 29.5731803081 50.1090804165
414 1 34.590510527 46.1313787558 48.4817089606
415 1 58.5157280123 48.4449750295 55.1781879859
416 1 38.8381774274 53.7894704666 60.6493280236
417 1 61.1761392419 19.723822145 14.3635835947
418 1 10.0669964272 60.6095037776 6.4133463467
419 1 57.0414729105 38.5287377887 30.10418969
420 1 55.5894913987 23.0136663688 9.7382568977
421 1 61.5364816137 31.6194351943 44.4835995604
422 1 46.917309958 12.8007005956 9.62548956
423 1 26.9020404383 19.7947827707 7.7284385727
424 1 30.6585222028 27.5912389553 51.788870609
425 1 17.6522616619 35.5887405279 19.9527969823
426 1 55.4896683986 28.9387328408 37.4303932486
427 1 55.5244781714 53.2818425234 36.46242501
428 1 26.7282831134 13.2574841135 17.6045075514
429 1 41.860213801 39.1300081023 38.7429024378
430 1 10.9386401354 21.849433984 17.8004218507
431 1 9.4428694454 28.1090124604 28.5620642774
432 1 39.1749634371 39.4670273433 42.20533783
433 1 19.2716449454 41.0137590742 9.72128932
434 1 24.3293241807 14.4431737787 24.1827966111
435 1 25.1782861441 42.579440849 53.5101759745
436 1 5.6290944099 6.0517212027 25.032924731
437 1 53.1303004806 4.6760646366 18.0973253065
438 1 54.0031103453 47.3680877698 45.3161187165
439 1 43.2945280412 40.7684580454 42.2528004013
440 1 22.7923881647 57.2167462389 10.3407516757
441 1 52.1311958623 13.9177619482 41.5631354217
442 1 12.8339360571 18.3102654913 33.0888507464
443 1 22.5540840752 58.7359566755 56.3144326137
444 1 12.7032099086 38.1429732042 40.1047400489
445 1 51.0188574436 33.2808001134 30.2478018683
446 1 28.2631783554 26.3307403478 27.2117716161
447 1 46.3540563477 59.5141329367 57.3645565808
448 1 19.8213711399 47.1223202783 29.6586012749
449 1 11.5752449923 51.5960466246 56.6083623704
450 1 49.5763217998 16.1865195028 8.6002688659
451 1 32.6748651736 5.9991333734 9.4036865855
452 1 9.9554535539 52.2406979617 39.9877162398
453 1 53.2512892219 36.3391039555 21.2251903865
454 1 55.7484385355 23.2440989017 12.6080515347
455 1 49.0573238303 24.9298364926 15.9244841276
456 1 37.6235670799 26.5271211097 36.8638160921
457 1 21.6162026754 40.8581937914 29.1261925051
458 1 3.5662375361 56.4962947266 57.4067131398
459 1 15.863960603 5.971343863 18.8241906799
460 1 15.6618073663 9.8188966227 19.3172416663
461 1 44.081975247 34.2148915044 18.168694087
462 1 21.6778340487 6.3634115236 7.6850983648
463 1 7.0865451959 61.4861036511 14.9572738908
464 1 18.4931188373 60.7329414477 10.8897198684
465 1 55.535731582 53.2305316355 7.8552580968
466 1 46.3272930551 46.6886266599 19.301148706
467 1 23.908225053 48.8638584598 48.5031079332
468 1 26.2848520879 61.635896459 47.246224411
469 1 43.3530690997 45.1028286848 55.7238909403
470 1 12.3092239205 14.4554767303 23.2131957533
471 1 51.0298193151 46.4423927059 36.9946005484
472 1 37.8264783184 22.0045328042 32.1172674225
473 1 57.7566767184 44.598757519 31.5554715079
474 1 28.7393783798 26.2228125598 10.8911775641
475 1 22.1900100024 52.8463996702 37.9394788875
476 1 54.0359959598 46.5288632135 61.197363291
477 1 23.1384451189 24.6943311787 27.4655272799
478 1 57.861047729 12.278029233 54.2032811159
479 1 49.1735313298 60.9721201547 14.0277305102
480 1 18.1553999024 41.4364325133 44.8678481414
481 1 50.9870796778 33.3514691999 6.5036010324
482 1 54.6599480182 61.3103055522 14.2905238872
483 1 54.7491006859 36.3300079345 12.7308478187
484 1 41.8459866912 55.2748040555 6.9245368982
485 1 47.1034868502 48.2172829645 10.284659546
486 1 6.5131868392 40.4134799937 17.9727797877
487 1 21.6718283425 33.082261962 3.65973472
488 1 22.4591006247 12.0676545926 54.3454355985
489 1 34.51663451 44.5047069938 56.1325705008
490 1 20.2058529521 58.5975922016 27.7243557247
491 1 34.3650341594 18.7001116237 24.438184894
492 1 54.0028188061 22.7652750251 47.2630170653
493 1 60.9266400495 24.5567830145 42.0378777504
494 1 17.5864904328 31.1805521793 46.0891055811
495 1 25.2881963983 49.8830209706 59.9431619289
496 1 53.4595647805 27.5350885177 32.2799462603
497 1 58.1620910406 40.8937615659 45.0943740499
498 1 8.2397923861 26.9608147281 39.8272530995
499 1 9.55062231 16.9280201408 48.7126079562
500 1 51.7695707183 22.8588590877 36.2989298626
501 1 41.607565986 59.1400882255 34.1800234238
502 1 61.5763058597 14.1374658409 59.2335556724
503 1 30.2893753491 16.4735689359 51.6436258116
504 1 44.0011022907 60.6370833798 8.3394288012
505 1 40.8299144952 21.4723572658 51.5243863051
506 1 46.38431811 34.2248621429 49.604251249
507 1 36.4791010485 9.8762715246 10.851411626
508 1 47.7909944401 45.5607200515 25.3829466174
509 1 11.9157627029 52.9143282888 60.9866388036
510 1 21.6951514733 58.707444148 44.1500204813
511 1 33.2345036987 19.7365332514 41.7591080288
512 1 32.1969742223 48.61214357 34.0519211276
513 1 3.7262033107 22.2047035748 15.941568321
514 1 58.7363648302 22.0212088428 26.28211162
515 1 22.2974713278 20.6173312884 26.2180896258
516 1 34.8095147258 26.5209987878 3.9795484874
517 1 11.9374532146 23.8884003918 41.8029555148
518 1 14.5891182701 19.0458770387 10.7349125873
519 1 15.039487927 33.8779888791 51.8117272773
520 1 40.3248520964 9.95743602 22.9880692327
521 1 21.2385428789 48.2147174201 56.490405636
522 1 48.376346717 13.7180576402 47.304940393
523 1 13.4599288894 27.1171380127 43.8833787877
524 1 54.5509706892 26.2197805528 51.6763365026
525 1 6.0021537189 31.7123778708 22.947137138
526 1 20.1353587891 28.7358216023 12.0185010943
527 1 60.7785381685 32.7973116107 22.7461500578
528 1 13.3933996586 7.9293090373 51.1468431242
529 1 16.416543881 38.1537018444 20.3562288384
530 1 54.3326661843 35.2696217899 4.1898181737
531 1 8.1307742417 54.0127311367 33.7779909556
532 1 51.4789645077 11.4270848035 40.0858483129
533 1 32.8995252317 17.5509809661 17.2746018654
534 1 56.9123793812 4.375855127 57.1351735887
535 1 42.1376424426 23.3411814339 24.5979483404
536 1 33.5539139758 23.7976151049 8.9528679583
537 1 8.1781143665 60.9027338404 47.6121643343
538 1 32.0447324856 54.2627550996 4.635050911
539 1 27.5112406164 13.7247047325 25.5137893816
540 1 28.9196078735 35.0174404374 47.6029516976
541 1 50.383185512 56.3759473713 47.0579484371
542 1 50.7202630608 44.9669131397 34.411039035
543 1 48.2309853039 45.1843430272 30.3959620571
544 1 56.2561830944 38.9434813633 8.5549986689
545 1 17.6338363885 12.4825730906 5.4327019865
546 1 30.5047644626 26.7433848406 32.8742196347
547 1 45.8597808969 9.613011685 50.8039931006
548 1 33.9516899727 4.9230216078 21.2352193327
549 1 45.0252209669 50.7223621425 16.0087972457
550 1 45.6018853774 4.4818645875 34.0941943022
551 1 28.1110532344 21.7676281025 34.6745321059
552 1 55.3085059796 35.7139274328 49.6131140387
553 1 34.3276005343 46.2864192682 35.9112994277
554 1 54.1161692221 8.7806557908 51.6772694279
555 1 12.6851344822 25.6736694436 15.1860738045
556 1 52.4815675956 60.5737610796 48.8173871216
557 1 43.2758695365 54.6642044895 9.4465428385
558 1 3.5767930021 27.241158761 52.2889768426
559 1 47.341032938 54.6163337635 4.1518772705
560 1 3.8467739849 46.9748014756 49.4187740508
561 1 54.4280577896 19.3313521605 46.6144591038
562 1 5.1860190622 50.3299504658 24.2731737432
563 1 6.8806427659 9.780996535 13.6889037266
564 1 35.0731827202 25.9806601536 7.9027206681
565 1 43.9697326797 54.6082872833 15.9907218193
566 1 38.7648261809 46.3614031339 31.0109347101
567 1 48.0721547827 13.2958506638 51.5367475644
568 1 9.7542915502 44.6374156084 28.5546591834
569 1 61.1824364872 17.4678340046 17.5737793265
570 1 30.3289080559 40.8285734152 3.6019277571
571 1 33.5821349642 7.7265902146 37.3958750149
572 1 49.4997053149 46.2801803307 41.1317158086
573 1 10.5536918605 38.0342291066 54.4539464648
574 1 8.0177503495 18.6416871809 11.3094779161
575 1 49.1930644519 8.9690950266 34.6647946988
576 1 36.3933885426 51.3308043189 11.8048612156
577 1 48.1029413154 19.8996785517 38.9979408738
578 1 17.2786834133 6.0223748733 38.6696094991
579 1 15.98640704 46.0157543346 28.9431642357
580 1 54.9425660564 42.5118620773 29.6074070026
581 1 13.9670320622 45.8833372591 42.8694056734
582 1 47.5870919686 56.9582676411 22.0605083183
583 1 10.5515927787 14.9644457535 3.5093879877
584 1 26.671724521 17.2030581615 53.8544836938
585 1 15.3036806919 3.4067236472 47.3967169129
586 1 56.3926817177 50.837928256 17.1666740773
587 1 49.321225056 60.0296907444 30.4194601114
588 1 23.738199429 26.4113800728 31.7184418848
589 1 20.8998910188 20.140781417 49.4875772869
590 1 34.6141835048 34.80001055 48.1447480275
591 1 58.8395696843 14.8950011314 48.7808864218
592 1 30.7890734278 27.9737383014 11.9480069313
593 1 56.0214357822 12.92133949 29.6529454157
594 1 9.8153981531 13.7711760708 6.2168839539
595 1 24.9308277257 26.3514979343 19.0939226883
596 1 5.4222065776 22.3504148349 55.3766095217
597 1 9.8256603306 28.7788527788 32.188636203
598 1 6.8140843812 41.9500078549 45.0654533676
599 1 17.9876482837 26.8235581029 24.6961387214
600 1 33.8842278167 28.6274273516 34.8899212194
601 1 42.4955941936 45.3017749911 16.134858768
602 1 59.6053846862 15.2100966293 29.3002413692
603 1 44.3125243955 18.7950367663 61.5560730436
604 1 22.9013071859 13.8575299628 58.4392864509
605 1 11.1755448371 17.8216458998 56.302537817
606 1 60.3109093947 31.1150141816 58.137660061
607 1 26.2540072473 7.0022495702 47.3708282377
608 1 3.8710486995 20.1408980327 28.412096546
609 1 21.4119503568 26.7293909621 43.0310349703
610 1 16.3485569545 37.8957480171 32.1901522065
611 1 32.5821557284 53.8589150887 26.5474122335
612 1 15.6524781139 11.0550808662 55.0247217848
613 1 51.9805284369 36.1518775225 57.9820947782
614 1 45.1333819862 30.4978258311 9.0641484464
615 1 7.5975200084 40.1231070144 37.8468860579
616 1 22.9249801637 61.09783183 45.3720359228
617 1 58.7872675633 18.6713658649 49.9360810934
618 1 37.8117264382 31.1207866565 39.7161183809
619 1 6.9611425521 11.4625359624 32.0524874266
620 1 4.2496186812 29.1079421552 12.8790080075
621 1 52.4280410103 47.7407330931 25.2563020168
622 1 37.3642721726 37.1909230025 60.7153324839
623 1 39.0489019148 47.5061023967 45.1300584401
624 1 26.7387785223 48.3744808665 31.9954623716
625 1 27.1655335092 35.1955708494 21.1233849202
626 1 60.1170941773 25.8724408264 58.400103591
627 1 46.9906612046 17.2194426609 38.8161953766
628 1 17.3078956347 26.9514271679 41.4006898152
629 1 11.3610220353 5.0569138713 26.0715037483
630 1 55.2837251531 58.6835379388 55.3163192285
631 1 52.1079893471 38.7650594122 8.6000414654
632 1 26.9523017853 61.2501318746 51.5424034237
633 1 52.0187783715 37.7443808978 37.2566359237
634 1 8.4409427282 22.5823633713 37.9877577684
635 1 49.982085969 59.8758163885 4.6158268204
636 1 18.8762012617 33.007686251 3.4747939539
637 1 51.5166313641 18.1797725741 27.9869158703
638 1 60.522683423 13.8693664517 5.9409596543
639 1 27.9197452535 10.810596147 46.9865796567
640 1 30.0727617712 31.5473667199 5.7382466624
641 1 36.368957563 11.239683447 38.5395247367
642 1 38.3131737517 47.610240176 11.5925041091
643 1 47.2010941528 9.9307310352 46.0439170151
644 1 34.649867895 60.2937668936 18.7767281086
645 1 23.4814117582 56.4003200431 7.7234882382
646 1 16.0922940542 54.342228668 52.4590024665
647 1 8.6458247713 33.4953146095 14.5059130007
648 1 53.9575719323 43.2695139834 51.3417078826
649 1 31.5416525529 48.5171601195 13.9072665393
650 1 16.6846432702 57.7980752757 46.5714862352
651 1 55.4104280615 18.1765656436 24.5929921751
652 1 56.6114526852 44.7585209655 28.7787361631
653 1 39.9094671357 4.8502184548 29.3691029131
654 1 10.2433776044 29.7524768766 14.8458476331
655 1 44.0187112545 31.3368754639 12.5858362525
656 1 47.6583441334 16.9906427471 23.7597150172
657 1 7.0723239169 45.5931975112 4.2570412676
658 1 24.5329351131 22.6186308398 14.7971605974
659 1 58.0145722379 58.1357942105 30.6947313634
660 1 47.4511181157 7.3943522155 5.8944708237
661 1 36.9015412563 23.5067173552 45.2371116107
662 1 59.6528472575 44.1884453394 33.739741021
663 1 23.0117422105 25.7337848134 34.4671894726
664 1 53.7135536756 42.411106152 46.8423844002
665 1 52.2541670697 33.1643593826 49.4788311128
666 1 51.7365101803 50.8434091917 41.8887846364
667 1 3.5795772008 29.9180711057 61.4562500436
668 1 10.650016391 48.7580297535 16.7385197025
669 1 26.9544591749 19.4430116495 10.5966647291
670 1 10.9885516354 7.517859855 13.1745703833
671 1 26.9267046492 29.4839110247 44.4407433075
672 1 27.0003474349 27.1422686862 12.8104380027
673 1 7.0515313457 5.3703009499 35.5832595921
674 1 39.4249290921 22.1190493767 24.986045238
675 1 59.8409483079 6.6223157685 28.8618248168
676 1 27.982309552 47.0184157303 42.442475763
677 1 24.4366688905 27.8979381261 45.14696771
678 1 24.390955554 21.5204612232 46.6773149415
679 1 17.2218332818 11.2512867046 32.4626829906
680 1 24.5666370372 60.679531478 30.3822014099
681 1 51.0903428397 5.5651540467 30.1856457245
682 1 16.7046428549 54.0650915655 30.1815058688
683 1 58.7252863431 60.0445592403 6.9050620839
684 1 56.0184037752 57.8064716028 32.7338726947
685 1 57.4382576743 46.7607534421 51.2691729456
686 1 26.6718994445 6.416827324 12.6447271579
687 1 19.693152228 9.7678189661 51.9395963422
688 1 7.2722906101 41.1660008109 25.3255717155
689 1 41.6962521911 33.4297766118 50.3584629933
690 1 26.5128939999 4.283892022 23.5719638138
691 1 60.2667703696 8.6865178039 22.863465406
692 1 39.8902255528 16.5443546381 36.6950149325
693 1 5.8880861166 12.7858904075 4.088024369
694 1 5.8480869472 49.6745121807 52.7838353716
695 1 18.4758014126 37.6648490216 45.7776834763
696 1 6.955160169 18.3376701701 13.9827168677
697 1 41.252004856 48.65937291 22.504872269
698 1 16.5324015335 43.2483482421 10.9744994491
699 1 52.7069273476 16.9332095374 11.1792182302
700 1 44.8107647786 24.1972569522 45.1741974652
701 1 43.1534814073 38.3514819942 11.0690164369
702 1 37.2088818132 53.893549938 58.194685116
703 1 18.7194698223 15.1902719681 14.4031163015
704 1 47.5422532495 20.2715075655 19.6727444885
705 1 26.4835651628 43.4200064853 28.2724492999
706 1 24.9413814424 39.9770459074 55.9816698441
707 1 43.8448956218 59.943103621 28.9982651324
708 1 24.4726448199 12.514817319 40.5760422158
709 1 30.6364818441 43.4011730571 60.7840191043
710 1 44.3813859394 59.6588529637 46.857602743
711 1 21.1259504646 6.4589488984 58.2330516662
712 1 34.7438018046 26.4898041003 16.7091908655
713 1 9.7417553674 12.5661865148 48.7607702214
714 1 31.1573456641 27.2829654731 3.9397417338
715 1 9.2796075293 32.6605214481 55.2886230106
716 1 5.9600029906 39.1777622128 3.7082270076
717 1 57.9762056876 14.9475364836 17.8451439541
718 1 33.7054560186 20.2665514002 28.1823053991
719 1 54.9055405861 35.4620959273 8.6310495679
720 1 15.9873399653 21.2311377848 24.6472184544
721 1 9.3460784523 33.8761230287 27.701965519
722 1 58.1454733099 24.7683821192 32.1654296878
723 1 49.2541710548 21.1523056025 55.2332305748
724 1 34.7815852766 41.9342064337 28.160439964
725 1 5.4874297131 28.7534305661 22.3985771001
726 1 45.7549434237 5.6500210891 24.6958471822
727 1 37.6805921349 11.7899344119 17.7359917017
728 1 24.5633717989 28.8379769155 15.991829668
729 1 22.7023025718 58.0876319453 4.3190574725
730 1 5.8992578963 11.0973540409 58.3864595595
731 1 18.1540005145 47.572456704 10.4148609241
732 1 37.3719688058 9.9068831339 40.920408243
733 1 6.4428267841 60.1719618426 29.9308988277
734 1 19.2719947924 3.4484481452 4.3440248841
735 1 25.1970612644 5.3711172595 14.9069542359
736 1 33.9835260463 37.2217095352 15.3281116715
737 1 36.0996337094 20.7212358364 37.1505739861
738 1 17.7982061532 47.2489065711 24.1611060994
739 1 13.3413890768 37.9374381135 46.1865379603
740 1 23.4890500836 42.3087759154 15.688220812
741 1 22.0673886419 4.144297253 28.5715101454
742 1 47.8627130675 8.1841200727 49.5296755381
743 1 44.8165955613 36.6061538039 43.4733581471
744 1 50.4202692901 54.3032790395 26.2312671947
745 1 28.8604837368 52.6933999317 20.727416466
746 1 6.6076396884 39.3394498175 46.3888661205
747 1 8.4902419961 9.9532378565 24.0648981846
748 1 43.2949945039 59.7727864579 31.8412381688
749 1 29.2614666641 42.4624753477 8.9106822454
750 1 9.5929537925 10.4438399141 54.895453332
751 1 10.7271576463 19.6102384977 6.5367665245
752 1 19.6105300369 59.9316752869 36.7164722129
753 1 17.3095865617 37.3147105195 23.0220043881
754 1 53.6399108899 39.1217283909 23.5987271065
755 1 5.9247500783 21.1576699226 25.2225417849
756 1 57.9905494131 43.6515468669 44.6574151932
757 1 52.0713720316 58.999916209 30.8546114255
758 1 27.89595566 9.573537286 32.3207617393
759 1 23.3113278264 50.5113461161 43.0207144849
760 1 44.897643441 32.4247245951 24.4145119162
761 1 40.2154083048 50.3944389226 48.932603388
762 1 19.8476096621 18.8791749609 35.0082861086
763 1 28.169535985 31.6639823742 8.6672237439
764 1 39.5249853235 31.6719122387 44.1340441366
765 1 22.3649917917 17.9306815365 24.9932171007
766 1 12.8857134076 46.8366702331 15.805594468
767 1 34.1647467731 45.3845721056 15.0926646654
768 1 5.0655959067 54.2441549027 58.6356089049
769 1 58.8799187007 27.5766036907 3.7922707435
770 1 42.6696430576 20.6914988445 55.1253027867
771 1 23.0552398496 24.1919509399 12.060424422
772 1 59.138572222 6.1653165116 16.4171852671
773 1 49.4425636443 28.094318888 36.6059205726
774 1 47.7531526603 33.0594052937 55.9845269276
775 1 34.2161742766 28.1103535404 14.3579860433
776 1 46.5777251727 23.2478306026 40.6082864442
777 1 12.7286904291 30.69455644 50.8866152916
778 1 37.9961540955 5.365146538 51.8711429532
779 1 9.101891103 20.7295738556 29.756733348
780 1 32.9721767843 38.7364885769 28.4688883696
781 1 26.4783174584 4.5656529351 43.8652450534
782 1 4.2947722625 38.4500805299 18.5013402409
783 1 49.8462870395 38.9592244766 26.5018738205
784 1 61.4296616744 49.51352427 57.0337179695
785 1 4.5723350121 36.6609631614 27.3985315865
786 1 14.517632874 46.7519489602 51.4911508436
787 1 8.77632935 8.7745159766 20.1423557284
788 1 33.7651632336 33.3837134284 24.3647753396
789 1 17.6557601315 20.5508020576 54.3070690482
790 1 6.8138045036 57.9075773751 28.2861516393
791 1 4.220937061 34.7394870254 53.3465642115
792 1 8.2305680879 8.7848189697 39.0020224217
793 1 22.4709954215 16.5003322286 58.1069901439
794 1 27.1755624555 46.7658845309 23.8745231289
795 1 12.5425135369 38.8877390805 4.1148576311
796 1 35.4614545412 8.9287110255 6.9369564654
797 1 31.5776284822 47.6913463635 6.0663564673
798 1 22.5835878357 35.0160993574 60.177909241
799 1 54.7899161649 46.3635605236 58.3233121827
800 1 6.0146957325 53.8606060157 23.8163902252
801 1 57.7204092499 7.1018568314 56.3415457533
802 1 20.2456188903 27.0981879688 8.7529595729
803 1 4.4180583323 46.0104483223 55.1557394725
804 1 12.2815277026 61.1880340386 50.4097738812
805 1 38.3854171496 46.4059503139 47.526918291
806 1 26.9692110552 37.5032197247 54.4476492195
807 1 33.6172362761 4.3482230477 42.7122660793
808 1 44.8182281805 48.7687583937 26.2863680914
809 1 46.141116163 49.0919586796 37.7005917196
810 1 21.8261108531 47.1296670645 52.370782724
811 1 10.662144419 48.1825898073 30.589952198
812 1 50.2784646544 17.5092908697 54.7822195317
813 1 10.4020332021 12.1224639501 52.7356731064
814 1 39.8107519844 32.4334707692 37.7003584883
815 1 26.9587156463 33.1185294304 23.0859680745
816 1 10.2314244998 43.7010502122 7.2239300983
817 1 19.2807992743 26.3030441299 15.1930124359
818 1 39.5663838808 9.8984284989 19.0342154733
819 1 31.4392640084 28.2001475943 8.2614945594
820 1 54.2290531755 14.7284156692 51.0456207363
821 1 41.2120639944 4.6345319714 61.1323500637
822 1 40.5148189973 46.6688603065 9.7490438458
823 1 48.8733043278 39.6028262727 32.0585514406
824 1 21.6339282548 9.5946447195 28.7247431152
825 1 21.6094389674 56.974185678 58.5463979294
826 1 56.3789210705 11.8814193927 9.265205496
827 1 12.1377406008 21.2960927043 44.9596829691
828 1 36.8727954975 45.743048627 37.1253850047
829 1 14.0006173706 22.4298884033 20.2558810678
830 1 29.3167424843 10.0482213069 9.2813567642
831 1 32.7131734161 54.3175644571 16.5280867543
832 1 52.2758575814 15.735450152 22.9321520264
833 1 4.7180229491 57.7844312441 20.3688816369
834 1 15.3595978981 33.1101914112 19.4233036039
835 1 26.9754499927 30.9761249373 59.3218337227
836 1 60.4400029241 11.017355702 39.9864334676
837 1 25.2365939713 28.6798460883 59.0456295455
838 1 19.6343196304 52.219998683 34.9682286313
839 1 3.4107696273 7.557334254 44.0590019631
840 1 27.6062823747 55.1739315145 33.7556007499
841 1 30.8944356714 53.6726798888 47.5364224668
842 1 35.8799298167 61.0764328575 21.265481095
843 1 6.8717333299 51.5482925142 22.4189848396
844 1 6.6113480662 46.8644830666 28.8343618302
845 1 29.9735218494 38.0297394039 38.4896715445
846 1 34.6656110084 13.4273931219 12.0647975091
847 1 58.8001535931 7.3546912315 20.8015840222
848 1 45.6082992384 55.5917654039 37.0261450829
849 1 17.3468452632 49.1623945348 34.719020978
850 1 44.69560682 32.2190728888 41.2919457176
851 1 3.9980553917 8.4296426713 20.9818718237
852 1 56.9696959753 35.4109016551 54.9412832842
853 1 53.5719822713 50.3279096918 17.7868361269
854 1 14.5011900667 26.700062125 8.4966383647
855 1 10.8680876645 47.6493064202 5.1836459336
856 1 25.5505233127 52.8495482928 17.3765239473
857 1 29.1382039175 50.1799827343 56.2479616907
858 1 61.0780071688 52.2610473933 58.2968404291
859 1 17.5227599778 50.0693727862 43.4422217674
860 1 46.0052589257 27.980268778 41.7213828646
861 1 35.2151622793 6.3740876867 11.8555307174
862 1 45.0842867958 18.1513183545 17.2815404968
863 1 29.7213404969 7.6323997506 33.364938308
864 1 22.0248822359 54.8859491562 45.6317972928
865 1 39.0406222033 8.9285885791 45.1143153268
866 1 5.9509652774 51.1993784765 32.596149607
867 1 26.0978588862 6.1844997867 32.1577330546
868 1 56.5562351729 57.3169773938 24.3677490388
869 1 30.7351969955 9.0124060806 23.3263712458
870 1 57.851951708 32.7265842163 5.8650312017
871 1 32.5130609533 7.2398597967 21.9120565903
872 1 54.3457271376 37.5271842417 6.8963858792
873 1 24.7578867103 4.6305495468 21.1914884624
874 1 10.5529921666 25.7091206025 17.2181598887
875 1 45.6065500036 34.7723726399 35.4519503654
876 1 25.053507394 10.3443084532 47.2328136108
877 1 21.8796957463 33.4120510323 6.449485538
878 1 57.1457273054 52.3753890424 3.9648082687
879 1 53.8585069339 36.681021054 60.1549942649
880 1 19.1336303186 36.2526917557 55.3243657086
881 1 20.5944163123 47.2527548877 38.9367176553
882 1 57.4133019243 58.3726989123 41.6789930742
883 1 24.4759100582 30.4508880303 7.7741752324
884 1 49.4671695474 43.3518446353 16.0777754052
885 1 43.0973309698 22.5015487229 53.2438841279
886 1 32.4474063399 28.8201347204 45.6119726315
887 1 46.1899781221 23.2354693433 31.3256220533
888 1 25.1409691347 40.0459074513 59.7975089766
889 1 4.6929039371 55.3098470596 8.5926538637
890 1 38.0491559104 4.6722104893 21.0552813781
891 1 30.7140312542 45.0495353308 54.9628571802
892 1 34.9432145734 38.8370112709 61.1301926741
893 1 57.7075232201 43.6960940469 35.9147978973
894 1 35.3036152531 39.6214264696 29.6727117691
895 1 42.8606011915 35.7268134626 51.6690480242
896 1 36.0398681866 5.7320718635 15.7559745071
897 1 40.1045651254 21.6956179359 56.5574596373
898 1 12.2497499368 8.7320037398 40.0666067299
899 1 13.7861611823 61.2904808909 58.5000432068
900 1 16.6363643893 55.0172000751 12.7011108268
901 1 39.8888844728 12.0421157643 15.5353376892
902 1 8.9065423896 46.4152212584 52.0731795742
903 1 8.1447156432 30.255323578 46.3539980399
904 1 60.237616456 46.9097882483 40.3053772821
905 1 14.9871274983 5.8179942776 45.7638062134
906 1 18.8212169807 56.4893560952 60.9914783533
907 1 46.5629149846 35.6722956442 5.9239454303
908 1 16.2208045052 13.6458725502 41.3683289712
909 1 20.4767511171 3.3511179272 30.7760707823
910 1 45.9706240764 27.0602295734 56.2430055254
911 1 21.018897294 25.5284246462 50.4977020845
912 1 51.0335510161 33.2048250146 20.5021150219
913 1 27.0207551744 25.583817082 30.6465107904
914 1 51.3524365228 26.053370014 46.372190082
915 1 6.0155470268 13.3690852947 22.4528616872
916 1 3.8627485803 19.3998055495 25.7912180232
917 1 37.4821705991 5.1095133622 54.7322497238
918 1 26.8065322174 4.9649565971 6.5732672243
919 1 20.1403732622 26.088121479 56.937393439
920 1 57.4123106912 58.8135060856 51.1936060016
921 1 36.4483145158 41.0183070848 26.2060199055
922 1 10.646634537 9.1864899294 37.6394851168
923 1 11.35472479 40.6148169208 20.7429846559
924 1 18.5358584746 55.2245427085 37.6780265905
925 1 58.2348592089 30.3928134344 19.0629029242
926 1 34.9133026581 18.3598854522 20.4972754723
927 1 41.6508887016 13.1674568284 58.6981732035
928 1 51.3638648569 12.6854843291 20.6543567586
929 1 33.4544991305 59.1296511244 60.8752708538
930 1 6.6803903643 34.6833365878 12.9865859486
931 1 37.5144731353 12.2094009204 56.1725696702
932 1 39.0896007781 34.2591471453 51.2191448299
933 1 29.522627422 12.5747577654 37.8240293897
934 1 37.3614733969 16.8063317055 28.6850354849
935 1 19.2841228205 59.313962166 13.1219767232
936 1 51.9432114275 40.2870686244 59.0044059117
937 1 41.8277363413 5.2147298363 31.6814164146
938 1 21.6212171485 52.9903616954 19.8211379086
939 1 11.9778022309 24.6735735922 37.6003022569
940 1 41.3759672965 27.5052349102 7.5514976405
941 1 53.8171083766 32.3125986435 28.2867930254
942 1 30.2878010377 52.4164960605 39.8293521812
943 1 24.724243094 34.2269612247 53.3625405561
944 1 55.7956095677 8.9246586315 30.3333394507
945 1 40.0485896113 51.3015920975 59.8419395409
946 1 56.6838710065 44.0012189064 52.0065337278
947 1 11.7043968294 34.5997231637 33.5342642381
948 1 23.7402985108 14.9351169164 43.942969387
949 1 20.7450837377 37.3762252772 32.3619853731
950 1 27.1350385156 29.8250701214 6.8912897751
951 1 49.70378271 31.2802585637 31.4408966275
952 1 52.4337551774 16.3460497179 17.3263209081
953 1 59.7504545601 4.9826646842 50.3385800242
954 1 24.3331141895 20.448121974 52.7558476146
955 1 45.2714549209 39.3818396078 22.5746667381
956 1 7.4043928233 41.1880994774 8.4255144772
957 1 47.0912422065 49.7256481452 6.6309803116
958 1 28.6269025812 52.5631985537 53.2244093136
959 1 21.2187182176 39.5652177242 42.7037531365
960 1 21.0689254097 49.5371972478 30.6974718313
961 1 55.8359585841 15.4643770635 61.1882089621
962 1 11.80608568 41.1881577853 45.137521842
963 1 10.0907860207 44.361269739 32.6973136871
964 1 31.6567522037 36.5662129423 16.6044700079
965 1 58.2396987585 24.9107698331 22.8051575789
966 1 24.0468227582 33.2412090988 22.3705893431
967 1 25.3571745578 59.4674866749 45.7196671883
968 1 20.914642899 58.0204613284 35.0509091302
969 1 28.039334607 39.0463363704 3.6734609656
970 1 37.0821789048 12.3296899678 5.4462643871
971 1 34.1262636072 9.0845153705 16.8010256932
972 1 16.1831376489 32.5025655444 12.4390754516
973 1 22.8258568575 46.8943366741 18.7041931716
974 1 18.752297129 30.6105931688 6.9344725519
975 1 34.8895130646 32.2681680792 47.018882193
976 1 13.891523426 36.4054582628 17.6681213909
977 1 54.6559247781 5.3799742184 55.8146762271
978 1 50.8501145918 23.710211672 31.4219465837
979 1 55.4162005364 15.84203686 57.1591381057
980 1 46.4647829115 31.9645009154 14.0224828058
981 1 47.0315349914 3.9402315195 10.1728834414
982 1 29.8527663393 35.6015682499 54.9544025453
983 1 33.0479769596 58.3408628386 52.1227995352
984 1 25.5769367584 16.3468660275 37.5655507919
985 1 32.8876304349 31.5048603139 26.5107366103
986 1 13.6964837442 55.5096679833 53.2427179713
987 1 39.4540246978 17.2077227876 51.7924273865
988 1 44.6964231295 33.8347244714 58.1722366025
989 1 8.4592280628 57.0110362247 5.2915037523
990 1 35.8136338172 15.6907280485 9.4562219378
991 1 54.6309690281 36.5283711625 31.9367463897
992 1 48.133786156 36.4663316344 48.9533026667
993 1 4.9123396138 11.0849927815 39.1428941321
994 1 60.8237850424 60.739238693 28.2693006773
995 1 12.0270723449 40.8212849368 56.1113464517
996 1 17.8017629307 59.375710155 32.7447762584
997 1 49.9352064759 43.7064145323 48.2824711152
998 1 23.6658977234 40.5917270213 12.4562179528
999 1 52.1300880136 12.4189592512 17.8632193805
1000 1 38.2646616395 52.3348651025 42.72754273
1001 1 53.6213690009 52.2365581059 60.7032627637
1002 1 47.9231199765 35.1951626946 31.6955269087
1003 1 52.8003947945 50.1213833681 49.2072915617
1004 1 17.9422264863 55.9317000362 28.3781030827
1005 1 33.9356553202 15.7057714679 3.3622274283
1006 1 43.0735413763 31.7112117142 17.7150008839
1007 1 59.1609624276 29.6951602825 7.5990651659
1008 1 54.2520847672 34.7377377906 38.1084549706
1009 1 23.3846207652 4.743760024 10.7403935231
1010 1 50.0613846139 35.2146375089 8.6554747167
1011 1 56.5105218364 15.9693228467 54.5670636495
1012 1 32.1964494518 26.1045059785 46.2832123377
1013 1 42.3115746911 21.0482844389 61.1661102956
1014 1 4.3033959902 30.1035483039 35.2611671549
1015 1 22.7786858254 53.9862010754 24.3619182561
1016 1 23.2342448789 20.2250945351 31.0241705869
1017 1 34.914702046 53.9592628592 38.5158517589
1018 1 48.5771005658 59.6721471483 46.7720068528
1019 1 22.6511082995 44.5609157392 51.8045554145
1020 1 53.0841789893 9.4060772064 11.6221827931
1021 1 17.1074333249 54.1424077443 26.0066071367
1022 1 61.6016697645 57.992590187 40.7378464361
1023 1 44.8579358108 40.396162569 51.0430551919
1024 1 58.0208694832 19.2732775646 21.6612746258
1025 1 38.2045462697 42.8561114889 48.0966440701
1026 1 52.1929438512 23.8024546545 17.5895224398
1027 1 10.1330591954 55.9898912477 41.9810276189
1028 1 15.3760990132 16.6802701832 16.1907176664
1029 1 31.0049290039 58.8488406288 54.1779755189
1030 1 40.5598909477 8.619749511 31.9927219037
1031 1 11.2911109505 23.854931699 7.4379664702
1032 1 43.3890450291 21.1975524764 18.9187659755
1033 1 23.8139996043 9.1363860135 52.5668719468
1034 1 50.8934956152 54.4942954812 51.4290530077
1035 1 46.1278219784 23.3357004982 54.8938790207
1036 1 53.2942620905 48.7886413628 31.1858581916
1037 1 52.6409228873 26.6310256577 20.2375724101
1038 1 59.6927881191 31.0529163456 32.8120051831
1039 1 6.1793861903 18.4447233407 28.1823053991
1040 1 39.9166389985 12.6282843507 50.2318767005
1041 1 34.612784117 44.9405580018 42.7036365208
1042 1 61.4157844115 61.5881423486 24.5569579379
1043 1 32.3981945338 13.9564200376 27.8806790093
1044 1 57.9955055784 20.0636401617 6.643796372
1045 1 22.8666140287 26.5557502528 48.5110377977
1046 1 55.7205673941 30.6101267062 54.8853660779
1047 1 11.7875437909 24.8690797367 57.3734776783
1048 1 29.2332456758 17.3298776855 20.574941498
1049 1 32.9405156341 11.6801407733 31.9106827909
1050 1 30.0005766812 7.5033120521 54.281180373
1051 1 45.4200815724 52.1274058535 52.9507123729
1052 1 18.1901513674 53.6225351574 18.054002591
1053 1 58.2377162924 34.2793799613 9.9396521327
1054 1 32.3629766062 10.1732915961 38.0376692684
1055 1 36.8398515752 24.0401756659 6.4210079952
1056 1 26.6519581676 6.7473977193 22.0640067879
1057 1 18.3786605726 11.3271451877 53.9278932482
1058 1 20.3407772642 49.2316059257 46.7395293931
1059 1 47.2891389718 11.9095237653 53.8526178434
1060 1 46.7002299175 61.4185248794 25.5639924207
1061 1 42.0571193333 10.5743328313 39.5873163907
1062 1 8.1976941349 13.8960714365 56.3125667632
1063 1 37.9932970119 36.1384667223 18.8319456209
1064 1 38.6529334605 18.1168001208 9.1499192602
1065 1 17.0664429224 4.8376356257 11.0498914696
1066 1 58.4873321005 56.4291824175 54.7569139347
1067 1 54.2934833245 33.5405031756 51.4334260947
1068 1 4.7558938828 27.7835964771 41.5643598861
1069 1 54.0636921777 31.782463879 12.9468200104
1070 1 41.8695430534 49.08846021 35.2523043652
1071 1 25.1690151996 27.977236771 56.2631800336
1072 1 45.1842264115 57.3096889154 54.526073247
1073 1 54.401935883 18.1100364129 5.8868091752
1074 1 42.8079492236 45.7923770487 51.567242558
1075 1 6.4036497551 30.6651109872 16.0748600138
1076 1 42.5786828473 32.0858978115 26.126604645
1077 1 46.0129555589 54.3395465079 32.9585327527
1078 1 8.6447577381 42.3086592997 23.1624679437
1079 1 54.0172791473 46.7610449813 52.0637337062
1080 1 15.6846640345 49.5102590316 46.5518948053
1081 1 52.1093304271 55.9188140064 18.4681630873
1082 1 15.5490983364 47.2413265535 26.1843877017
1083 1 50.4728629501 15.0423450106 11.0949051122
1084 1 55.6917633275 4.7694446218 50.9113961182
1085 1 25.4630032641 6.6041062341 29.2320212114
1086 1 34.09157045 61.2177127227 23.5025191917
1087 1 8.8493890575 30.6217882717 58.9348446739
1088 1 15.5319558352 44.780269785 40.435986815
1089 1 38.0079905844 46.7970209106 59.0397987628
1090 1 19.8234119138 13.5785853177 47.7624819127
1091 1 52.2943411626 38.0629165576 48.6203066658
1092 1 21.8469850552 43.6911961894 30.0004017577
1093 1 18.9217979825 16.672923397 27.1133480039
1094 1 27.2241911833 23.4512083038 48.1097050234
1095 1 16.8915777488 42.2553659457 6.5792379458
1096 1 17.971671939 46.1963919831 39.5935553282
1097 1 5.5439533207 3.9683650461 44.8642913639
1098 1 31.2087148598 52.7749142741 11.3813131591
1099 1 22.3912303139 34.3027030921 57.2769782244
1100 1 57.6813430057 54.1874796947 17.6672467734
1101 1 53.5171146059 27.6462815441 17.6277723745
1102 1 19.0121751146 47.2113563304 57.8441967669
1103 1 28.9422896183 53.1348484911 50.5368849444
1104 1 35.7685618668 34.3893485233 32.3864163527
1105 1 30.7998603758 38.1920683947 24.3402860522
1106 1 51.7386675699 21.2699124899 30.0941024359
1107 1 25.3732092103 31.2771099411 28.2362984471
1108 1 32.4515461956 15.9152714909 19.4073272592
1109 1 61.0548589614 34.0576352946 13.3324096714
1110 1 55.0285701014 40.9223324013 36.7683661791
1111 1 5.1217405135 57.0336013538 42.966721437
1112 1 13.8594541211 44.7267431997 48.1036993172
1113 1 61.0997559883 53.9064942757 38.2006979531
1114 1 19.7394486427 14.1164750232 60.5041415339
1115 1 29.9247765058 59.8840961 30.0555026543
1116 1 43.8125930855 53.9025876512 38.9647637202
1117 1 10.234748046 40.860701028 50.6084286483
1118 1 22.8750686636 34.2797881161 41.2621504179
1119 1 28.9579744238 57.6487489303 33.2008600824
1120 1 50.2922253016 4.2752041557 17.3196738158
1121 1 3.7923197221 23.8363315021 58.4770699229
1122 1 48.9451395709 7.6531981526 45.6488814861
1123 1 32.6152745743 12.2675921319 55.4690857356
1124 1 53.6984519484 38.0832076814 41.3236651756
1125 1 9.1078443321 53.7881876944 12.9737582266
1126 1 37.1746551187 49.6756783373 36.3988111705
1127 1 50.6390402575 19.0252360679 11.124292257
1128 1 43.2541790248 9.6376175881 31.7772744824
1129 1 41.1095005264 36.7586870798 29.3766829306
1130 1 33.0231378252 27.0309007363 6.1326408052
1131 1 50.5671467067 8.9300870902 43.6228594159
1132 1 43.7388336842 5.9057708806 61.4493697199
1133 1 38.2513091471 29.3857206438 35.9195208313
1134 1 32.9578330588 7.3671632757 31.9169800363
1135 1 48.4594353706 26.4779676114 51.7356355628
1136 1 44.4221431106 46.1779667097 12.4749930731
1137 1 33.8220716729 16.4062233956 28.4268484262
1138 1 17.1550708197 7.7450271496 58.2678031312
1139 1 19.7033560977 25.2260985624 54.1573345481
1140 1 49.9655265461 11.1697140544 50.709067958
1141 1 58.6434804616 9.2620568734 10.6699576679
1142 1 59.2334390567 60.180591401 25.722123248
1143 1 49.9956716927 9.0570173992 3.4767495984
1144 1 36.1192251393 45.9601869753 50.8306980854
1145 1 17.4118001827 26.9680448986 28.4365858334
1146 1 7.086597673 13.4192300261 49.331020771
1147 1 25.7719764402 59.7340700607 49.3253649117
1148 1 14.0782833964 59.4198491802 20.051395518
1149 1 45.8442127071 6.1763308601 21.9336887942
1150 1 31.4310426047 9.0570173992 28.2989793613
1151 1 8.4304589809 10.7462826136 59.7243909614
1152 1 53.9538985391 56.5519787015 12.1888765652
1153 1 54.0300485614 6.5982696206 53.3246404685
1154 1 29.2749357722 48.3551809757 33.6430666435
1155 1 25.9413606781 28.8638072829 23.1067256609
1156 1 54.4705058877 12.1361662895 3.9075010038
1157 1 29.399831138 35.4754484197 37.1547138418
1158 1 34.6845027444 19.6951346941 53.1207963047
1159 1 15.8065857011 36.2409135746 45.7744765458
1160 1 14.8278305145 45.2908131196 59.733953445
1161 1 44.1794076261 54.9627405646 50.699272243
1162 1 53.6306982532 42.6886514093 4.3752953718
1163 1 59.7432243896 4.187660784 18.5359167824
1164 1 7.6789119044 19.6702955597 19.0122334224
1165 1 15.6422742442 48.2127932618 5.5315104304
1166 1 19.985624289 57.6955701155 38.6123512128
1167 1 10.3894970192 29.1720807651 45.1144319424
1168 1 43.8385400686 13.3323513636 34.2910415267
1169 1 59.6088831558 21.4643107856 50.0476822745
1170 1 6.9789672548 36.8249247714 47.5570634376
1171 1 53.742765897 33.1096666407 32.386299737
1172 1 52.3396463443 11.4011961282 31.6485308
1173 1 6.5043590341 13.4871586447 8.9007524224
1174 1 49.1759802586 38.1088631254 20.6833357487
1175 1 23.7005908805 46.3135324079 15.50874932
1176 1 41.5478004631 29.7862954164 19.1949701527
1177 1 4.6682164031 42.6481857772 34.0657983904
1178 1 5.1963570399 54.5829233785 34.2128507305
1179 1 6.154383794 8.8035591053 7.7903964699
1180 1 9.8422780614 59.1325082079 58.4505981694
1181 1 38.4817999878 50.9804325855 30.4401593901
1182 1 54.8194199254 54.0757035901 58.963473817
1183 1 41.5318241185 39.1148480673 43.5244941115
1184 1 18.2158651191 26.1788484581 37.1100500462
1185 1 7.7479483717 50.792389843 45.1494166387
1186 1 11.4682501294 44.105589917 35.3323610119
1187 1 19.379747657 44.7831851763 8.3204670958
1188 1 45.6687061473 30.3701899975 35.9342727116
1189 1 4.5426213434 4.5348664024 21.4643690934
1190 1 50.4880229852 39.8958231042 41.323840099
1191 1 38.3369050374 54.7263023255 44.479343089
1192 1 17.1428844838 59.9594881205 14.9338924521
1193 1 60.4702063785 60.8906058123 59.2118068529
1194 1 26.8342867431 51.9856595257 59.1919821916
1195 1 31.891091361 20.1484197424 24.6955556431
1196 1 48.9205919756 28.4936691962 21.8873923795
1197 1 47.4336257675 26.0164028516 23.8893916248
1198 1 31.0125090214 33.7095375665 51.2179786734
1199 1 58.0931128811 18.7167876622 52.6280368575
1200 1 22.0161360618 44.943531701 38.5539850779
1201 1 26.8786589996 40.3976785725 15.2855469576
1202 1 47.0045967753 30.6022551496 40.9304954971
1203 1 18.9744499504 38.840684664 27.4413295317
1204 1 35.2579019166 35.5885072966 43.784780252
1205 1 45.4231718872 37.0938404702 52.2479864401
1206 1 40.0859649285 36.6002647134 9.1137159303
1207 1 6.257267955 11.5832331646 6.7083897829
1208 1 23.7862450786 24.5705436617 58.3827861664
1209 1 37.4148250587 37.560478011 43.5981952051
1210 1 18.0713200156 33.2167198114 38.6329338758
1211 1 44.0019769081 36.2736825735 29.2218173417
1212 1 61.5249949718 36.9144855939 33.7361259357
1213 1 39.5121576015 42.0929203392 41.1191213179
1214 1 18.5154507351 3.7383348372 27.1078087603
1215 1 14.354370958 52.7100176624 44.0973685133
1216 1 7.9854594748 20.5584986908 57.9050701385
1217 1 56.8638089612 47.5796868745 12.2433360758
1218 1 11.793607805 18.828855306 10.3329384269
1219 1 21.7655290207 31.8999541507 50.2655786246
1220 1 28.1087792291 33.8818955036 27.0124754629
1221 1 23.4043288107 38.5122949814 20.9490445171
1222 1 9.2341274242 18.0744686383 51.3750016519
1223 1 54.8160963793 25.6089477555 4.5213214942
1224 1 16.4791081795 8.2909516737 45.276819241
1225 1 50.3476177374 35.3654798577 47.2896054344
1226 1 49.3085139497 15.6168520315 38.3366134982
1227 1 25.5251011 26.8458900007 53.54813437
1228 1 14.6688250698 10.4241901764 59.3045746059
1229 1 52.5464058994 55.8857534684 49.1787790343
1230 1 32.5551592045 33.2318798464 59.6841002528
1231 1 38.5430815142 5.2298257327 38.2308430998
1232 1 11.4114583058 12.4167435538 60.7597047404
1233 1 36.4547866846 60.1382016107 15.5064753147
1234 1 7.7562572371 47.4748494013 48.783510274
1235 1 29.6341702953 3.5671996153 32.8987672299
1236 1 59.5743066143 36.4100062734 55.0916008626
1237 1 48.9030413196 55.182561073 23.9621014853
1238 1 35.7596990771 57.642451685 51.0597312305
1239 1 57.9399382191 15.4818111038 8.8189931872
1240 1 8.5187137081 44.3521154102 38.361977403
1241 1 4.4842727008 24.899341499 55.6296071838
1242 1 16.9328596904 13.0015710601 17.5754702535
1243 1 50.6574072231 20.9451962005 14.6884748076
1244 1 36.623995999 21.6266397764 34.4694634778
1245 1 11.3317515061 17.0359479288 41.4703093609
1246 1 32.07359486 7.9526146758 42.7701657516
1247 1 16.0547438135 26.4913784116 16.9957155281
1248 1 23.663332179 53.4167668354 59.8966905906
1249 1 31.4087107069 55.146118681 40.3836263862
1250 1 3.919771886 9.6872958568 30.3464587118
1251 1 34.1581579886 50.3638856212 55.7839480022
1252 1 6.3007189478 47.1511243449 51.3186762909
1253 1 40.9075222132 37.7916102378 48.8278825304
1254 1 55.3762596748 54.7609954826 10.395327802
1255 1 30.8261572058 22.0635403253 35.4706088701
1256 1 39.4024805786 32.0523708109 12.9356832155
1257 1 30.2917076621 41.0910169452 40.3279424112
1258 1 16.1870442733 7.5230084361 10.9266870308
1259 1 5.9161613354 4.2869998292 17.9637420745
1260 1 34.0972263093 13.5050591476 36.0318217064
1261 1 48.4796098788 25.946433459 57.0173917779
1262 1 28.9004829062 34.3019450904 3.6104436153
1263 1 15.8353897677 38.0911375459 43.4204146401
1264 1 48.0712218574 25.1581699437 6.5418626286
1265 1 50.0589356852 44.1729354573 38.3759712816
1266 1 47.4094280192 34.4353533989 8.3224379003
1267 1 28.9596653508 32.3023364659 47.1478591066
1268 1 27.3450050012 41.2236089442 57.209632684
1269 1 47.5891910504 24.5361420436 34.3416527207
1270 1 3.4599277903 15.4980789876 48.9225744417
1271 1 26.2540072473 54.0559955445 61.1078607763
1272 1 23.8587800156 60.734865606 54.7514913068
1273 1 40.3269511782 28.6207802593 41.8157249289
1274 1 42.4160040095 27.0769639198 39.157121242
1275 1 40.73720505 61.4595152819 13.0510744054
1276 1 50.5325118573 61.5876175781 28.5217735688
1277 1 6.5900657093 59.871268378 20.104688872
1278 1 36.6727996504 34.3783866518 60.9865804958
1279 1 37.8495099102 36.5146105153 37.9209953063
1280 1 41.3281548783 33.7108786465 24.2060031263
1281 1 5.8471423604 42.0880807896 36.7670834069
1282 1 10.2027370489 18.2123666495 18.8924691455
1283 1 23.0000806451 57.1149407727 50.4031850967
1284 1 47.8007901551 30.8551361959 11.6726773714
1285 1 36.3000960192 26.6906745649 29.6399427702
1286 1 29.3031567605 40.4479982273 23.4196054614
1287 1 8.1590185532 33.0203390495 25.4395052098
1288 1 26.2408879862 28.1456880837 39.7413073622
1289 1 9.5548204735 17.19611953 29.3665373687
1290 1 60.316215407 5.827078637 46.1508535701
1291 1 7.0816939847 55.9740898266 57.6444924589
1292 1 50.145347885 22.593616782 51.6396608793
1293 1 12.0789663111 40.251792389 16.5752577865
1294 1 29.9401697722 47.5774711771 27.5079170703
1295 1 36.1717604916 55.8864531624 21.3925338504
1296 1 45.3109293199 33.7337936226 43.4552827207
1297 1 49.3825648902 11.2354852834 8.890029613
1298 1 56.5640484217 13.3105442362 51.9435029667
1299 1 46.5195339612 60.7283351293 20.2741314177
1300 1 27.1040770594 15.8788874068 18.9882105976
1301 1 8.2808410964 8.6523319248 57.8478118522
1302 1 13.9866817999 36.5931511585 52.335040026
1303 1 5.2849791064 44.8817254042 52.5290301669
1304 1 45.107493311 52.571186726 8.6242858599
1305 1 38.571827273 61.2675659149 36.4403263435
1306 1 14.8630484421 25.1140309186 37.6581436214
1307 1 19.955245911 13.9567115768 41.6108895321
1308 1 32.4064159374 13.2749764617 58.282380088
1309 1 14.6363476101 53.0546169209 12.395402889
1310 1 5.6920843556 59.9471851689 46.9990575317
1311 1 10.0765589109 28.5425894631 10.4683292016
1312 1 7.654475094 12.1480027784 51.7374431055
1313 1 18.0509122761 28.7834007893 33.5669166213
1314 1 15.1708554616 22.0873882266 39.370644505
1315 1 55.0907262452 18.5806388858 31.9204201981
1316 1 6.0005502536 24.0339367284 61.5077941628
1317 1 36.4886052244 16.9770570234 18.3868236684
1318 1 33.8635868458 21.468917104 33.8633536145
1319 1 14.4382759212 18.3362707822 18.4621573811
1320 1 47.5267433675 51.0701100237 54.3073605874
1321 1 49.9975375432 10.5729334435 17.9292821487
1322 1 9.5034512778 29.6439077024 39.4341417288
1323 1 48.6113855682 52.3173144465 23.6605917111
1324 1 30.0887381158 13.0139323195 24.2555064715
1325 1 18.0307377679 39.749820305 17.2160608069
1326 1 30.2240705826 23.9953952546 12.0528444045
1327 1 27.4417959943 35.5425024209 24.6636029538
1328 1 58.5641235088 26.1819387729 26.2774469938
1329 1 11.0995697383 44.1899613429 40.7783120682
1330 1 38.2206975378 53.8057966582 20.929511395
1331 1 31.3478373354 28.7087084627 42.8427006886
1332 1 13.7319932109 10.8107127626 28.4566437259
1333 1 33.5475001148 12.1070706837 50.9188012122
1334 1 37.5452013602 54.1251486275 9.1260188818
1335 1 19.5733296432 20.2817114353 51.9767384281
1336 1 49.2566199835 14.7639834437 41.0292689563
1337 1 49.3647226951 9.2633979534 12.9765570023
1338 1 10.4602244136 33.2024927016 48.373956096
1339 1 14.7886476546 21.0528324494 8.7743410531
1340 1 51.3400752634 11.1759529919 54.6313771829
1341 1 25.2912284053 4.2678223848 53.1360729555
1342 1 13.5811508621 27.3061719883 46.6847200355
1343 1 54.4356961149 26.3152887736 22.5437052819
1344 1 29.8520666454 58.5339200544 59.6110405454
1345 1 35.7494368995 5.6803294977 29.2068322301
1346 1 61.651756188 36.8498222136 23.8774385203
1347 1 58.3225541809 6.824393205 35.0513755928
1348 1 5.4105741661 22.4301799424 35.1288666951
1349 1 41.4301935758 39.0581145514 8.1192292919
1350 1 37.4617045518 60.0881151872 11.5507557049
1351 1 41.1265847198 17.8349400843 22.6698834199
1352 1 52.5569596162 58.9045246038 36.8694136435
1353 1 48.1187427366 38.6130509068 39.8814210709
1354 1 3.4871318901 48.3138990341 53.6375785768
1355 1 41.475673681 29.9983026759 22.0370685718
1356 1 10.1839036207 40.2583811734 40.9184257768
1357 1 18.2496253511 29.5925968145 40.9804653049
1358 1 39.5555969327 51.9111421226 33.8762979522
1359 1 40.9618068002 34.5805398885 57.7690962856
1360 1 14.5366412257 25.3302363417 34.0464984996
1361 1 12.408580458 58.8760703841 44.0486814777
1362 1 56.0487238453 5.0750476055 38.0271738595
1363 1 20.3415352659 36.8859147586 7.6661599826
1364 1 43.7608740428 8.4133223105 48.0933788318
1365 1 41.1394124418 60.1916115804 36.8436415839
1366 1 9.3089946742 24.6787629889 9.1807174545
1367 1 4.0960300337 27.8398635303 44.4437753145
1368 1 42.7552389479 27.0111343829 43.9997612107
1369 1 52.5837229088 8.8549108087 32.9035484717
1370 1 7.280103859 30.8280813641 48.9032162431
1371 1 41.8482606965 53.358867163 43.7552181836
1372 1 40.4937698717 43.1931890376 26.4668308164
1373 1 18.5985976966 27.114339237 50.9656223974
1374 1 59.6519143322 59.4968738198 34.7608276901
1375 1 23.8107926738 17.5371037032 13.8596873524
1376 1 12.4611158102 46.9436067881 20.5591400769
1377 1 51.4113274282 28.9253803484 47.0532255031
1378 1 39.3216076224 28.9913848087 30.7735052379
1379 1 6.0474589006 20.1694105602 21.1122481253
1380 1 61.6336224538 50.5032413281 14.7081245453
1381 1 28.1009659803 31.7662543031 29.1524310274
1382 1 59.0111696196 50.7052196414 52.1259481578
1383 1 24.7083833651 19.3129268871 43.5588374217
1384 1 49.4973730018 5.3366923183 39.1505324575
1385 1 34.9264219192 27.2687966711 51.1249193812
1386 1 26.3788443052 6.3256047284 9.6277635653
1387 1 29.2759270053 40.8632082645 20.7555791466
1388 1 23.6733028174 59.6136060898 32.9471044186
1389 1 53.1086682767 48.5404832504 42.8865481746
1390 1 23.058796627 61.6484909497 36.5404408827
1391 1 21.8043620336 59.3471976275 12.06584705
1392 1 59.3583927303 28.7129649341 25.6669640435
1393 1 24.9695441229 23.6447902899 31.6443909443
1394 1 50.2059880253 17.7357584704 23.4513832272
1395 1 30.4243579689 60.2000079075 25.044061526
1396 1 59.218512253 51.1343069414 16.3396358569
1397 1 51.9291592412 6.4683714432 43.4093361529
1398 1 12.4011753639 46.7646600666 54.6012320362
1399 1 57.6371456727 60.4759788534 55.1266438667
1400 1 42.4043424441 48.9100382589 13.680682323
1401 1 52.2815717485 25.6911617918 53.4731505042
1402 1 61.4603315915 61.5423707043 46.2123683277
1403 1 8.2737975109 45.7823481025 15.5458330981
1404 1 41.4816210793 21.0152822087 12.5584315738
1405 1 39.7219491636 48.5884122843 24.9054638208
1406 1 10.7182948566 45.9970958299 23.6178520738
1407 1 36.3572959976 7.6291111892 54.2927836306
1408 1 18.2649603096 30.3110075529 48.8482902699
1409 1 35.4854190582 41.0718919779 20.0627072365
1410 1 37.1345976414 26.9542842514 26.8864722484
1411 1 37.061188087 32.5391828598 26.1654376578
1412 1 52.2763240441 17.9780858 45.6390274633
1413 1 41.0621545708 43.8053629149 54.5632153329
1414 1 25.1788109145 48.92181644 23.7672367269
1415 1 22.1971235573 31.4904582806 29.7210489578
1416 1 52.0885145328 30.8164781065 32.9267549869
1417 1 7.5972517924 11.5160042399 38.4017433412
1418 1 30.991051741 61.4080294705 21.10863304
1419 1 52.8118231287 10.3749783703 21.8068692702
1420 1 26.200130815 26.8240828734 33.3086712548
1421 1 28.5445719293 5.9478807933 24.7811515333
1422 1 29.6410506189 37.0566983843 4.2996584584
1423 1 4.8323354442 55.1042536611 39.6989175719
1424 1 13.6964837442 10.9354915127 38.7076262024
1425 1 45.2058003076 34.3450928825 31.2138459486
1426 1 54.5051407371 42.3719816 20.1420641892
1427 1 45.1884828829 28.1953080446 5.4529581257
1428 1 29.2636823616 53.6382782708 56.6617723401
1429 1 24.3259423267 33.0844776594 14.5545417286
1430 1 31.6288810623 10.0097964488 46.2252543575
1431 1 59.8737756146 26.6058366763 30.906388776
1432 1 43.1554638735 51.9556893025 19.2013840137
1433 1 3.8651345366 4.0114486996 48.9975583075
1434 1 4.036206203 24.7372457395 17.278450182
1435 1 44.5233071907 56.7530823974 33.3634223045
1436 1 48.3105754879 42.0175283187 45.0537918022
1437 1 22.3489571392 49.9886164456 28.356412571
1438 1 56.8497567748 20.9170335199 49.4222725205
1439 1 34.1068471007 3.9799099959 34.2813624274
1440 1 14.4246901975 6.3797260536 14.9856698026
1441 1 43.4771481559 50.1996907799 40.2280027955
1442 1 11.0795701536 12.1026975967 38.0731787351
1443 1 34.401593167 22.1205070724 54.3704496563
1444 1 18.4669386229 49.4462370374 7.8389085821
1445 1 13.5301898211 43.7523027922 31.2789757915
1446 1 47.7795077982 26.8935858034 14.0929769688
1447 1 26.2558147899 50.9755347281 11.4263268017
1448 1 44.0178366371 53.6058591189 13.2500207116
1449 1 29.5240268098 36.3461008948 51.5183805989
1450 1 56.7700499751 56.2484281534 52.453463223
1451 1 40.6534167024 16.3107151747 3.9736652276
1452 1 3.5759743602 10.7880893257 24.0692129638
1453 1 18.3378450936 20.6564558404 40.2889927827
1454 1 45.7689373022 17.3578071347 56.7359398962
1455 1 60.2993061371 44.6342669858 46.3299169073
1456 1 43.4042633719 14.9419389322 44.2775980071
1457 1 16.865863997 51.8871192978 24.253990468
1458 1 38.7539226172 16.0224412772 31.8195476571
1459 1 11.0340900484 38.2736410449 11.7896428727
1460 1 54.3687004215 9.6371511255 15.8194134231
1461 1 24.1196492343 30.9997979151 24.0461813721
1462 1 6.9212891522 48.6132514187 21.3422725034
1463 1 28.5262049637 8.2068134791 48.408707561
1464 1 48.6917920619 29.7359174537 46.2742912402
1465 1 12.0226992579 21.7203404547 9.366427884
1466 1 50.7965296987 35.3998814757 32.0090480953
1467 1 18.6958551523 55.9824861537 34.8823995097
1468 1 21.4339324077 3.8621847436 40.0486479192
1469 1 31.295010444 47.7740268624 16.8495378054
1470 1 29.5709646107 17.1239927478 33.4008559295
1471 1 44.6958983591 15.4008798397 60.4181374889
1472 1 60.1576181172 47.8672610781 60.253126338
1473 1 20.6728986476 28.0308216642 23.8233871645
1474 1 59.6785610092 27.2224419485 13.9427760061
1475 1 32.0729534739 41.5868083995 34.0384520195
1476 1 39.0814959901 26.9546340984 54.8240845516
1477 1 53.770753654 42.9881204095 15.4233283532
1478 1 5.5752587931 46.5839058024 45.8744161615
1479 1 6.1381683873 53.9718573499 53.0087869688
1480 1 4.7552058504 50.1271558429 17.9020523934
1481 1 47.4569488984 9.5918459438 7.5755379576
1482 1 37.5865999175 45.1497664857 20.151918212
1483 1 40.3758714452 57.2947621117 58.5234829533
1484 1 33.2817330387 29.0037460681 52.6044804953
1485 1 10.7839494699 34.5141272734 18.9041307109
1486 1 21.6147449797 31.4762311708 26.8623911158
1487 1 40.048706227 7.4471965992 28.0451070818
1488 1 35.1447264241 10.8421406814 13.0608701204
1489 1 33.821022132 28.4641071278 28.6211884141
1490 1 44.5177679471 51.0083037269 21.8536321475
1491 1 3.6625247496 9.5338296557 16.4973585294
1492 1 42.5467884658 38.3718897337 59.9997205212
1493 1 35.0705005601 4.8549238964 47.9200296616
1494 1 25.6016009693 18.174408254 51.4210648353
1495 1 14.1803804017 43.5160394766 12.7448416972
1496 1 24.8536864703 35.4755650354 48.8496896578
1497 1 6.8395240862 37.6941778586 42.4474902362
1498 1 6.2960193369 54.4034518865 27.3010992073
1499 1 59.042072768 4.689901084 33.014449959
1500 1 56.8932544139 16.966386691 48.8952863786
1501 1 35.6008685559 14.1733251546 60.015988405
1502 1 50.0315893142 43.9088593081 12.7507890955
1503 1 6.7371472033 58.8936210401 9.4365722
1504 1 20.1017734807 53.1299506336 23.9665328802
1505 1 52.8650581748 16.6919317486 38.7230194688
1506 1 27.85140848 29.4232708845 41.6656988897
1507 1 55.7445319111 33.1543887442 53.7929689362
1508 1 6.5022657831 24.5220898573 7.9463757383
1509 1 54.1887624669 11.902235287 46.7934641332
1510 1 38.1650718707 9.3652034196 35.6883886045
1511 1 16.6765967901 16.7580528246 46.1317869106
1512 1 38.0957438642 30.9777575564 8.1835894715
1513 1 51.9211710689 27.439172142 13.913797016
1514 1 13.0841349434 12.7188947141 31.93056576
1515 1 24.7350883499 3.9505811588 27.8833028615
1516 1 58.1466977742 50.8506393623 10.6040115153
1517 1 41.5812108481 47.1023790014 42.4546620989
1518 1 39.7428233657 17.7769821042 16.5671529985
1519 1 37.9618690931 38.6455866743 9.8986617302
1520 1 50.7243446087 22.0917613136 20.9603562355
1521 1 39.8572233226 34.0164116608 55.0860033112
1522 1 5.6290885792 16.256955358 22.9121524417
1523 1 9.0903344916 10.2067019811 33.2911789067
1524 1 55.8147928428 50.2309437753 14.4402000795
1525 1 45.6813589458 34.0563525224 15.8628527543
1526 1 39.4859190793 47.6091323272 14.1950739742
1527 1 46.5518364974 17.3772236412 19.6410833383
1528 1 60.3112592417 29.4974967485 43.0939491158
1529 1 41.075565371 57.0437469158 28.7679492151
1530 1 28.1753667677 41.2609259535 27.1726470641
1531 1 32.1756335575 61.2534554207 16.2292008323
1532 1 8.8781114931 15.9417432444 42.3741972974
1533 1 37.1846840649 33.2988755398 11.5634668112
1534 1 28.9215320318 51.2280659275 5.6454789094
1535 1 15.0655515258 61.5463356365 21.9440092796
1536 1 18.1064796354 13.2324700557 43.7289796614
1537 1 47.3641811454 32.534051771 17.7485861923
1538 1 8.5254657545 59.5829361727 31.8429290958
1539 1 55.6831920769 22.3127479786 18.2370891682
1540 1 36.3408531904 38.4137547536 19.6849891322
1541 1 39.7423569031 20.2290594673 3.5602015099
1542 1 17.5779774901 46.1382007716 5.2008117579
1543 1 60.9648316763 39.688072316 34.2098187235
1544 1 30.5158429497 15.393707977 58.4445341553
1545 1 43.2048506031 60.6016322209 39.0367155789
1546 1 41.5928724135 13.2030829108 48.0290652984
1547 1 21.2963842434 17.0974043787 47.3612074462
1548 1 43.0775063086 24.3568454751 32.5710772413
1549 1 22.336887419 56.5831150812 13.1160876327
1550 1 20.5329015546 24.2053617402 9.273660131
1551 1 25.7716849011 20.8167440572 31.9697486198
1552 1 35.935147329 41.498588657 60.5211674195
1553 1 11.2643476579 40.6167410791 53.3072064282
1554 1 49.44268026 6.8310636205 9.5618174128
1555 1 20.8110298902 6.7204886571 28.7618268932
1556 1 17.0721570895 31.3191498844 18.1045554771
1557 1 45.7995489115 61.0656459094 6.0059320661
1558 1 59.2849831759 40.7477587668 9.1358320891
1559 1 14.5983892146 26.8490969312 52.1064150357
1560 1 47.6853989652 42.8719712178 11.3360662853
1561 1 27.3532847126 60.0742962321 43.6276989656
1562 1 5.7738727448 44.9449893967 32.4730617838
1563 1 45.4318014456 29.8893253469 59.4438136971
1564 1 55.3685630416 16.1576571284 17.3803722638
1565 1 55.7884960128 51.1827024379 21.3847789094
1566 1 8.6204025587 36.6734993443 35.0751068785
1567 1 7.8484244195 34.9895109882 52.9841810657
1568 1 46.1190174965 51.8655454017 19.6595669195
1569 1 9.9110229896 5.2913579827 35.6027927142
1570 1 15.4480508719 15.4604704391 38.9554927757
1571 1 37.6064828866 19.7981646247 59.9208883389
1572 1 30.5083795478 7.4777557315 46.5181928812
1573 1 24.5581240945 23.995920025 60.9380683836
1574 1 39.0428379007 44.2701346052 60.0573869623
1575 1 53.5306420218 5.8531480666 48.2245714429
1576 1 61.1982379084 52.7933978553 51.525085999
1577 1 43.9215704145 11.9009525148 51.5285261608
1578 1 40.752073546 37.7121366694 35.1053686408
1579 1 17.1919213665 20.704151643 50.3701828665
1580 1 35.1647260088 57.0664286605 6.4124950525
1581 1 53.7326786429 39.7668461905 56.7898163285
1582 1 38.8592848608 48.1611908347 5.9277004544
1583 1 32.742560561 60.9832569497 44.9392752296
1584 1 5.6875013604 35.9375379499 24.8781174499
1585 1 11.4931475716 43.1263682677 23.189347852
1586 1 52.9929855476 24.0183102307 12.0568676446
1587 1 11.0371803633 9.7776146811 60.5314879049
1588 1 43.701458367 3.4407054489 57.5661267392
1589 1 40.2563987073 60.0833922532 57.8714265222
1590 1 49.6453582672 34.9637972364 56.9618244186
1591 1 14.2888329602 16.8858635817 26.3949955734
1592 1 19.2781754221 16.4645895305 9.3038052776
1593 1 47.5388713955 21.7592317754 51.2322057832
1594 1 39.3973494898 4.3190866265 44.7855757973
1595 1 21.9801601325 19.9855076733 46.7571383569
1596 1 47.104886238 26.7137061566 36.138233491
1597 1 30.4853479561 39.2081988985 34.7233357572
1598 1 60.8791774782 10.5624380346 51.1418286511
1599 1 49.6020355516 53.6814843707 58.8275582719
1600 1 22.1581739288 19.9024190196 5.0129847543
1601 1 31.916746805 43.2663653607 56.9038664384
1602 1 43.957837883 10.3567863282 24.8256987133
1603 1 33.7137357301 31.7526102715 38.6592307059
1604 1 32.3675246167 47.132873995 49.7826732001
1605 1 40.6040882806 3.9275367394 51.4329596321
1606 1 19.1830170482 11.9796680814 12.4870627933
1607 1 28.0764766929 26.8869970189 15.6104381705
1608 1 40.0868395459 25.1494237697 49.2635003071
1609 1 13.2198172572 9.1667527299 42.7632271202
1610 1 60.8816847148 52.2149842099 7.5133584907
1611 1 22.0166608323 23.98210107 31.6449740226
1612 1 53.856116313 55.5692585827 41.2899632515
1613 1 59.4078377678 59.8510938698 3.438672838
1614 1 40.0280069483 58.8450506201 12.1723754502
1615 1 15.8213958892 7.5163088668 21.1892144571
1616 1 25.7010158145 39.5148980694 48.2400813249
1617 1 27.2068154508 53.9373974241 36.3629518568
1618 1 28.0186353283 41.2190609336 46.9595248249
1619 1 21.7871612246 11.2300043477 40.4677645808
1620 1 35.8349161741 33.2584682156 39.9523816965
1621 1 23.4799540626 7.3050945937 17.7466037262
1622 1 30.8430664757 4.9889036217 6.0411266705
1623 1 55.8628968002 44.9616654353 8.3095518705
1624 1 20.1289449281 14.2020709134 11.0159563142
1625 1 25.6099389885 38.917942535 17.4704578568
1626 1 30.2349158385 59.2205530269 19.6625406187
1627 1 49.0603558373 29.6405841563 28.863457436
1628 1 24.4973090308 42.7580960314 30.1932840499
1629 1 36.8978678632 41.705056673 50.2356667093
1630 1 20.4074231106 20.0111048094 32.320878355
1631 1 13.481327862 35.9285002367 49.4995886993
1632 1 61.150483798 36.5194500649 3.6213495113
1633 1 8.419293032 56.7502253139 8.32131839
1634 1 28.4776345437 11.731859816 41.3279216469
1635 1 6.3199663615 33.1855251239 54.7492173015
1636 1 8.2250405058 58.8442926183 44.2442459299
1637 1 50.9346609412 4.8938385403 54.7074688973
1638 1 41.5998693528 56.3753642931 47.6568864377
1639 1 3.8047684432 58.4759037663 59.5126169332
1640 1 40.5555178606 31.2281313662 55.4882107029
1641 1 53.1199216873 20.9987227858 21.7051221118
1642 1 14.0390422287 36.6211389155 61.1743900071
1643 1 44.24692809 5.2733408641 49.3925355286
1644 1 55.1378389695 41.176088065 31.9695736964
1645 1 52.0840831379 57.4412313735 9.1362985518
1646 1 4.5871976773 30.4367775361 47.9522155822
1647 1 31.5021781539 42.2211392511 23.1280080178
1648 1 32.1626892199 22.1167753715 12.9334092102
1649 1 53.6996181049 15.9325889156 25.4845771601
1650 1 48.8007693908 6.533075639 28.6586220392
1651 1 25.3465042254 7.3228318347 50.9941932327
1652 1 60.2626888217 54.674524975 19.0528156701
1653 1 18.2937643762 57.4201822479 30.7002122992
1654 1 21.9571285407 40.7790700699 21.7070462701
1655 1 20.315879822 22.1940332425 46.2405893161
1656 1 36.6936155446 56.559908566 58.6174168628
1657 1 39.1883159295 58.7049952192 29.8787716302
1658 1 31.6037503888 18.310382107 28.086563947
1659 1 6.1156673968 56.3992705022 18.3504395842
1660 1 25.5498236187 21.2853057563 3.4699701473
1661 1 28.7322648249 35.4738158006 59.3044579902
1662 1 5.9995240359 7.0257301322 43.1106834622
1663 1 4.050375005 16.8445816401 30.8212010405
1664 1 35.6429084993 20.8428659638 12.0765756901
1665 1 58.1633738128 51.4555247612 38.1426233573
1666 1 58.2577158771 17.4530821243 11.8696995194
1667 1 32.19166821 37.6955189387 5.4807651284
1668 1 36.9405491926 43.5016374433 41.549549698
1669 1 33.2826076561 51.0789145056 60.85900297
1670 1 45.1057440762 60.8818596382 55.2183620788
1671 1 28.2774054652 21.9089079677 60.5402923868
1672 1 33.6040003993 42.4345458985 40.9043152827
1673 1 41.4015061248 36.5714606468 26.580647695
1674 1 28.5480703989 51.2568699941 13.0928228096
1675 1 23.5313815661 56.9394925208 29.7664707551
1676 1 25.0687840447 48.905606864 13.1763779259
1677 1 46.4208188098 61.077599014 48.1710448575
1678 1 29.0903914993 44.8365368382 27.5581201094
1679 1 32.109337558 57.572948755 18.078958341
1680 1 44.6924581973 4.8262889225 46.6726503153
1681 1 40.3526649299 50.3635357742 4.2522483642
1682 1 53.6185702252 44.5138030149 53.9024710356
1683 1 52.7676257957 35.5716563345 52.8121146678
1684 1 16.2901908195 10.7504807772 35.0980801624
1685 1 41.8142089254 37.7592493937 14.317928566
1686 1 14.6099341644 33.1860498943 15.8308417572
1687 1 59.5306340518 36.9668460227 7.5104839148
1688 1 17.7093450247 17.2045158571 35.6667564006
1689 1 40.6897424787 24.0895040876 38.6135756772
1690 1 45.4687103002 52.2585984646 34.6730744102
1691 1 17.7102779499 37.3078301959 15.9070500873
1692 1 12.1320847416 24.2140496064 19.0939809961
1693 1 45.4263205099 20.196115545 21.8718241896
1694 1 29.656210654 21.3500274444 57.2201280929
1695 1 37.503103109 34.159032606 56.9017090488
1696 1 37.6864229176 45.7864879582 24.4627324893
1697 1 22.9248052402 34.3199039012 44.0764360034
1698 1 34.2270195325 14.0480216341 54.0161712985
1699 1 20.0990330128 46.7710156197 26.8422166076
1700 1 46.3605868244 57.1184392423 39.460030404
1701 1 23.6415833594 4.2354673715 17.1854491977
1702 1 12.4472385474 46.5024497678 36.6673770224
1703 1 42.9573921846 32.2618708339 22.1954909381
1704 1 53.8190908428 15.4455436354 45.3504037189
1705 1 24.894268718 30.7514065714 55.5263440219
1706 1 45.936339074 59.5059698409 27.2623828101
1707 1 13.265413978 10.3746285233 20.9705017974
1708 1 4.2491580493 58.8533303315 27.3138103137
1709 1 18.3472909616 60.092896429 29.2309716705
1710 1 55.3661141128 18.0433322586 19.4255193013
1711 1 45.0074370796 50.9729108758 10.944179379
1712 1 12.8431486938 17.2043992415 52.6951491665
1713 1 31.722406817 21.7140432093 55.1324746494
1714 1 43.7071142262 47.3263393655 7.7078442482
1715 1 44.2113020076 36.787607762 61.486453498
1716 1 35.7764334235 48.6777398755 10.7815005412
1717 1 24.1039644288 25.5906974056 38.0159204489
1718 1 29.5066510773 12.0558764115 49.0146425008
1719 1 17.8849098922 22.819967767 33.0104850267
1720 1 20.8243823826 22.774079507 35.3523605966
1721 1 11.9393773729 13.1227930328 41.7631312688
1722 1 34.6858438244 48.9908529073 35.367753863
1723 1 19.574729031 55.0058300488 7.5450487948
1724 1 43.3963335075 10.972167136 17.1186284277
1725 1 45.3742516202 20.9463040492 4.7215797265
1726 1 13.6247068089 32.8496720394 32.1817558794
1727 1 13.103842989 36.7663837129 10.5574818693
1728 1 22.3771781276 8.9151311326 42.1992155081
1729 1 44.6103024688 4.6045267635 38.2640202534
1730 1 5.9941947004 22.8632321747 52.7400461934
1731 1 5.1166094247 61.3956099033 33.3770080282
1732 1 61.4178834933 32.6881010504 34.7008872438
1733 1 15.2720195417 51.4747663442 58.2527597118
1734 1 18.0165689659 47.3102464052 43.6014021356
1735 1 27.2539281752 50.9195009062 28.7205449516
1736 1 53.5772299757 33.0791133393 19.1601020721
1737 1 36.5492453646 46.4246088186 13.6644727471
1738 1 5.5207001593 12.7317807439 53.4452793629
1739 1 49.6960860768 51.0311603952 13.136203833
1740 1 14.3652745216 13.2050070691 21.5486239037
1741 1 31.6589679011 51.0383905657 30.4609752844
1742 1 34.0522126667 56.7288263413 59.8252051945
1743 1 47.8423636359 57.2747625269 49.5283344581
1744 1 34.2450949589 56.5924443336 37.3894028461
1745 1 46.4351042275 14.3515721823 29.5822180213
1746 1 57.5896831014 11.4506411656 43.8104356959
1747 1 38.9634226401 44.688843112 38.4803422922
1748 1 7.6300790991 18.4537027461 41.3489124647
1749 1 54.2943579419 24.5674533468 19.0850598986
1750 1 40.4135383015 54.0843914563 17.4200798941
1751 1 19.9786856575 16.1906593586 56.8867239372
1752 1 53.0744415822 15.5952198277 5.5843897989
1753 1 6.8195186707 17.8540067438 7.7304210389
1754 1 49.9811530437 45.7245650458 27.1909557218
1755 1 7.2279649999 8.6605708208 55.1716575093
1756 1 5.0864526165 6.0902859996 8.5011688829
1757 1 40.885306931 54.1972754097 4.4017612946
1758 1 32.1503279605 35.6017431733 25.1109406037
1759 1 24.0108468288 12.666301054 26.5695692079
1760 1 47.1842431908 16.7535631219 11.5243422592
1761 1 25.7816555395 50.3290758484 19.9271998462
1762 1 14.5029976094 51.81889914 14.9979144463
1763 1 16.6340903841 47.4182325011 19.1568951416
1764 1 48.0466742622 28.9498696358 16.0901366646
1765 1 18.0187846634 48.8436256438 26.7640841192
1766 1 9.7625712617 56.066391117 48.210344333
1767 1 53.4080789691 31.3585076678 42.1123368457
1768 1 48.5287633771 29.2417586186 39.0095441314
1769 1 35.3038484844 31.8278273685 14.7180368759
1770 1 6.0142001159 21.1760368882 17.212329106
1771 1 52.2123603577 36.9085965034 5.1728123393
1772 1 10.0417491381 30.6793964049 49.8446544204
1773 1 56.7388552876 44.1174264059 59.8915595018
1774 1 9.2051484341 45.4215975759 60.6241390422
1775 1 10.7531046294 52.8207442262 49.3833811998
1776 1 55.2837834609 23.0455024424 29.147474862
1777 1 37.8208224592 15.708103781 3.9712979298
1778 1 20.2031707921 50.5192176727 9.8409369814
1779 1 14.0108212404 47.779566106 56.8752956031
1780 1 28.9427560809 32.2904416692 44.2434296204
1781 1 58.5562519522 30.6898918138 55.9544983967
1782 1 56.6580989469 22.9772822846 33.6336790834
1783 1 18.5563828297 38.8648824123 43.2509720944
1784 1 3.4689520927 24.4231414746 34.8231004495
1785 1 49.4605807629 11.9874230224 32.3135898766
1786 1 42.9385587565 16.4235991281 46.5276387492
1787 1 28.1636468945 39.2220178536 40.5444976813
1788 1 6.0546599172 45.6494062566 23.9874070823
1789 1 21.0424536562 57.7028585939 31.1753627827
1790 1 48.6414140992 52.4837249852 42.887772639
1791 1 11.0493083913 4.6342812477 22.1213816898
1792 1 14.918732417 35.3928845365 13.9546708028
1793 1 41.8767149161 6.992809533 54.3504500716
1794 1 5.1400200173 28.8649151316 33.0152662686
1795 1 44.7102420846 17.0883083576 42.6824707796
1796 1 42.9470133914 33.7960080742 8.3300762257
1797 1 29.3263632758 53.3132704422 7.6426852513
1798 1 7.3279570927 4.4404951842 20.4907449956
1799 1 48.1480715736 13.0290340467 17.8064275569
1800 1 28.8715622239 25.8961138042 55.9553147062
1801 1 27.4909494926 29.6787174753 25.3595651787
1802 1 8.1369956868 24.3947455628 42.4138466199
1803 1 60.9191183398 20.9781984306 11.6777501524
1804 1 28.9334851364 36.9698197219 22.4947267071
1805 1 19.294734845 5.4393024325 12.6718986054
1806 1 58.4602189608 35.3583663028 16.9413726332
1807 1 48.7114417996 60.3027462989 16.8473804158
1808 1 50.768425326 8.9665236514 8.4299225489
1809 1 20.288883298 52.4275162399 59.7909785
1810 1 42.3660342016 36.8941944701 55.3115962945
1811 1 27.8805623936 29.3319608272 37.6174447581
1812 1 52.7420869674 30.7602693612 10.6816192333
1813 1 35.9631933939 45.461013667 6.3873060711
1814 1 34.1554175208 30.9512858029 44.5595163514
1815 1 50.4880229852 24.1713099691 3.8926377556
1816 1 55.0255380944 4.9842389955 44.7436524695
1817 1 51.3502208254 3.787708156 3.6179175126
1818 1 34.282178737 38.6464612917 17.719024124
1819 1 48.8319640783 11.6025330554 20.3815344353
1820 1 17.5085911758 43.0732498372 48.480892651
1821 1 19.4434781121 19.6035914054 13.4031953736
1822 1 33.0008642353 26.3125483058 26.8491552391
1823 1 29.3859538751 51.2001947861 33.7669707762
1824 1 49.8886768299 37.2218261508 45.3331446021
1825 1 17.6273059118 17.2208420487 38.5534019996
1826 1 49.5006382402 6.3103863855 33.8957727664
1827 1 34.7441516515 52.9167772175 29.4492178676
1828 1 42.2053961378 51.3367517173 57.5790710769
1829 1 49.4033807845 60.6585989681 42.7424112259
1830 1 45.7747680849 14.6488254851 39.3129197561
1831 1 38.2915415478 8.758592109 12.7437921563
1832 1 18.8333450087 16.6609119846 59.5520913321
1833 1 58.1816824705 24.2648357239 10.1843700833
1834 1 25.4338493505 10.730306269 16.4455228711
1835 1 38.4866395375 55.773569209 18.5861781294
1836 1 52.0169708289 61.6118153264 52.6374827255
1837 1 16.5805054909 15.5260084368 52.2615721638
1838 1 47.5105337915 19.6292468494 16.7689563883
1839 1 59.4474870902 49.4137595777 32.3756877125
1840 1 17.467017695 36.0124635078 49.7697871703
1841 1 38.2346914164 8.343189656 6.571395543
1842 1 7.1284918468 50.9137284313 50.6799723522
1843 1 47.3287882943 56.4258005636 16.5665116124
1844 1 25.6962928806 45.3351270682 30.2175984138
1845 1 58.9298885086 43.9198211796 11.3411390662
1846 1 39.0163078394 44.3301333593 52.6280368575
1847 1 50.7486006648 47.0907757438 43.5833267091
1848 1 26.4035668239 55.913216455 57.6232684098
1849 1 27.992105267 53.8102863609 41.3253561026
1850 1 25.7234060202 16.9199736606 9.920993628
1851 1 33.9123904972 50.286686058 9.3628127987
1852 1 58.8613185038 54.959242095 8.5227835944
1853 1 60.8394698479 60.1972091318 51.5635108571
1854 1 27.434799055 13.6814403248 11.991271339
1855 1 59.1723324539 41.8006232017 54.1944183262
1856 1 22.1841209119 36.0061662625 13.9309395172
1857 1 54.0744208179 40.1343604251 10.2887994017
1858 1 44.3237194984 44.6559574975 23.1190286125
1859 1 48.009298945 20.2845685188 5.3087103921
1860 1 56.9958761897 39.7083051321 22.4679634144
1861 1 13.7066876139 24.2925319418 60.4940542798
1862 1 16.1378324672 9.4015875037 40.6486937684
1863 1 61.1405714673 17.4367559327 50.8267331532
1864 1 23.6625158694 42.6926746493 33.8421295654
1865 1 45.9708573077 15.0478259463 18.1587817564
1866 1 41.7334525848 54.6821633003 58.3027295197
1867 1 15.4458351745 56.0406773652 43.5952215059
1868 1 15.6040243096 60.9475725594 43.2446165412
1869 1 16.1404563194 36.9923265432 29.4633866696
1870 1 11.1743786806 19.2387593309 60.8748043912
1871 1 28.7530807192 9.3735414389 52.4948617802
1872 1 4.7243668407 23.2142452942 48.9181430469
1873 1 38.0777850535 23.252087074 22.8302299446
1874 1 54.2169834553 54.8104988279 29.2778511636
1875 1 25.5267337192 13.3844785611 6.829116139
1876 1 40.6466529945 59.2483658605 22.3575866976
1877 1 48.5117957994 11.4666758181 23.3557583907
1878 1 16.2470430274 23.0112757479 30.5478539468
1879 1 24.1896769347 39.6325632646 7.9568245009
1880 1 45.6815921771 6.2600492384 52.7178309113
1881 1 7.6826552669 46.6092113994 12.1903342609
1882 1 4.7997471996 15.0389631566 5.4606197742
1883 1 31.9172715754 61.1650607547 28.0395095304
1884 1 48.7163979649 13.1219184154 12.2386131418
1885 1 23.1632842533 61.4677366855 6.4764354157
1886 1 56.7833441597 29.086426567 6.3254064818
1887 1 4.446267659 39.2595680943 59.4921508858
1888 1 26.7183707828 31.5730221639 38.8970683328
1889 1 57.8054220619 57.1513248569 12.5545832572
1890 1 19.126050301 46.3716070037 18.9845372045
1891 1 41.6911211023 55.270256045 52.462209397
1892 1 56.8898142521 53.978912597 29.0843857931
1893 1 18.9540422109 49.3913110642 22.5727425798
1894 1 35.58465898 34.8463069647 9.6051984362
1895 1 9.1308584315 46.4836163397 56.5905201753
1896 1 53.7227663123 47.4276783691 40.3194877763
1897 1 14.3747203896 20.464623089 50.6723923347
1898 1 22.546037595 21.8313002497 33.4101851819
1899 1 27.8572392628 48.0773441793 29.4662437531
1900 1 26.9703772117 54.6179080748 6.7437418185
1901 1 59.2840502507 19.5783441163 58.93682714
1902 1 32.4023343895 25.1405026721 23.0894082363
1903 1 43.0332506678 36.6382231088 8.7277822531
1904 1 8.3928562632 12.1911505705 18.7783024199
1905 1 54.7894497023 20.8122543545 27.4640695842
1906 1 34.4587348376 60.1970342083 12.2431611523
1907 1 15.6711366186 11.5045175979 3.6284630662
1908 1 43.2189027894 27.1469333123 29.8787716302
1909 1 15.6618656741 24.1757996718 55.1636110291
1910 1 52.9798079787 51.5282929295 20.3923796912
1911 1 5.0075388032 5.9587085568 33.6524542037
1912 1 9.920993628 46.2664196835 17.9489901943
1913 1 34.5931343792 38.4736951999 49.531716312
1914 1 25.1955452609 43.1163976293 12.5821628594
1915 1 8.3570610881 19.6305879294 37.0633454766
1916 1 52.0183119089 9.3908588635 14.3800264019
1917 1 36.9161182131 16.0482716447 25.7244555611
1918 1 56.9475973088 26.5235643322 38.113352828
1919 1 52.7158484452 12.2447354637 34.2924992224
1920 1 56.8288825727 41.1227364032 26.3905058707
1921 1 55.5114172181 11.0820190824 21.0847268308
1922 1 17.2397920926 32.2312009168 50.5363601739
1923 1 17.3453292597 48.6440962592 40.9110789906
1924 1 31.538562238 50.1725776403 54.6353421151
1925 1 5.2440353502 27.9610855029 19.4595710724
1926 1 55.4241887087 49.5219205971 35.2800588909
1927 1 12.7538794104 40.2150584579 42.5220076393
1928 1 54.6325433394 24.1327684954 31.9018200012
1929 1 15.5728879299 25.2827154625 47.5710573161
1930 1 58.8461001609 60.7552150377 49.6095572613
1931 1 30.4785259403 39.7443976771 27.3608647302
1932 1 29.2620497424 24.5382994332 40.0987343427
1933 1 32.4348701571 27.6700711376 55.0583070933
1934 1 39.5681914234 40.4495142309 23.5341803418
1935 1 17.4943640659 7.3919790869 16.8225412814
1936 1 57.0644461944 7.4508758231 59.3083646146
1937 1 12.344150309 7.8547274956 33.8452781881
1938 1 57.7597087254 19.2133371183 34.2547740582
1939 1 30.4449989397 21.1368540283 51.2299900858
1940 1 6.9494693251 28.6459109329 43.0601888839
1941 1 14.931210292 20.4440404261 16.69350606
1942 1 35.2598260749 10.5749742174 19.1402774109
1943 1 45.9163977971 20.5534842176 46.7847762669
1944 1 4.5515366102 20.4136620481 58.6172419394
1945 1 50.7407874159 44.8505890245 53.4403815054
1946 1 55.0500856897 47.0237217426 49.525652298
1947 1 17.0840518862 13.9079662333 30.1824971019
1948 1 20.905197031 28.5006078276 47.4197485046
1949 1 58.9488968602 35.6434332698 47.4108857149
1950 1 37.632313254 53.7476054467 29.4751065428
1951 1 16.7179370395 39.710345906 46.8853572688
1952 1 15.5232096611 40.4313804966 37.1063183453
1953 1 39.6539622371 9.6973831109 42.6110436913
1954 1 13.8563638062 27.3348011314 11.1751366823
1955 1 38.3595284743 6.4625173374 49.0696850897
1956 1 55.7152613818 20.7800101261 20.5313272433
1957 1 16.7107651768 42.2209643277 61.3040083068
1958 1 4.4002219679 27.5926383431 47.4136844906
1959 1 39.1134486794 34.0149539651 14.9832791817
1960 1 22.7339637219 26.6137665408 13.8349648337
1961 1 6.9883606458 56.3151906154 48.506548095
1962 1 56.6490612337 59.7924361957 46.9252398225
1963 1 47.3209750454 4.1825471876 18.3247258324
1964 1 11.6511034754 29.2319045958 52.9568346948
1965 1 29.6772014717 58.5223751046 56.7462603816
1966 1 9.8756884463 22.9241638541 43.9257102702
1967 1 7.0245989604 32.9622061458 6.8426377242
1968 1 47.0409225516 22.901598725 36.6848693706
1969 1 15.2934185143 4.4450723486 60.300705525
1970 1 19.4841769754 55.1755058259 14.930219059
1971 1 34.617507051 23.6837399185 4.3687823875
1972 1 34.212675807 49.3251899882 49.9854095151
1973 1 15.9139304109 6.7958923391 31.1404363942
1974 1 49.3117208802 57.2134810006 36.6279609313
1975 1 10.9184656272 57.0185579344 26.9959743478
1976 1 47.0022644622 34.4606006881 12.6227451071
1977 1 44.4522299494 26.1885275574 24.8862805457
1978 1 46.9930518255 37.755459385 30.6861601128
1979 1 4.1233472507 58.977292772 15.6002926086
1980 1 46.5400583164 50.7312249323 58.6665703611
1981 1 28.1949581976 49.7455311142 53.6831169898
1982 1 52.6549167658 59.4413647684 5.8306295837
1983 1 33.4091939488 5.0194510923 59.2375206046
1984 1 32.8877470506 5.5698070113 13.1089740778
1985 1 33.6791008807 5.8421395488 6.6223682455
1986 1 50.4763031119 31.7175672674 40.051388387
1987 1 53.8899931606 8.3931128176 25.9460253043
1988 1 40.6055459763 30.3188208018 28.6421792319
1989 1 27.0977215062 38.2208724613 13.3729919191
1990 1 46.3367972309 40.5359847385 55.4603978694
1991 1 36.1491370547 44.6358412971 46.7771962494
1992 1 45.4091197008 23.2280642492 47.869651699
1993 1 9.3898676305 38.3942216315 31.8256116711
1994 1 18.1228641348 21.1846081388 35.4337583233
1995 1 44.2388816098 13.989014113 47.6871482
1996 1 28.5985649772 48.9164521199 25.1521059297
1997 1 55.7481469964 8.0105901483 18.7113650343
1998 1 15.3388403117 10.7215600949 43.9681000605
1999 1 8.8309054762 15.2237406609 39.5324487254
2000 1 42.7099337662 10.846688692 49.265890928
2001 1 54.9787169092 41.024954177 49.8609223042
2002 1 36.8191522965 18.09884131 39.8789721421
2003 1 34.0484226579 37.4162244466 26.2595464909
2004 1 50.2602726123 34.217398741 14.8515618001
2005 1 35.4922410739 52.3687419501 59.8672451379
2006 1 6.2246622181 57.516623394 50.8603767694
2007 1 28.4452736996 33.1756711011 35.5997607072
2008 1 28.6428789258 4.8853605822 9.5456661446
2009 1 41.7726937525 45.0239965025 39.2598596334
2010 1 46.1818733341 55.3840146158 12.279370313
2011 1 36.6694761042 48.5446231061 33.0518252762
2012 1 34.4583849907 19.6423078027 39.1321071841
2013 1 60.4011116034 33.2792258021 16.0185346528
2014 1 17.3983893824 50.7632359294 31.3868452718
2015 1 36.0975929355 37.0277193942 11.4057441387
2016 1 50.8024770971 55.1539902377 37.9952211702
2017 1 33.1637763043 21.0990122485 10.2759716798
2018 1 54.0933125539 6.9870603812 31.4661439167
2019 1 58.6547921801 13.8378219172 36.8806087463
2020 1 44.1891450333 21.4752143493 27.4276271923
2021 1 12.5821045516 59.3309297437 5.0468907558
2022 1 20.5507437498 18.2744644854 11.1949613436
2023 1 55.4043057396 38.7659340296 59.0962407394
2024 1 55.9026627383 32.4189521202 46.6104941716
2025 1 42.4678979757 8.2257518613 4.400892508
2026 1 38.5845383793 26.1046225941 22.6731486582
2027 1 51.6139471276 7.6555654504 50.894253617
2028 1 15.3765654758 14.5376324587 12.1830457825
2029 1 52.7754973523 60.1557522667 25.1641173421
2030 1 59.265391746 27.0358569016 53.1073855045
2031 1 37.4071284255 33.6249329093 7.5292940199
2032 1 26.6173233183 41.0810463068 8.6316034922
2033 1 54.4396027393 28.3179294051 58.1633738128
2034 1 28.8688217561 49.1605869922 17.3088285599
2035 1 12.3054922196 40.2333088078 23.5203030789
2036 1 56.4502315431 48.0094155607 40.3196043919
2037 1 37.0310429404 27.1391200635 20.2315667039
2038 1 12.8430903859 5.4434889345 61.1259362027
2039 1 24.4606334075 28.4011346745 12.7079911504
2040 1 16.8975251472 18.8299631547 6.2254085582
2041 1 50.4603850751 47.9039367013 46.3400041614
2042 1 20.7399526489 59.9054950725 32.8998167708
2043 1 8.4159345012 48.5044490132 41.3690286651
2044 1 33.4137419593 7.3518574711 61.212523326
2045 1 36.8265573906 4.9837200558 45.6617675159
2046 1 35.8483269744 5.6765861352 19.3400983345
2047 1 31.3634055252 12.0956423496 9.1185729723
2048 1 61.0520018779 44.9525694142 51.1952386208
2049 1 49.5869921322 60.6003494487 34.5371588651
2050 1 59.3050993763 58.8063342228 53.4063880422
2051 1 4.7280285722 32.3123071044 38.4101979761
2052 1 4.2564640201 39.6427671343 52.5963757073
2053 1 19.7948410785 37.2943610878 37.2553531515
2054 1 4.4506524076 20.46701371 53.26341725
2055 1 36.6474940534 10.3019769707 60.7822115616
2056 1 32.7547468968 58.3511833241 13.6495459433
2057 1 33.8715167103 61.4293118274 7.8600043539
2058 1 26.7749876829 11.8457933103 27.4369564446
2059 1 36.3876160677 24.4257653268 25.8400799823
2060 1 23.8078772825 33.8051040952 50.795072003
2061 1 61.4305945996 22.6188640711 22.46271571
2062 1 37.5027532621 4.3439665763 10.0998820418
2063 1 6.832043192 61.169025687 11.2454559219
2064 1 19.9838167463 10.3220348632 26.6068279094
2065 1 52.8989350224 38.9879119276 61.5259862048
2066 1 40.8928869485 34.2624123836 61.3077400078
2067 1 54.0578030871 11.8684167472 27.8965387383
2068 1 13.720156722 51.2565201471 51.0892932988
2069 1 43.7346355206 44.3719400714 60.8838421044
2070 1 15.08368526 16.2307168358 42.0606761108
2071 1 7.9423758214 10.9919334894 9.8261851011
2072 1 49.6760864921 54.5563933171 19.0790541924
2073 1 52.1735273448 49.0917254483 21.8703664939
2074 1 56.7497588512 9.0777749856 14.5026477624
2075 1 40.6068287485 14.5734917724 43.6586604218
2076 1 20.3135475089 61.1725824644 7.0847376533
2077 1 40.0894633982 57.5419872988 32.3893900519
2078 1 37.7407658125 7.0761955566 9.1235816147
2079 1 24.606519591 58.0967279663 24.1748667466
2080 1 11.5810174672 20.9541756058 12.3004777464
2081 1 46.1913192021 53.1929230869 17.2175768104
2082 1 39.7746011315 60.0010616012 43.5866502553
2083 1 26.1440386853 38.7609778643 20.5982063211
2084 1 41.7752009891 45.810160936 31.1056266214
2085 1 49.6374284027 6.5215131969 12.3730126834
2086 1 32.0298056818 61.486803345 11.5347793602
2087 1 60.4821011753 58.3919404952 55.9620784142
2088 1 37.843504204 36.5186920632 5.2892938856
2089 1 58.5191681741 34.9767415741 58.8456336983
2090 1 10.1114852994 11.8428196111 14.363816826
2091 1 47.605517242 57.456916179 55.9191055456
2092 1 56.8993767357 4.0222239861 48.2876605118
2093 1 45.5972790591 33.5686075483 4.3448586861
2094 1 39.16790819 49.2871149771 53.5186889173
2095 1 21.0566224582 30.5619061332 58.6154927045
2096 1 23.2483553731 40.3761046765 35.6149207423
2097 1 43.9910150366 53.8165836062 30.8648152952
2098 1 44.4198691053 38.9165431471 30.4324044491
2099 1 61.0470457126 3.7834423554 35.0145833539
2100 1 39.9051523565 25.7022985867 5.8441861535
2101 1 15.901744075 47.23578731 21.928382782
2102 1 28.6138999357 5.6181092153 20.3815344353
2103 1 12.3773857704 5.8802961909 31.5516814991
2104 1 28.91809187 12.9581317289 32.1102704833
2105 1 5.4909515058 33.6506466611 26.5956328066
2106 1 31.1368213089 60.6832048711 48.1656222296
2107 1 21.387927532 13.9389276895 25.7833464665
2108 1 38.5291459435 56.8340136615 56.4665577347
2109 1 47.6673235387 17.6405417886 4.6966239765
2110 1 29.1170964841 37.133723024 26.4736528322
2111 1 52.9542108426 10.9324595057 5.8608563613
2112 1 23.3389074287 22.7097659737 49.2642583089
2113 1 12.8998239018 5.4033090108 5.8124258801
2114 1 51.408353729 28.3439930038 34.3625852306
2115 1 34.4833407407 40.9643140368 53.1822527546
2116 1 34.5060224854 48.6014149298 13.3552080318
2117 1 23.6600086328 18.7842498183 37.9047857303
2118 1 23.8309088742 51.7811739759 45.8156418718
2119 1 37.1316822501 8.7005116824 56.7966966521
2120 1 5.8501685366 37.1639264785 53.099805487
2121 1 38.7770125167 20.2215960655 30.1571331971
2122 1 17.1124477981 13.9998593689 33.1339810046
2123 1 56.343003449 59.7267815823 36.8150124408
2124 1 6.5047147119 35.1015203242 32.2733574758
2125 1 16.6848181937 14.3692394539 9.4896323228
2126 1 15.2065398518 51.9776130455 5.8235568443
2127 1 29.4513752572 22.8436407448 18.5924753747
2128 1 51.7390757246 46.5248399735 56.4294156488
2129 1 16.3012109989 58.3668681296 6.2773083552
2130 1 21.4794125129 9.3405975165 33.4142667298
2131 1 52.2096198898 54.3903909332 35.7464048925
2132 1 51.0129683531 22.3771198197 46.7858841156
2133 1 53.2227766944 29.3709104557 52.415329904
2134 1 9.5459576838 12.5909673413 40.1859628521
2135 1 38.1778995927 41.9917562591 38.5572503162
2136 1 37.9810523682 13.059295809 61.3225501959
2137 1 34.8599509963 5.1130001702 31.8127839491
2138 1 56.8453836878 19.7755411877 13.0593541168
2139 1 18.3460664972 19.8314000861 43.6956858921
2140 1 14.3881311899 5.381245329 41.2371946679
2141 1 31.810451636 48.8805928062 11.0005630478
2142 1 48.9584920633 55.7350860431 40.2131926074
2143 1 51.2640418568 32.8390017071 54.2969234863
2144 1 35.5116575804 38.3623855578 52.3373140313
2145 1 37.8755735089 58.0901391819 16.8174685005
2146 1 46.4248420499 21.5949203185 44.1135780893
2147 1 41.906451908 13.0364391408 26.4660145068
2148 1 42.4415428378 42.9073057611 45.5587375853
2149 1 20.5543005272 20.8064235718 42.1682540519
2150 1 34.5667209335 56.9039830541 48.5238655197
2151 1 11.2028912081 11.3065625247 6.0146490862
2152 1 45.0507014873 43.2435086925 50.5092470343
2153 1 37.7308534819 3.8802315992 27.9495405531
2154 1 46.9219745842 11.8589125714 49.1271766072
2155 1 13.5369535291 15.1996595282 61.4270378221
2156 1 32.0591928267 18.3179621245 20.9563329954
2157 1 57.1774467634 42.4749532227 5.4171279659
2158 1 34.3208951342 19.3954324625 44.5040656077
2159 1 12.4487545509 38.4929367828 19.0196968243
2160 1 50.9881292187 54.3083518204 10.4380674393
2161 1 43.639360531 22.2271520883 35.708446497
2162 1 59.4006075972 10.2381298999 55.6354379665
2163 1 29.6319545979 42.6183321697 42.4291815784
2164 1 16.3683233079 10.78797271 37.9607029366
2165 1 25.8311588848 27.7159593976 26.544205303
2166 1 30.7794526363 38.9782328282 56.4569952511
2167 1 34.6796631947 4.1407754602 10.3998758125
2168 1 17.2157692678 44.4019102946 24.2709580457
2169 1 5.0524416609 5.3123429697 15.2591918198
2170 1 44.9982827507 45.7999570663 53.4457458255
2171 1 6.8599609796 38.2617462482 12.1837454765
2172 1 51.8957488562 29.4482266345 26.0610666472
2173 1 13.6078558469 49.3260646057 54.5042078118
2174 1 60.2024568362 27.4555566415 16.8247569789
2175 1 20.5092285768 54.5583174754 12.1657866657
2176 1 60.1107969319 54.255874776 53.7729110437
2177 1 39.8620045644 10.1736997509 48.8703306286
2178 1 21.44460274 26.2428121445 11.1316390433
2179 1 25.7241640219 53.6473742918 48.1084222512
2180 1 24.2000557279 54.4279994817 13.0409288435
2181 1 34.5271882267 35.4609297708 59.1929151169
2182 1 30.2800460967 56.8417686025 15.9844245739
2183 1 56.6596149505 11.8049778313 12.1096362281
2184 1 24.8897207075 7.1217281388 35.2548699096
2185 1 53.656412005 43.2005941317 37.5983780986
2186 1 7.8322789821 12.1646205092 12.3983765882
2187 1 18.3653080801 24.6036041997 29.8385392295
2188 1 56.9892290974 42.6199064811 55.8998639626
2189 1 34.1930260693 50.4818423555 17.6332533102
2190 1 38.1227403882 18.3916049102 14.4504622571
2191 1 36.1327525552 30.9791569443 37.1404284241
2192 1 40.2508594637 22.5989227942 21.1391863414
2193 1 14.3231179626 14.3925042769 30.1231980417
2194 1 21.5669908692 42.2105272266 13.5412683083
2195 1 35.1400034901 37.0768145847 55.5539819319
2196 1 30.3871575752 17.9503312743 42.9936596531
2197 1 57.8307859667 26.6399467552 28.9245640388
2198 1 4.6207130163 14.7901636581 15.5524218825
2199 1 53.4682526468 25.9470165373 25.1981691132
2200 1 57.6920133381 32.0240332069 34.5246809901
2201 1 23.3612393265 59.6629928194 8.8444153998
2202 1 18.4060069435 39.1826017624 4.7130084759
2203 1 22.0834232944 59.0099451553 41.4729332131
2204 1 41.429785421 22.0210922271 17.0835854236
2205 1 28.8416503086 11.824627569 22.0483219824
2206 1 46.5863547311 26.8875800972 39.0616130211
2207 1 35.9998107093 11.3997384325 45.3165851792
2208 1 47.6112897168 60.089514575 8.26939527
2209 1 43.9267015033 7.6143884628 50.9074311859
2210 1 53.942470205 56.1095972169 16.2964880649
2211 1 41.395383803 22.5351340313 41.0156832325
2212 1 25.6519206241 22.9315106403 52.2861780668
2213 1 51.5338321731 52.3531154524 54.6456042927
2214 1 27.796774046 35.5832012843 12.3902134924
2215 1 38.453753923 52.3043118011 16.0879209671
2216 1 50.2571239897 31.1787446366 13.0564387255
2217 1 3.6985922222 46.0067749292 25.8634031132
2218 1 50.5058651803 14.4239905036 16.475901249
2219 1 35.2987173956 43.5991864381 51.8332428655
2220 1 48.6507433515 22.1524597617 11.4911651055
2221 1 24.5041310465 57.1547650187 59.1788046227
2222 1 43.6959774312 52.3396463443 25.2487803071
2223 1 29.3879946491 51.3366934095 46.8117144831
2224 1 18.8572512179 59.1335577488 53.9487674504
2225 1 16.7286073719 4.4706811463 4.5350296643
2226 1 8.370104549 10.9257541056 46.8468741028
2227 1 18.8773674182 40.4658987303 53.887136077
2228 1 50.3340320137 19.6544941386 49.4906676017
2229 1 18.4614576871 57.2883482507 23.9183123071
2230 1 20.7677654824 15.041178854 29.8362069164
2231 1 8.6070150815 44.6903008077 54.2920839366
2232 1 55.449727537 38.6397558916 45.8697515354
2233 1 6.6535512715 9.8627441087 18.5861781294
2234 1 42.4978681988 35.3112535784 31.7635138352
2235 1 47.0189988086 10.5209228616 42.2732664486
2236 1 44.6064541522 47.1107753285 42.3132073102
2237 1 7.0748777997 30.494502285 27.6827822439
2238 1 5.3624177317 11.7581566461 34.3495242774
2239 1 5.2187647379 40.7086342147 11.9624089646
2240 1 9.5589020214 23.392084167 33.9797943454
2241 1 56.4965862657 7.4312202546 50.4546709081
2242 1 25.2575264812 52.9817904448 5.2178201511
2243 1 38.1530604583 56.5420080631 11.7280114994
2244 1 31.4579225131 51.9826275187 49.7671050103
2245 1 57.3345863576 14.9322015251 27.8118174654
2246 1 11.3646954284 21.4707829544 40.5279382584
2247 1 6.937691144 42.3377549054 5.7533483896
2248 1 60.4479910964 40.3566298622 16.145295869
2249 1 14.1754825443 28.863107589 54.1608913255
2250 1 49.2580776792 8.9357779342 27.2353279783
2251 1 25.5748959844 12.0812986241 10.5235467139
2252 1 29.8116593212 30.3866328047 52.1125956654
2253 1 58.7060447601 46.5692122299 15.286771422
2254 1 31.6176859595 12.2679419789 14.0427156218
2255 1 50.5019002481 16.7474408001 4.5851102571
2256 1 34.5898691409 47.5696579283 42.0205603257
2257 1 42.1963584246 4.4048574402 40.8336461962
2258 1 60.0927798134 27.8146162411 48.6413557914
2259 1 3.751198127 33.4181150464 40.8718378229
2260 1 27.746512699 39.1508239966 59.2476078587
2261 1 28.0669142092 36.6624208571 43.2860734063
2262 1 60.8921218158 56.8127313046 14.4305209802
2263 1 43.9019206767 13.5929290431 7.68267859
2264 1 9.0427261507 27.4238371835 7.987226202
2265 1 16.7197445822 44.4907131153 21.4308420928
2266 1 12.3671819007 5.5755736554 16.8912279018
2267 1 45.6035763044 58.3201052522 19.0904242187
2268 1 20.7087579613 56.0174125422 49.1958049198
2269 1 50.4182868239 49.4518345888 10.7385859804
2270 1 38.3186546875 10.8282051108 21.3658288656
2271 1 59.7375102225 32.5127694141 8.1263778315
2272 1 39.6244001688 36.7932053134 15.7292112145
2273 1 8.1165121472 31.3304032951 8.8806712067
2274 1 19.9905221464 36.2112931984 59.7966926671
2275 1 27.1959118872 12.126895345 57.8370249042
2276 1 50.751224517 18.6853014356 8.2276876812
2277 1 47.3101297896 59.2814847063 37.5107414344
2278 1 19.7735004138 11.731859816 36.4660984031
2279 1 29.1165717136 13.3200484121 19.6080811081
2280 1 47.617295423 29.098904442 55.2904305532
2281 1 33.5202120517 30.3128150956 15.9972522959
2282 1 50.7425949586 21.663898478 18.2296840742
2283 1 36.2235961499 19.0280931514 5.2427759011
2284 1 42.4341960516 39.9580958636 35.9775954272
2285 1 55.7766595238 25.8989708877 40.4980846509
2286 1 39.5426525951 23.0927900902 12.5730085305
2287 1 29.7582493515 42.4305809663 49.0629213817
2288 1 32.4018096191 45.6320888319 23.0319167187
2289 1 16.4177683453 58.4975359702 40.8702635116
2290 1 15.4624529052 21.9914135431 58.006758989
2291 1 25.6382765925 10.8044738251 12.9282198136
2292 1 12.7582524974 9.0965909215 46.5264142848
2293 1 35.1175549766 35.4596469986 4.8667837085
2294 1 52.6839540637 25.7624722644 38.4526460743
2295 1 15.1124310188 9.5001277316 23.0628781749
2296 1 31.9264259043 57.0736005233 57.8619806542
2297 1 32.8407509419 53.4697686503 51.9128913574
2298 1 59.5931983503 5.9393970045 13.6045323008
2299 1 59.6142474759 42.5482461615 48.1481298815
2300 1 54.2176248414 38.9556676991 30.220572113
2301 1 41.9648763508 16.5549083548 20.1115691956
2302 1 11.8234614125 26.7201200176 7.7233541302
2303 1 30.4893711962 15.2892203507 22.4707621901
2304 1 6.8087608766 17.2901117474 17.8207129745
2305 1 38.8559030069 57.8705519048 41.7339773553
2306 1 5.2425251775 22.3680821065 32.1958663735
2307 1 19.1352046299 25.3309943434 12.6194798688
2308 1 19.8550147561 43.1049109873 26.9589488776
2309 1 39.2356035773 17.4466682633 19.3378243293
2310 1 44.692224966 41.4904838691 31.3533182712
2311 1 55.279352066 57.5009968963 39.7802569908
2312 1 54.6821049925 34.8286396931 34.2401387936
2313 1 39.9664921907 12.0660802813 5.5460990488
2314 1 15.4597124373 16.8069730916 23.6203010025
2315 1 61.397417446 40.9673460438 29.6407590798
2316 1 31.5910975903 41.5608031086 19.3379992528
2317 1 57.5225124845 61.2667496053 34.8117304232
2318 1 44.9521029516 24.7914137109 36.5465048967
2319 1 52.2435550452 47.1432527883 13.476604928
2320 1 32.4704379316 43.5828019387 16.5040639295
2321 1 17.9724882486 3.6853388531 34.0916287578
2322 1 57.9124752325 57.4270625715 34.7377377906
2323 1 51.0156505131 33.6525708194 12.0362849816
2324 1 11.9013606695 50.5789248877 14.8238655822
2325 1 16.6733898596 48.9171518138 57.4229227157
2326 1 21.6026752595 49.093532991 25.7715682854
2327 1 40.4208850877 34.0269653775 33.6087233333
2328 1 6.8821529386 53.3574677752 11.1272076484
2329 1 56.1273227964 36.7504656761 41.5160226973
2330 1 61.2609188226 41.6256414124 60.1500380996
2331 1 41.7133946923 51.7169187503 13.9544958793
2332 1 51.7148196686 20.3151218202 52.7700747244
2333 1 21.7190576825 22.9899350831 20.6624615466
2334 1 38.4477482168 28.5681865993 24.0324790327
2335 1 23.5316147974 58.1992331265 15.2934768221
2336 1 47.7208501241 46.8018604603 16.0560265857
2337 1 15.2261312818 54.1851473816 59.258977885
2338 1 33.4326336953 31.6998999958 57.2661329685
2339 1 20.5501606715 21.4651270952 17.515937962
2340 1 12.1487607802 23.187656925 32.4931196764
2341 1 56.8189119342 39.5709318913 4.6383744572
2342 1 34.2227047533 58.3344489777 10.153117088
2343 1 9.5844408497 27.0279270371 48.6818214234
2344 1 23.4500421472 35.0221050636 29.4109096251
2345 1 18.9764324166 49.6425594915 12.1184990179
2346 1 49.2556870583 22.2115255906 8.5901932734
2347 1 54.024101163 20.5894018392 12.4863630994
2348 1 40.899475733 18.9589983762 10.7772440698
2349 1 47.6600933682 26.8775511509 8.8118796322
2350 1 28.1844044809 33.5314071545 6.4281740272
2351 1 40.272375052 43.9293253555 22.863465406
2352 1 56.157118096 28.0088396134 3.7101861506
2353 1 56.2297696487 26.5109115337 18.1737668679
2354 1 9.9834996188 46.7419783218 37.8520171467
2355 1 52.3482175949 4.4898294367 57.3647315042
2356 1 59.8580325012 3.5971470984 39.1393956625
2357 1 40.4065413622 37.0168741384 6.3140947634
2358 1 24.1690942717 51.7123707398 13.3067542275
2359 1 5.8336849139 20.9928336952 43.8793555476
2360 1 43.7853050224 56.551803778 44.2177158686
2361 1 23.4048535812 31.7171008048 57.7583093375
2362 1 15.3247298175 20.8365104106 60.6002911409
2363 1 3.6654267301 52.8279160889 32.8799338017
2364 1 37.6101562797 26.1943000323 49.971299021
2365 1 59.2118651607 60.6757414693 10.97957223
2366 1 32.4479894182 38.0051335008 42.7154147019
2367 1 27.5280332706 31.5901063572 56.3109341441
2368 1 24.0318959544 51.702866564 35.8489100526
2369 1 25.95150624 15.7387736981 13.3687354477
2370 1 31.3813060282 40.2934241776 15.2390173116
2371 1 6.8171688653 31.4887090458 42.7438689216
2372 1 20.1331430917 49.4369077851 40.6433294483
2373 1 59.6652668247 53.8026480355 4.223432636
2374 1 44.0331132878 39.3498869185 46.4650744506
2375 1 45.6459077869 48.2993220773 30.9697110763
2376 1 23.5758704382 53.8976314859 34.3822932762
2377 1 58.6423726129 4.6596218294 36.6249289243
2378 1 4.4632760522 35.8271612331 11.686321403
2379 1 44.3296668967 3.6797028185 21.5570202308
2380 1 18.2682255479 6.1595032212 42.922524104
2381 1 35.7575416875 23.2547692341 59.9547651865
2382 1 6.8393316704 25.3379329749 53.9935478616
2383 1 37.8600053191 45.2843992586 56.7724989038
2384 1 10.6209207852 6.1536024691 38.282387219
2385 1 7.8149848806 19.3757244169 5.5974449214
2386 1 41.8768898396 42.2472028499 19.3896016798
2387 1 52.6859365298 12.2612948866 50.6034141751
2388 1 54.2337178017 10.3139883831 18.5192990517
2389 1 28.5873115666 19.7402649523 22.028905476
2390 1 17.968639932 12.8146361663 58.6205071777
2391 1 9.9902633267 48.691733754 20.9081124224
2392 1 20.1324433977 12.886588025 28.0591592682
2393 1 10.1747492918 9.0431984441 48.0744287879
2394 1 8.1463424315 39.399331956 34.1078383338
2395 1 15.7131182542 13.2007505977 45.5545977296
2396 1 16.3889059709 4.4883017716 55.7887875519
2397 1 29.265548212 32.8549780517 38.4560279282
2398 1 58.958750883 14.9170997978 55.0836126903
2399 1 5.7936216058 16.962363451 48.3005465417
2400 1 37.3787908215 8.2774475809 26.8903788729
2401 1 24.7221440123 37.9709651141 50.4041763298
2402 1 37.0330254065 8.2006561725 19.4317582388
2403 1 59.1466187021 57.4936501101 28.1107033874
2404 1 52.10361626 25.6964094962 42.8248001857
2405 1 36.0240084576 44.5318784413 22.4245240832
2406 1 46.4472322555 14.7648580611 42.0742035267
2407 1 38.7201040774 14.7218268847 20.336112638
2408 1 4.4973919619 15.5832084153 56.0040017419
2409 1 20.509520116 3.600973258 14.4519782606
2410 1 22.8030584971 6.8566374335 60.3714329193
2411 1 33.7278462242 3.8764800736 37.1305744013
2412 1 51.9920733867 41.0101439889 44.9772336251
2413 1 24.9895437076 22.120973535 44.0119475466
2414 1 3.6144983416 55.1910740157 21.2693294116
2415 1 42.7893490268 20.1383907961 40.4495142309
2416 1 58.1781840009 60.8743962364 42.6772230751
2417 1 48.6162834257 6.579232115 53.6947785553
2418 1 8.7442017373 7.3495426503 32.4692717751
2419 1 34.6543575977 24.7132812225 12.248991935
2420 1 27.658118033 8.0425894839 40.7396539788
2421 1 54.0807180632 59.442181078 43.2345875949
2422 1 56.1718699763 60.9084480074 52.6299027079
2423 1 29.8536409567 10.5592894119 25.6176939295
2424 1 40.0882972416 8.9969953219 37.682924448
2425 1 39.992031019 11.318282398 55.0527095419
2426 1 42.8971018913 22.1539757652 5.4913538298
2427 1 52.1890955346 37.3919683905 33.4811458075
2428 1 8.410197011 56.9547691715 33.2513546607
2429 1 13.9774691632 46.2023393815 45.756867582
2430 1 47.714144724 44.7288422814 14.300727757
2431 1 4.6667295535 4.7163786683 42.1928016471
2432 1 36.622654919 29.5336476013 29.5626848992
2433 1 56.4277247219 33.8972304621 30.2640114442
2434 1 9.633944195 39.4855692323 15.4159232592
2435 1 20.2203716011 5.8566990132 5.4388418007
2436 1 37.2630497846 19.0437196491 52.0435591981
2437 1 32.8268153712 8.168254513 14.3845161046
2438 1 16.8588670578 41.4980055788 52.1232076899
2439 1 56.8330807362 9.6035075092 41.483078775
2440 1 53.755593619 29.1318483644 60.8451257071
2441 1 18.0279973001 41.2358535879 12.3626338902
2442 1 17.3610140652 52.1616908559 41.6872144779
2443 1 61.3002766059 49.0732418671 50.9546605259
2444 1 45.6170454125 58.5182935567 43.5646098966
2445 1 48.0313976115 60.3417542353 60.8857079548
2446 1 33.6809667312 8.5440251359 48.6818797312
2447 1 30.9151932579 19.426976997 34.7046772526
2448 1 36.7237023835 39.4582228614 57.5201801714
2449 1 17.4078352504 17.7263709102 3.4864036253
2450 1 41.9361888998 9.7204147026 51.8401231891
2451 1 34.9118449624 10.4796992278 4.7163844991
2452 1 31.7556422785 13.3107191597 20.7067754952
2453 1 33.2398680188 45.8351749939 7.529451451
2454 1 51.5614700831 14.1910507341 44.4034846059
2455 1 30.6510588009 52.5525282213 23.1466082147
2456 1 56.3938478743 60.403268993 59.219503486
2457 1 35.3830888215 10.7788183812 47.9179305799
2458 1 14.9974479837 18.7787688825 48.4123809541
2459 1 43.5396541466 12.5821628594 30.4744443924
2460 1 57.2071254474 3.6500719469 8.2045453046
2461 1 3.6736020706 30.0827324096 54.6767406724
2462 1 34.9862457499 32.1356926959 60.8471664811
2463 1 5.0311534732 22.9853287648 41.8488437748
2464 1 56.9703373614 26.8146370054 9.7778479124
2465 1 10.3324719643 18.1915507552 12.8809321658
2466 1 26.9888607929 39.274494898 37.9308493291
2467 1 58.3460522353 3.3588982846 21.242216272
2468 1 54.728809562 61.0254718165 7.0362721874
2469 1 36.5267385433 31.7237478971 4.9829970388
2470 1 11.7933745737 31.3215988132 56.4612517225
2471 1 45.7400749278 15.4263020524 4.5584869032
2472 1 32.7157972683 44.2777729306 5.1427838083
2473 1 50.8740791088 31.8118510239 24.67094974
2474 1 38.5550346188 43.8066456871 43.9317159764
2475 1 11.2574090264 57.0857868591 53.7862635361
2476 1 5.2777197819 59.7070735367 43.9425029244
2477 1 57.8017486688 53.38417276 52.1095053506
2478 1 39.3429482871 12.9530589479 24.9806809179
2479 1 60.9428496255 40.9465301495 46.0660156816
2480 1 8.6223617016 13.9061003828 27.8988710513
2481 1 6.706885441 34.3040441722 45.7758176258
2482 1 18.7752704129 49.8162002007 52.5900201542
2483 1 49.1718987107 6.3631199844 51.0358250213
2484 1 24.6826113055 55.3545691631 36.4898879966
2485 1 38.8672730332 55.1847184626 33.1707149358
2486 1 27.7983483573 49.1956299963 40.3680581963
2487 1 34.9981988545 46.2643206017 32.8227921311
2488 1 3.8900955343 26.2612957257 13.4329323654
2489 1 60.6390075381 6.7683768755 7.6501428224
2490 1 7.8300166384 23.9734132038 30.0772514739
2491 1 51.1867839858 58.6315856648 40.556742325
2492 1 5.2757897929 26.0015926635 36.3496576723
2493 1 25.2772345268 55.23282242 24.8230165532
2494 1 47.6665072292 5.1468770178 31.9459007185
2495 1 39.6228258574 8.2788586303 55.5609788712
2496 1 53.7596168591 6.3701694007 38.9938593259
2497 1 58.521908642 48.9947595318 49.7893202924
2498 1 38.6241293939 60.661980822 4.995282498
2499 1 40.9399996729 53.6311647158 50.1881458301
2500 1 54.9170272281 22.0624324766 24.9203906246
2501 1 4.9209283568 57.8194742482 7.524810148
2502 1 31.1642259877 33.181093729 53.928301403
2503 1 25.9264921822 13.5185282557 42.813896622
2504 1 14.0114626265 16.9171165771 12.5221641053
2505 1 14.3319224445 30.1214488068 56.7496422356
2506 1 6.1887737504 11.0620194976 16.0598749023
2507 1 20.2726737221 20.2535487547 9.0088901186
2508 1 22.8036415754 27.0987710471 58.9575847265
2509 1 36.7320987106 29.7213988047 45.0300022087
2510 1 6.6104909411 17.847184728 60.8136394805
2511 1 8.6319416776 54.8114900609 39.0789887536
2512 1 11.6804323125 35.9991693232 24.0349862692
2513 1 27.0815119303 57.294995343 46.3645517566
2514 1 53.2161296021 52.9329284857 56.8501649296
2515 1 23.2938937861 31.6702213117 10.3675149684
2516 1 39.0366572711 55.7209755489 51.1387383363
2517 1 43.8975475897 48.7039200899 28.885031332
2518 1 39.2027179628 50.098118545 21.0407044213
2519 1 57.2091662214 16.7554872802 33.0071031728
2520 1 21.179127203 39.7325028803 33.6821328877
2521 1 43.7906693425 60.0052597648 17.8939476054
2522 1 60.1296303601 28.1828301696 55.5950306423
2523 1 52.4767863538 15.9480987976 54.5187264608
2524 1 11.4877832515 61.295845211 38.6141587555
2525 1 48.0984516127 33.3074467904 40.5359847385
2526 1 57.4373830569 29.6210510342 10.1624463403
2527 1 51.8955739327 46.2313183716 17.4749475595
2528 1 51.7950512387 28.2771722339 54.6072377424
2529 1 6.0787002343 57.6051346756 23.9079335139
2530 1 27.2680969772 26.1766327607 49.4250712962
2531 1 42.8773355379 28.0876717957 35.6161452066
2532 1 23.7858369238 59.7089393872 51.4102195795
2533 1 32.9503113491 32.5693863143 17.813482804
2534 1 3.5308260265 6.328648397 36.2536246809
2535 1 46.6538168871 32.9590575232 45.9124911727
2536 1 8.0950432052 34.5560506011 49.2329470057
2537 1 45.7256145866 32.8230253624 33.2776514908
2538 1 60.6363253781 33.8589805275 55.5082102876
2539 1 24.4728197434 32.7529393542 6.1651357573
2540 1 45.508243007 39.7742512846 27.7874447936
2541 1 60.5317211362 49.4626215369 25.9797272284
2542 1 7.3173917144 60.8185956458 7.4296342817
2543 1 34.4464901939 49.7852387445 20.3590859219
2544 1 36.0350869448 58.4861076361 22.6367645741
2545 1 40.9956836478 51.6895140716 40.3499827699
2546 1 19.1889061387 27.2459983107 4.7899106692
2547 1 12.8682210594 48.3091761001 13.3515346387
2548 1 12.9953321226 27.0423873783 32.1456050265
2549 1 49.1113168782 42.0901215635 40.3071265169
2550 1 36.1681454063 36.7466173595 34.2972804642
2551 1 26.743909611 44.6744993865 47.8307020704
2552 1 8.9554568258 51.5991369395 37.2523794523
2553 1 59.7182686395 42.9451475409 19.7760659582
2554 1 31.2478394118 50.5632983901 17.4404293258
2555 1 11.1183448587 11.1714632892 26.974342144
2556 1 32.0155202642 37.2371028016 50.2325763944
2557 1 14.9530757272 47.572456704 35.5028530985
2558 1 16.7513474245 44.8803260164 7.588272387
2559 1 31.9064263195 57.033193199 49.8490275074
2560 1 4.4696665901 51.218445136 49.5799368851
2561 1 51.5214709137 43.2289317357 58.9479056272
2562 1 51.2842746728 44.9512283342 24.9602731784
2563 1 12.5633294312 45.7859631878 12.1604223456
2564 1 59.9035126064 18.850779049 56.2084289839
2565 1 15.6034412313 34.1908103718 48.957559138
2566 1 33.2364861648 31.3235229715 54.4699228095
2567 1 60.0488157117 42.3536146344 14.3214853435
2568 1 6.9022633082 54.8406439745 6.7787964842
2569 1 45.3191507235 20.9444965065 41.5443603013
2570 1 57.3705039791 39.5894737803 41.9534480167
2571 1 34.7166886649 37.5512653743 6.9827339405
2572 1 57.4500941632 32.557666441 39.8460865276
2573 1 45.4571070426 54.2325516451 57.8130603872
2574 1 11.2589250299 25.7115695313 60.1919031195
2575 1 61.1469853283 38.0230923116 57.6120149992
2576 1 11.6120372312 57.8911928756 20.3789105831
2577 1 17.2658556913 4.0882984158 45.156063731
2578 1 22.9904015458 51.1677173264 24.0930025573
2579 1 5.5967452274 21.9413854274 37.9635017123
2580 1 36.0432500406 21.2143451306 3.561640547
2581 1 47.1518823467 14.0624819752 57.4121940755
2582 1 51.1183889046 9.7090446763 29.4195974914
2583 1 29.55837012 45.7148859465 22.852678458
2584 1 22.2252862378 42.052163168 37.7829223716
2585 1 18.6984790045 31.0665603772 12.6865921778
2586 1 45.3320367533 51.3529612932 3.6499652436
2587 1 8.1988427991 27.8455193895 21.5682153336
2588 1 35.3193583664 44.8742620024 3.5627017495
2589 1 16.3977104528 8.3665127869 28.9253803484
2590 1 46.6311351424 4.0203523048 13.9949032036
2591 1 41.5629021904 22.7500566822 30.8418420113
2592 1 27.5634261217 33.3133941888 19.1826088934
2593 1 40.2690515058 18.4967339226 5.6984690627
2594 1 60.4924799685 17.1498231153 26.0150034638
2595 1 30.6322253727 28.4845731751 21.1412271154
2596 1 14.7749453152 3.5863496549 26.4814077732
2597 1 27.9684322891 37.003171799 18.8458811916
2598 1 6.8747478446 47.5789871806 9.4867752392
2599 1 59.8230478049 17.1490068057 14.2988035987
2600 1 21.9283244741 59.7941854305 38.5266387069
2601 1 41.9434190704 24.3698481206 4.2335781979
2602 1 15.8458268688 12.3320805887 7.7040425779
2603 1 53.4199154581 30.1656461398 19.0115920363
2604 1 49.8586482989 46.454170887 60.108756158
2605 1 20.4196094465 34.0796756533 33.379456957
2606 1 57.8571411046 25.2248157902 12.9070540723
2607 1 59.12708558 34.423866757 26.8438492268
2608 1 47.2195194262 18.6616284578 32.5794152606
2609 1 60.9310714444 40.5842636194 5.6220391628
2610 1 9.7559824772 37.8848444534 61.5460440974
2611 1 61.3098390896 42.4701136731 11.7804885439
2612 1 13.2381842227 22.8935522449 51.9870006057
2613 1 48.7601288353 36.5894777653 4.5783057336
2614 1 3.4060478595 7.6348953256 10.3594684883
2615 1 36.3845840607 51.5491671316 8.9149270552
2616 1 9.9705552811 45.0231218851 44.3631938973
2617 1 14.1848117966 51.777092428 55.7252903281
2618 1 48.2980976129 35.9868663717 43.1533064839
2619 1 48.6783229538 39.7890031648 22.9262046281
2620 1 37.2571606941 52.6077457336 38.9691368072
2621 1 43.8517759454 6.3126837139 19.8116337327
2622 1 16.8001510758 4.6829857757 23.5413522045
2623 1 60.1813494028 38.4348038792 51.6713803373
2624 1 55.1051282785 31.76526307 17.093905909
2625 1 57.9668764353 15.6305543709 42.8600764211
2626 1 10.2799949198 22.225577777 57.380999388
2627 1 25.6122713016 34.914702046 43.8142840125
2628 1 31.8093437873 15.4273515933 8.5565671495
2629 1 21.9696064158 9.7684603522 17.3186825827
2630 1 16.7585192872 6.9269391807 60.9636655197
2631 1 55.7066318234 14.9192571874 5.6699915199
2632 1 53.3864467653 42.7088259175 12.6107920025
2633 1 49.2083994105 59.7916198861 19.6921609949
2634 1 3.5075909405 7.9910570263 50.4986350097
2635 1 23.8030960406 59.8895187279 58.7581136498
2636 1 39.2163619943 50.5945513854 13.7489607886
2637 1 42.4461491561 17.6362853172 16.1263458252
2638 1 25.2253988684 21.6849476036 40.1194919292
2639 1 21.8655852521 16.2471013353 27.3125858493
2640 1 61.1370146899 47.0128181789 13.5834831751
2641 1 10.6480922327 10.5203397834 50.4677901692
2642 1 7.7201880152 25.7897020197 51.3590253073
2643 1 48.8140052676 29.0780885477 32.9652381529
2644 1 58.0356213635 4.9529043692 52.5879210724
2645 1 20.5064881089 7.9773197022 19.3033644034
2646 1 35.6019180968 16.8912279018 7.0792917022
2647 1 51.6184951381 8.8769511674 48.4335466954
2648 1 26.2021715889 32.2790133351 50.2094864949
2649 1 18.7829670461 6.0650911875 56.6271957986
2650 1 45.3252147376 46.0890472733 59.0907014959
2651 1 35.447693894 48.0783937202 58.8261588841
2652 1 49.6638418484 5.5096158413 58.4440093849
2653 1 5.748911164 25.2986918072 31.905260163
2654 1 38.6465779074 56.4758869871 14.616464641
2655 1 37.5122574379 23.1693482673 42.3746054522
2656 1 27.9049933732 32.6248953658 14.9772734755
2657 1 15.3310270628 38.8677978036 17.9442089524
2658 1 53.9217126186 13.7435964685 58.4037769841
2659 1 44.523540422 4.5062255977 17.6717364761
2660 1 40.0727290518 52.0849577553 26.3386119045
2661 1 8.9627336427 50.9876044483 57.3559270223
2662 1 45.5438107816 27.1290911172 59.8893438044
2663 1 13.1865817957 6.5005631946 27.768436442
2664 1 54.5007093422 58.0714223694 35.0222799871
2665 1 8.969299104 9.3245628641 44.6202147994
2666 1 34.2266696855 28.8103973133 42.4633499651
2667 1 22.46271571 20.2252111507 59.300493058
2668 1 41.8552576357 11.4155981615 33.5588118333
2669 1 60.4057762295 18.3819841187 33.3254056012
2670 1 16.0550353526 24.4910700933 3.6359544558
2671 1 31.4283604447 53.1111172054 60.4337056787
2672 1 58.0753873016 33.3159014254 56.6083623704
2673 1 54.0726715831 19.9171125921 49.3467638843
2674 1 4.9224326987 31.4065533173 18.6221540588
2675 1 50.4838831295 33.5579372159 37.0436374311
2676 1 52.6748580427 22.4852808391 3.5826960865
2677 1 34.8028093257 35.5268176154 41.0062956724
2678 1 8.2326321849 30.2089688554 34.0899378309
2679 1 50.5084307247 4.183503436 49.5760302607
2680 1 15.0610618231 55.4911844021 46.3888078127
2681 1 4.1076974299 9.1662979288 13.644239931
2682 1 55.7038913556 45.6136052507 21.6328787139
2683 1 6.5410229959 21.0654852479 11.4416034524
2684 1 24.4750937486 49.7433737246 9.7935910257
2685 1 45.0462117846 54.2175082257 47.6995094593
2686 1 16.1266956722 39.3297707182 50.5384592557
2687 1 26.0551775567 60.9471060968 39.9630520289
2688 1 56.986313706 52.4373119548 58.1013925925
2689 1 31.374950475 46.4625672141 29.8688592996
2690 1 33.8567648301 4.6765194377 27.162909657
2691 1 38.7801028316 53.5043451918 48.3728482473
2692 1 26.3677658181 43.5407619953 18.0178517381
2693 1 18.3523637425 7.9149244963 22.6139662136
2694 1 58.6837711701 43.5226865689 57.9927068027
2695 1 51.1738396482 37.0373401857 51.0177495949
2696 1 32.4633826845 10.0481046912 12.3591937284
2697 1 60.1421082351 18.0993660805 23.1891146207
2698 1 42.1142026961 49.878531268 25.7364669735
2699 1 52.6139846711 17.3697602393 60.8732300798
2700 1 57.8636715812 34.2377481727 45.1022456065
2701 1 61.3426663963 47.5025456192 29.4565646538
2702 1 59.7226417266 7.6974596242 60.2005909858
2703 1 40.9630312646 16.0424991698 48.4954113
2704 1 3.9713795608 50.4164792813 46.008874011
2705 1 34.9123697329 54.697789798 31.6520875775
2706 1 25.3447549906 21.2106717375 57.3854890907
2707 1 19.3402149502 5.7846830159 18.2278182237
2708 1 18.2204714375 10.7241256393 60.7780133981
2709 1 55.7971255712 61.3824906422 26.686593017
2710 1 60.5337619101 38.2999378749 27.4950893483
2711 1 38.2738742762 45.6429340877 17.5526135853
2712 1 19.8368810219 45.4354748387 60.1145869407
2713 1 57.5652521218 16.7533881984 23.1950620191
2714 1 30.5207408072 56.5105218364 35.4465860453
2715 1 60.8850665687 60.7605210499 21.8465185926
2716 1 35.8506592875 30.0836653348 51.4562244551
2717 1 26.9918344921 9.4348812731 50.3696580961
2718 1 58.5238328003 60.8605189735 15.4277597481
2719 1 56.3107592206 6.0539369002 10.7015605102
2720 1 47.3893701267 45.4311600595 39.3185756153
2721 1 33.2243581367 61.4571829688 30.7111158629
2722 1 20.3343050954 49.8393484081 4.3959188503
2723 1 15.2462474821 23.342172667 14.6435777807
2724 1 17.8085849465 23.6538280031 48.5131951873
2725 1 56.5244574071 55.6539215477 19.7575240691
2726 1 26.9423311469 26.1871864774 42.8962855818
2727 1 22.7616599398 16.0542773509 6.6492948001
2728 1 28.5755333855 28.4513960215 33.9270257618
2729 1 26.2917907193 31.4027633086 32.5888611286
2730 1 15.5346963031 11.7487690859 11.7849782465
2731 1 56.554194399 39.408427977 54.2404232018
2732 1 42.0993342002 36.1734514186 36.8840489081
2733 1 59.7238078831 9.4214704728 8.0277501419
2734 1 31.7284125232 42.218165552 36.929295782
2735 1 43.202168443 55.8033062009 27.3024985952
2736 1 16.0944514438 60.9672222972 36.0508300581
2737 1 22.4956013245 26.6835027021 22.1914676981
2738 1 37.7700363418 27.169323518 58.1258235721
2739 1 29.5369128396 56.2038809734 12.5397147612
2740 1 33.5137398829 53.19123216 36.0547949903
2741 1 41.6638330392 3.9765631266 27.2236664129
2742 1 11.4885412533 7.5770422995 24.8617912583
2743 1 55.2403441297 21.1889812258 3.8738556383
2744 1 57.6276414969 22.3989852549 37.4570982334
2745 1 40.7179634671 43.9335818269 12.7560368
2746 1 8.7758512258 49.3579006793 8.1362959929
2747 1 35.5018618654 59.833834753 34.3124404993
2748 1 10.0370845119 20.8174437512 22.8316876402
2749 1 21.7216815347 38.2250123171 15.7823879528
2750 1 42.6308683526 23.7967987953 21.7546837649
2751 1 4.6306545009 60.9041332282 60.7980712906
2752 1 43.5085760747 36.9341353317 17.7188492005
2753 1 58.1228498729 12.199080435 20.0266729993
2754 1 57.3582593354 60.0704479156 23.6615829441
2755 1 26.0833402372 34.6792550399 4.4886807725
2756 1 48.2021812372 18.1993640041 46.1790745584
2757 1 57.5515497824 53.2506478358 47.5672089995
2758 1 58.6896019529 22.5316938695 7.9944680341
2759 1 10.4879789393 16.7293070658 37.9390124249
2760 1 41.0395311338 32.8058245534 41.8763067613
2761 1 61.2413857005 43.4244378801 42.4834078577
2762 1 29.5528891843 29.7257135839 47.9979872265
2763 1 20.677854813 17.8608287596 30.5187583411
2764 1 35.7476293569 27.120753098 11.9199025586
2765 1 7.3777169924 18.5911342947 30.8375272321
2766 1 57.6915468754 53.3538526899 11.6948926536
2767 1 23.0555313887 23.4297510234 42.6102273817
2768 1 3.3720398193 58.3976546623 22.9229393897
2769 1 60.9842481827 24.6596380216 9.7289859532
2770 1 54.7313751064 29.8196474935 28.9685281405
2771 1 8.368897577 31.748412108 21.3968486296
2772 1 14.8884123469 35.4279275406 32.7362633156
2773 1 52.6844205263 26.063515576 58.2028482118
2774 1 17.3267873707 57.9907826444 26.4652565051
2775 1 19.3190492089 39.8495266894 35.7615649276
2776 1 23.1963447913 40.2920830975 47.0360246941
2777 1 27.8694839065 58.3603376529 12.702743446
2778 1 29.6934110477 26.8169693185 47.8549581265
2779 1 43.0024058272 29.2776179323 25.9941875695
2780 1 51.4652621683 55.3131706058 57.1556396361
2781 1 54.5377348124 19.5301818511 54.8026272712
2782 1 54.3691085763 10.6401040604 40.6334754255
2783 1 30.1350345306 26.7770867647 23.4832193009
2784 1 7.4978369471 21.7453545125 7.4180485164
2785 1 22.4012009524 11.7685354393 49.307406101
2786 1 48.2629379931 46.9180679598 36.9760586594
2787 1 60.3521330285 49.5586545282 6.1435851844
2788 1 25.8565227896 46.9614489832 27.7419063806
2789 1 51.1193801376 26.576274608 60.6299698249
2790 1 11.703872059 50.3298338501 5.3371704425
2791 1 11.9614760393 15.2260146661 35.9804525107
2792 1 50.4993930115 54.6428638248 21.7461125143
2793 1 55.7745604421 23.5572119335 49.434925319
2794 1 14.0760093911 43.8173160195 22.281553291
2795 1 29.6078734653 4.0947181076 26.6741151419
2796 1 46.9549768144 38.9008583416 34.42083475
2797 1 4.2273101065 34.490979066 9.1840993085
2798 1 15.5033266921 30.7021947653 40.9020412774
2799 1 52.487864841 31.76392199 22.3906472356
2800 1 27.6728699133 13.8295422057 35.9651175522
2801 1 36.9348933334 29.5349303735 14.3494147927
2802 1 5.1531626016 39.6839907681 55.4488529196
2803 1 26.8302635031 18.1376160151 5.322290285
2804 1 5.7241886452 36.3199789882 34.8045002526
2805 1 7.6592038588 51.1208378333 34.6770393425
2806 1 39.6009021144 61.133924375 33.5856334338
2807 1 15.6511953417 57.3858389377 55.7690795063
2808 1 45.2404351569 29.8325335233 15.6718946204
2809 1 42.280904774 47.0276866749 48.0593270607
2810 1 17.8094595639 10.5030806665 42.7485335478
2811 1 38.4736951999 22.5432388193 4.4746752324
2812 1 3.5835695377 26.9904934121 3.7522599125
2813 1 39.2062747402 34.4430500321 26.0204260917
2814 1 5.305357692 44.8172369474 6.4153929515
2815 1 9.8924811006 5.8541101457 45.3446895518
2816 1 55.4423807508 52.3833772147 26.8314296596
2817 1 5.5212016066 52.7066941163 44.9606742022
2818 1 23.178211057 9.0835649529 31.1095332458
2819 1 53.0335677953 33.5192791265 58.0580698769
2820 1 39.6087153633 57.3999494318 24.3325311112
2821 1 20.6860762166 47.6853406573 44.24961025
2822 1 6.8868000725 6.2669878698 60.1902705004
2823 1 31.2620082138 54.9770259822 19.0926399161
2824 1 31.5257928239 50.8899388378 35.9375962578
2825 1 53.2925711635 8.1473453262 6.0467825298
2826 1 17.6207171274 53.0926336242 60.4528889539
2827 1 51.5810615131 59.3436991579 14.1712260729
2828 1 27.2967844281 59.7236912675 55.5715325879
2829 1 47.6370617765 42.6714506003 49.6320640826
2830 1 27.2269316512 9.71726608 25.5673159669
2831 1 25.8741317534 33.0496095788 16.9148425718
2832 1 54.1703955014 53.92731017 19.2770675734
2833 1 24.1248386309 48.1028246998 41.4131676902
2834 1 55.6134559156 58.1834900132 7.3370880984
2835 1 32.2495095745 25.1466833018 40.3366885853
2836 1 24.1592985567 39.4806713748 14.9741831606
2837 1 16.9044637786 28.4892378013 6.1251307571
2838 1 52.6100197389 42.7762880735 27.9992188219
2839 1 59.2490655544 38.9823143761 54.1400754312
2840 1 25.3807892278 45.7639228291 43.0159915509
2841 1 61.5659853743 45.8166331048 4.6725603362
2842 1 29.2320212114 18.2019295485 16.9192156589
2843 1 56.5225332488 15.7338175328 13.811233548
2844 1 38.6853526124 29.9930549714 5.4639724742
2845 1 22.0877963814 6.9203445654 26.0452069182
2846 1 5.6117245082 59.6210111838 57.6701479029
2847 1 18.5315436954 55.8735088247 45.7148859465
2848 1 59.2616600451 52.6121188206 56.0600355638
2849 1 26.6084022207 44.8596850456 25.8492343112
2850 1 7.1269117047 22.2672678734 50.0982934685
2851 1 55.6751455968 38.7219116201 33.4464526504
2852 1 59.8098119282 27.1227938719 8.8083636703
2853 1 30.4245328924 10.4738684451 31.0476103334
2854 1 40.6307932655 12.4288715818 45.6625838255
2855 1 19.9124479659 43.5631522009 24.0952765625
2856 1 45.348362945 17.9790770331 45.4302271343
2857 1 34.606370256 58.8370624477 42.8243920309
2858 1 38.4934615533 49.9008631658 8.2281308207
2859 1 23.0971631773 3.3920993445 42.4217181766
2860 1 33.546100727 28.0856893295 18.7985935437
2861 1 22.2823112928 27.7846460179 56.2117525301
2862 1 44.7459847826 57.3738858331 25.6357110481
2863 1 5.2570205033 12.7553371061 11.5347210524
2864 1 47.0999300727 17.816514811 48.9774421071
2865 1 34.4908624504 41.2198189354 48.8336550053
2866 1 15.5176704175 15.4253691272 36.0571856112
2867 1 44.7113499333 5.3107395044 8.6898296884
2868 1 51.7138284355 20.6522576768 39.6092984415
2869 1 37.2978595575 36.5352514861 8.0936554789
2870 1 58.9347863661 53.8184494567 15.0614116701
2871 1 32.7395868618 29.2189019503 58.4862825596
2872 1 6.6983316827 6.6672419493 52.1706702613
2873 1 52.9866883023 24.0850726928 14.9805970216
2874 1 46.1584335876 35.4020971732 46.966230225
2875 1 14.2308166722 10.9515261652 48.1229409001
2876 1 45.4499351799 9.505725283 40.0351788111
2877 1 32.90547263 12.6840849413 24.5548588562
2878 1 22.2358399545 52.2875774547 57.6160965471
2879 1 59.627366737 42.6994383573 24.4380682784
2880 1 25.1730384397 45.6917960469 36.7837011376
2881 1 22.9167004522 35.8174821338 33.2557277477
2882 1 56.1578760978 29.8098517785 12.9895596477
2883 1 21.0551064546 19.8787460418 56.847657693
2884 1 45.0547830352 16.8409665548 50.7635274685
2885 1 31.8333666121 60.6878111895 50.9174018244
2886 1 12.1206564075 60.7988876002 34.9573250676
2887 1 4.2676766153 48.5309790746 11.4452768455
2888 1 26.3096912222 50.4687230944 51.6838582123
2889 1 30.1412151602 48.2657950767 21.4126500508
2890 1 38.2515423784 39.334202113 35.53608856
2891 1 52.9265729325 5.3240103659 51.0151257427
2892 1 8.0537437712 7.0589714245 23.6415833594
2893 1 12.076633998 21.8083269658 5.4523109088
2894 1 8.686890974 6.3364383227 54.3097512083
2895 1 39.9704571229 12.5406476865 41.7354350509
2896 1 9.3724335902 46.2710260019 35.1169135905
2897 1 10.5892013272 14.3310478271 17.0767051
2898 1 56.0224270153 56.2688942007 56.2793896096
2899 1 3.5313846155 24.1318355701 7.1380484997
2900 1 21.805586498 11.5809591593 31.702523848
2901 1 24.6971299544 26.5357506681 28.9098121586
2902 1 5.8782146015 41.2434336054 57.7637319655
2903 1 41.0496766958 41.8262786456 50.5652808562
2904 1 55.0247800927 20.7497483638 6.7869712416
2905 1 48.7193716641 53.6460915196 7.3404174754
2906 1 52.2995305593 47.6784603337 59.0414313819
2907 1 40.5832140785 24.5682113486 55.8843540806
2908 1 3.8733273694 14.2945471273 8.1735896792
2909 1 52.4182452954 15.1052591561 8.2052974756
2910 1 37.5443850507 57.2877068646 4.7911001488
2911 1 58.2390573724 31.8389058557 23.4397799696
2912 1 41.8834203163 9.2120870655 8.7259572182
2913 1 29.1913223481 8.4900670726 20.3584445358
2914 1 14.1641708258 41.7103043774 39.3188088467
2915 1 41.569782514 12.1691102118 8.8494590268
2916 1 26.7117236905 24.1081042845 6.6761397237
2917 1 28.169186138 42.512969926 30.5415567015
2918 1 12.5753991515 19.963700546 26.5665955087
2919 1 25.0751395979 59.9217046485 17.0641106094
2920 1 23.329344945 48.0717466279 54.6790146776
2921 1 11.8586210322 29.6017511434 8.4516072298
2922 1 6.0605023615 60.4765036239 38.5963165604
2923 1 26.8640820428 38.8507719181 23.2758183597
2924 1 22.4523369168 22.7414854316 4.4736606762
2925 1 29.2677639095 29.8174317961 27.370718753
2926 1 14.5987973694 16.6150820324 50.3751973397
2927 1 31.9117323318 40.879242917 42.6431129963
2928 1 31.1538471945 47.5482006479 58.282729935
2929 1 55.7965424929 30.4341536839 20.5149427439
2930 1 5.4400604343 22.5222480015 29.1797190905
2931 1 36.8394434204 36.6143752075 57.9056532168
2932 1 31.5222943542 44.7355476816 51.2140720489
2933 1 4.4860277664 41.5622024965 22.2383471911
2934 1 15.6893286607 12.1774482311 24.0613414071
2935 1 17.3015983894 24.9921675598 34.8328378566
2936 1 31.2363527699 20.8412916525 7.4166083131
2937 1 43.6642579732 14.2476676343 15.519186421
2938 1 48.6096363334 55.0022732714 55.1441362149
2939 1 7.2342913992 15.773233624 15.4981372954
2940 1 36.4381689539 50.4133306586 14.6509828747
2941 1 52.426116852 36.1581164601 14.7792017866
2942 1 6.6606298417 42.5725605254 60.148230557
2943 1 41.8154333898 53.689122696 34.4871890573
2944 1 3.5648713837 23.5758704382 12.3433339994
2945 1 21.7196990686 15.6189511133 23.4888751601
2946 1 12.2698078293 41.8244127952 14.08784588
2947 1 38.6416800499 27.7038896773 52.064141861
2948 1 4.2298756509 43.469334907 45.0718089208
2949 1 7.6459563204 49.6758532608 55.0059466645
2950 1 28.7881820311 42.8139549298 38.8161370688
2951 1 38.4044255012 7.600429569 39.667489653
2952 1 6.5453494366 52.7880335352 47.8123934127
2953 1 6.2877454563 30.8263904372 3.6060489543
2954 1 55.627508102 56.9400755991 43.3920187282
2955 1 41.8524005522 46.3668257619 57.9336409738
2956 1 41.0257121788 9.2913857104 13.4466347048
2957 1 27.4281519627 23.9687485776 28.4664394409
2958 1 15.9333469173 48.7973875368 52.8373619569
2959 1 40.7510823129 11.2852801678 11.4664425868
2960 1 7.518664503 42.1898862558 11.1276158032
2961 1 14.5646289827 36.0444745049 39.5245771687
2962 1 36.8984509414 35.7557341449 28.5558836477
2963 1 58.0413355306 9.6402997481 27.172005678
2964 1 43.8800552415 57.7859472476 21.3134684368
2965 1 13.8365974528 44.1126451641 28.3388036072
2966 1 8.5202588655 22.1329266396 40.8125970705
2967 1 8.8707180606 57.0035728228 21.0654852479
2968 1 46.7662926857 39.2827163016 47.259052133
2969 1 9.123814846 36.6221301486 28.2268525791
2970 1 58.2464041587 9.4833350774 51.1908072259
2971 1 4.839559784 58.8421935365 34.7138898892
2972 1 16.1497855717 39.4047545839 6.734470874
2973 1 10.4267557208 53.0665700255 26.1021736654
2974 1 29.0896918053 59.3839315586 45.703224381
2975 1 13.63380283 37.3915602357 25.8610708001
2976 1 58.6594568062 59.891851041 18.2064192512
2977 1 20.1468454311 33.4490765026 41.4399309829
2978 1 10.7481484641 26.4544112492 44.4236591141
2979 1 12.7039096025 31.8136002587 47.1361975412
2980 1 43.4544081033 22.3670325656 43.1723731433
2981 1 22.2464519791 31.3188000375 54.337155887
2982 1 60.7521247228 39.844278985 21.1286909325
2983 1 20.1268458463 42.1096546856 19.8616035406
2984 1 30.3594030495 30.6716997717 40.9284547231
2985 1 28.6203137967 27.2238413364 45.045745322
2986 1 6.4341039332 50.5578174543 11.6810736986
2987 1 24.3989437263 37.6306806349 43.1547641795
2988 1 25.2544361664 60.9444822446 10.4459389959
2989 1 37.4940653958 20.7006531734 46.3508494172
2990 1 21.1236764594 16.5274453682 13.5434256979
2991 1 11.270703211 5.4431449184 57.0684694345
2992 1 15.9556788151 16.1793476401 6.294969796
2993 1 42.8840992459 16.2097843259 13.5589355799
2994 1 22.4281391685 46.0077078544 35.8556154528
2995 1 19.859795998 28.0464481619 53.5411957385
2996 1 42.7765213048 60.8534637264 4.021098645
2997 1 36.8483062101 43.2472987012 58.4158467044
2998 1 21.0997119424 43.2394854524 32.7002290784
2999 1 17.5663742325 45.085219721 56.546089611
3000 1 24.5475703778 26.6319585829 24.12244801
3001 1 17.2525031989 17.4773381804 19.1930459944
3002 1 3.5268715897 51.826654081 4.6889390049
3003 1 53.9752392039 61.1752063167 54.5293384853
3004 1 57.8279288832 20.2705163324 40.9214577838
3005 1 17.2003760014 14.5612471287 24.2218045474
3006 1 57.1001888924 41.1981284237 52.1434988138
3007 1 19.2287886925 53.9688253429 54.4201279251
3008 1 34.5701610953 43.1675335937 9.6307955723
3009 1 21.8886751517 25.9655584264 6.5922580836
3010 1 55.6515309268 33.276893489 10.108569908
3011 1 38.6855275359 33.8785719574 40.8327715787
3012 1 16.9946076794 23.3069547394 51.4003655567
3013 1 56.9309212702 57.0035728228 37.5462509011
3014 1 50.5361269426 15.9977770663 35.7772497331
3015 1 39.482653841 34.5949419218 28.9217069553
3016 1 61.0760247027 11.8192632489 8.7834545665
3017 1 15.7381906198 6.5282652433 52.0167959054
3018 1 24.3718888945 29.7292703614 38.2439040531
3019 1 32.4311967639 29.6170277941 61.3547944243
3020 1 45.1237028869 17.2617741434 22.4164776031
3021 1 50.8262083827 46.8418013219 23.0229373133
3022 1 25.4399716724 45.8536002673 56.7598461053
3023 1 42.1175262423 44.9226574989 8.036630424
3024 1 55.2796436052 30.941140241 9.0716526638
3025 1 22.6918071629 36.0775350429 6.4778406344
3026 1 57.4348758203 51.4949408524 31.8487598785
3027 1 34.5144188125 50.432105779 30.4973593685
3028 1 38.139358119 19.5977023149 11.6635813504
3029 1 43.5390127605 33.6473814227 11.092922646
3030 1 17.5193781238 46.0243255852 48.5516200454
3031 1 36.2577645367 11.6359434403 50.3749641084
3032 1 25.799381119 29.3702107618 18.6195302065
3033 1 42.4739619897 39.7595577121 17.9763365652
3034 1 33.3737427899 37.129349937 12.3341213627
3035 1 4.9072026943 54.4576198579 4.6959709288
3036 1 20.9937666205 54.5691044235 35.7267551548
3037 1 30.5280875934 7.6467084914 25.9799604597
3038 1 51.7008840979 44.8380528417 14.9371576904
3039 1 23.3488197593 51.4639793961 18.3040265538
3040 1 11.6597330338 7.5592875662 7.1020200933
3041 1 26.9344595902 57.8727092944 31.0732074695
3042 1 17.0718072425 58.4201614836 43.7408161503
3043 1 9.3460201445 23.3497526845 15.9934039793
3044 1 33.8065617909 10.0255395621 21.6289720895
3045 1 49.1826856587 35.5890903748 11.2751929137
3046 1 31.6150621073 56.6007823529 29.0450863176
3047 1 17.8750558694 34.7140065049 22.5498859116
3048 1 20.4404253408 12.3663655911 45.1890659612
3049 1 41.7848800884 10.2886244783 26.913935235
3050 1 42.304169597 15.3937662848 6.1930826989
3051 1 61.0424393942 21.0407044213 4.7582320267
3052 1 48.360137141 44.3857007186 55.0319519554
3053 1 34.1786823438 49.39813308 27.8911161103
3054 1 7.4997027976 46.0062501587 40.5126616077
3055 1 56.4101740659 23.9302654117 26.4906204099
3056 1 16.6373556224 54.433305494 9.7453704527
3057 1 11.3206147111 23.4120837517 54.8862406954
3058 1 50.2170665124 57.7669972038 56.8246261013
3059 1 47.4449957938 43.2005941317 37.3716189588
3060 1 55.7498379234 8.5522173856 4.7017608961
3061 1 21.5590026969 6.6780463897 53.7434072831
3062 1 11.4755969157 52.3769633537 34.8850233619
3063 1 39.9599034062 26.4815243889 26.806007447
3064 1 13.2175432519 58.8236516475 15.9598769787
3065 1 13.9544375715 35.4354492503 28.0378186035
3066 1 5.0991462305 18.6585381429 16.0176017276
3067 1 44.7943219713 8.7035028739 59.1381057593
3068 1 25.7806643064 51.6696894103 23.502752423
3069 1 26.0794336128 47.2349710004 9.245322527
3070 1 25.7209570914 43.3858964064 58.3345655933
3071 1 38.1603489367 32.545538413 53.1881418451
3072 1 38.460167784 16.4984080703 6.7118299447
3073 1 45.0586896596 27.0636114273 45.4409557745
3074 1 19.2456979624 51.434009173 19.417181282
3075 1 32.5358010059 48.4231095943 39.1813189902
3076 1 29.1712644555 59.9700418372 34.99429223
3077 1 24.0651314159 4.5539680466 39.086277232
3078 1 41.7883202502 56.4836419281 16.9185159649
3079 1 6.8928932404 33.6772933381 10.266117657
3080 1 36.6831201358 47.6665072292 8.1147279276
3081 1 56.0992767315 41.0326508102 47.2665738427
3082 1 41.2397019045 23.7176750739 34.7182046685
3083 1 40.1502784619 43.9804030121 29.3302699002
3084 1 33.0043627049 51.8814634386 21.60856435
3085 1 30.2796379419 20.9784899698 48.1794994925
3086 1 31.3245142045 41.7784662274 11.069657823
3087 1 10.8117039957 59.7590258107 47.4788726414
3088 1 15.0221705024 23.8521329233 9.2514448488
3089 1 57.8442550748 39.9797280675 17.2876628187
3090 1 19.3636546967 7.4472082608 32.5679286186
3091 1 17.9897473654 53.6473742918 22.1743835047
3092 1 16.6404459372 25.2266233328 44.9802656321
3093 1 4.7443256099 45.8991969881 10.3395272114
3094 1 11.0833601624 10.3145131535 22.7425349725
3095 1 42.3757133009 11.8158230871 22.8346613394
3096 1 15.2522531883 51.1173393637 35.1839092839
3097 1 59.683692098 59.5793210874 47.1301335272
3098 1 48.1744850193 26.2446196871 59.9897498828
3099 1 6.7334271639 33.1072760198 29.0370981452
3100 1 22.8084228172 54.1642148717 48.3843348893
3101 1 25.2083146751 16.8774089468 58.6651126655
3102 1 30.3701899975 9.0502128757 39.5807859141
3103 1 3.9675720597 34.5986736228 20.9160422869
3104 1 5.066447201 11.3763569938 45.8187321866
3105 1 21.6996994838 14.8957008253 45.9289339799
3106 1 42.89284542 24.5018570413 47.3444730998
3107 1 31.3598487478 5.1669815566 54.5859553855
3108 1 40.7705571272 35.5855919052 18.0812323462
3109 1 60.0445592403 33.9322734662 4.4693342355
3110 1 53.5105841293 34.1757669524 55.3882127793
3111 1 35.9383542595 31.0102350162 58.4082666868
3112 1 30.6712916169 17.495705146 56.6827631578
3113 1 46.8992928395 41.5115329947 29.5395949997
3114 1 60.8260007398 41.940853526 32.2986630728
3115 1 60.1966260535 17.5801348797 43.7938179652
3116 1 8.364308751 31.0455695594 13.1032599107
3117 1 9.0048377247 39.5884242394 22.5139682901
3118 1 14.2162980233 19.8604373841 6.2388834971
3119 1 51.3579757664 55.1176644613 54.3744728964
3120 1 5.1367489482 33.6161867352 43.4725418375
3121 1 17.6768675649 10.7163123904 22.6749562008
3122 1 26.5584324129 47.7501789611 38.2716002709
3123 1 9.7427466004 20.0217751418 55.4359085819
3124 1 37.6656653312 14.7339549127 37.0533748382
3125 1 4.7845988261 19.0156152764 12.3147048562
3126 1 32.7429687157 50.1983496999 44.366692367
3127 1 30.8076736246 34.892428456 27.5067509137
3128 1 3.6229797981 12.166369744 21.4710161857
3129 1 31.6677140752 21.8791709758 44.2672775217
3130 1 20.5931335401 51.8193656026 51.9342320221
3131 1 44.6124015506 32.1932425213 6.8081311521
3132 1 33.7145520396 20.4141285107 60.4706145333
3133 1 50.0982351607 25.6693546644 33.7121614187
3134 1 15.5599435922 59.1522162535 58.0347467461
3135 1 30.7010869166 38.5374839628 7.6614312178
3136 1 55.578237988 50.2237719125 11.5663238947
3137 1 36.6961227812 21.863602786 20.6858429853
3138 1 27.9609688873 16.9330929217 43.6595350392
3139 1 8.4852391845 36.9600240069 50.7244029165
3140 1 24.7900726309 23.3899850853 34.4944192278
3141 1 57.0889937896 58.0507813986 21.6121211275
3142 1 45.5063771565 37.0158829053 19.7293030808
3143 1 15.4355146891 15.9471075645 20.914642899
3144 1 33.1677995444 12.3930122681 18.2638524609
3145 1 17.4542482808 28.4225919548 18.6923566827
3146 1 36.7440518151 29.6907871955 11.3388067532
3147 1 11.1017271279 50.4843495921 53.9131996758
3148 1 41.3016831247 57.7612830367 14.4502873336
3149 1 10.4301375748 33.955305058 39.439447741
3150 1 60.7394719243 34.3968119252 32.580289878
3151 1 18.7451835741 22.1525763774 24.5062301283
3152 1 15.6634982933 59.6079502306 28.3174046347
3153 1 21.4420955035 7.8567507772 45.8494604115
3154 1 45.1533232631 56.3439363742 7.7032904069
3155 1 28.1571747256 59.05758265 23.518612152
3156 1 25.9796106127 31.4821785692 41.5486750806
3157 1 7.1293023256 24.9363086614 14.5371659961
3158 1 35.2099145749 29.1544134935 61.3209175767
3159 1 13.9191613361 40.2475359176 25.9217109403
3160 1 16.5444712537 41.3013915856 29.6651900594
3161 1 20.9356920246 21.9788190524 60.5939938956
3162 1 31.0813705653 21.3737004222 41.4888512499
3163 1 50.3336238589 7.9780543808 38.0680476463
3164 1 38.2756818188 54.6359835012 5.6892156105
3165 1 55.5309503402 6.7627035239 13.4008630605
3166 1 10.862198574 54.1639816404 32.5318943814
3167 1 45.8798970973 59.0810807044 50.0387028691
3168 1 33.8360655514 27.8758394596 9.8267098715
3169 1 56.7074273687 36.683703214 10.624360947
3170 1 24.7800436846 42.7402538363 36.5326276339
3171 1 9.7418136752 37.6879389211 47.9997947692
3172 1 34.6997793951 56.1373517426 14.3690645304
3173 1 23.8504419963 45.5936639738 33.4240624447
3174 1 25.7807226143 50.8862071368 47.6859237356
3175 1 32.6249536736 38.073237043 52.9873879962
3176 1 58.1752103017 33.2399846344 52.105657034
3177 1 17.1845745803 52.6929917769 33.4199808968
3178 1 41.1678666614 30.3408028526 52.9386426527
3179 1 38.8432502084 39.1842343816 38.3767875911
3180 1 30.7670913769 39.3619566388 44.7740891553
3181 1 42.1377590583 51.1812447423 23.0899913145
3182 1 39.2601511725 34.0727953297 9.7969145719
3183 1 15.6661221455 54.5433323639 38.2848944555
3184 1 38.5405742776 38.0982511008 24.9858120067
3185 1 50.8934373074 19.5529219036 25.7133770739
3186 1 17.8375056287 42.3664423564 55.837999358
3187 1 42.7021788252 34.2750068742 40.2338335782
3188 1 28.1929174237 28.0432995392 29.5223941907
3189 1 56.912437689 15.334350609 35.3450138104
3190 1 53.2747872763 12.9421553843 23.1378620406
3191 1 35.5715980267 20.974350114 49.3681628569
3192 1 59.3656812087 7.3369248365 37.6206516886
3193 1 25.6915116387 15.3168582608 60.9498465647
3194 1 6.7069495796 27.7273294238 27.8660437447
3195 1 22.3934460113 44.3271596602 21.385245372
3196 1 54.3380305044 10.0168516959 37.8238544662
3197 1 37.3752923519 51.0211897567 45.2802594028
3198 1 50.9768175002 5.0642315036 6.0791725277
3199 1 56.1695376632 17.7140679587 9.7415221361
3200 1 49.9514160519 41.4557907119 60.7094433933
3201 1 6.612776608 36.0840072117 29.4442617023
3202 1 26.8937607268 43.7791827006 51.5082933448
3203 1 6.871086113 9.6230989391 52.5702538007
3204 1 60.800636835 40.408640444 56.2479616907
3205 1 33.108558792 52.355622689 40.0412428251
3206 1 54.6621637156 29.8601131255 33.524176984
3207 1 17.234252849 18.8897286776 24.0419832085
3208 1 13.6559014965 55.8742668265 12.9689769848
3209 1 13.5708303767 22.4702374197 48.6889932862
3210 1 12.7682814437 55.6188202357 34.2720914829
3211 1 34.5254972997 26.9542842514 44.6714090717
3212 1 14.3653911373 28.360144272 18.7324141599
3213 1 6.0007776541 20.6519078299 40.5328944237
3214 1 8.1287742832 41.8721085978 15.9522386533
3215 1 14.5667863723 8.8111449536 26.5439720717
3216 1 7.8489783438 50.5409664923 26.5988980449
3217 1 53.6595606277 11.4831186254 53.0113525132
3218 1 19.3310023135 41.2145129231 32.3270006768
3219 1 14.8787332476 31.8343578452 34.6750568764
3220 1 44.6819627884 39.9418862876 19.8112838858
3221 1 12.6207043332 51.4588483073 18.9744499504
3222 1 22.3452254383 12.8711947586 42.8013021313
3223 1 11.2992740463 32.616382423 60.6278124353
3224 1 46.5651889899 23.1559374671 8.2450051059
3225 1 25.279508532 8.6482037306 32.981389421
3226 1 48.3410121737 55.9690753535 60.318256181
3227 1 28.8870137981 28.8035169897 58.6846457876
3228 1 26.2657271205 37.3575084646 41.0624461099
3229 1 39.6952441788 33.4470357286 21.6353276427
3230 1 10.4464637664 24.0299717961 21.3564996132
3231 1 12.3366869071 41.7336858161 27.9361297529
3232 1 61.2691402262 58.2330516662 36.8066161137
3233 1 44.3465761666 44.7877914947 40.6126595312
3234 1 38.1769666675 3.4728616325 13.9728628449
3235 1 49.3914859877 44.8395105374 8.8143926996
3236 1 3.6322145918 59.3212506444 4.6129988908
3237 1 18.1723091723 20.1744833411 18.3632673062
3238 1 48.3135491871 57.0047389794 19.1902472187
3239 1 14.0582255038 3.4251209328 15.7608140568
3240 1 19.8438779612 19.513680736 25.1283746441
3241 1 9.6912024812 60.9392345402 36.4200935275
3242 1 59.0097702318 57.1884669428 18.8835480479
3243 1 10.5576567928 29.0256698111 4.118402747
3244 1 38.455095003 15.7646040655 10.7177117783
3245 1 43.5801780865 4.5114907945 53.7258566271
3246 1 60.5373186876 11.6014835145 13.8968294383
3247 1 20.113143507 4.4524599503 54.6186077687
3248 1 9.3710925101 41.3638975763 43.4440876179
3249 1 46.3049028494 32.8937527568 10.2890909409
3250 1 25.5007867361 37.4057873455 57.0523764742
3251 1 36.1013829442 54.2882939279 18.8934020707
3252 1 12.8993574391 9.5993676535 36.1183505219
3253 1 37.9627437105 30.9413151645 48.6806552669
3254 1 14.3143134807 24.3289743338 17.1901138238
3255 1 35.9671000183 47.2736290898 39.5320405706
3256 1 60.5805247875 16.9332095374 35.8788802758
3257 1 34.8303889279 11.7783311542 58.938518067
3258 1 40.1019412732 42.3610197285 33.1027280093
3259 1 18.2277599159 3.9417183691 16.2487339544
3260 1 17.120552586 42.3541977127 33.5889569799
3261 1 58.446341698 34.8534788275 34.0147207338
3262 1 33.6608505308 54.1196676917 58.9667973632
3263 1 33.0859353551 29.1959286664 32.1916099022
3264 1 44.8974685176 12.3642665093 42.0364200547
3265 1 36.1364259484 34.4487641992 37.3972744028
3266 1 5.9605685765 25.8257945647 21.4939894696
3267 1 50.3785791936 48.9355770872 19.488025292
3268 1 27.7265714221 26.0308631928 18.311723187
3269 1 57.9391219095 43.715277322 26.4984336587
3270 1 58.0325893565 29.3776741637 35.9792863542
3271 1 13.4910652691 37.5053771143 58.6588154201
3272 1 50.2832458962 24.9841793875 8.907714377
3273 1 25.9539551687 8.5901582887 57.6010531277
3274 1 18.4293883822 29.6022759139 38.0296227883
3275 1 19.8140243536 47.1926395179 6.7864523019
3276 1 16.0995825326 61.4858121119 8.0978536425
3277 1 18.8799912704 33.6619583795 18.1553999024
3278 1 46.5781916353 36.8788012037 28.0368856782
3279 1 11.5824751628 28.2976965891 17.9773277983
3280 1 37.8338834125 29.2349949106 61.2328727577
3281 1 46.4165040306 15.3014649944 52.6741583487
3282 1 21.5018027185 40.5693951235 49.5055944055
3283 1 16.9393318592 11.2741433728 14.2033536856
3284 1 23.0045703478 58.6634800463 18.7359126295
3285 1 12.8872877189 26.9718349074 55.9084352132
3286 1 53.7158276809 5.8350318247 9.6026328918
3287 1 59.3555356468 55.30366643 57.1789627669
3288 1 6.0232261676 55.6043015868 30.1047144604
3289 1 20.2134329697 45.1295919775 45.6338963745
3290 1 21.1401775745 58.6917010346 51.951491139
3291 1 40.3003045012 28.6642778984 37.8714336532
3292 1 31.6943607522 45.6189695708 13.7399230754
3293 1 49.034817009 56.629061649 51.954173299
3294 1 59.1326831314 26.1466625375 6.1630483371
3295 1 12.4598913459 55.6364291995 50.7229452208
3296 1 34.5278296128 34.1937257632 56.5323872716
3297 1 12.616389554 26.2313255025 28.1802063174
3298 1 7.3161264346 58.0515394003 59.5502837895
3299 1 46.2766235533 8.2185450139 14.452852878
3300 1 57.5771469186 48.6132514187 44.0498476342
3301 1 40.0975098783 7.1782750696 61.608899935
3302 1 48.6422304088 22.3840584512 32.8982424595
3303 1 34.6105101117 59.3908701901 36.9547179946
3304 1 51.5395463401 43.5430943084 55.9831275398
3305 1 18.0884625168 34.0256242975 35.9066348015
3306 1 40.3716149738 59.4123274705 50.7704660999
3307 1 5.1956456844 23.8327747247 26.4552858666
3308 1 59.386497103 46.8042510812 11.4001465873
3309 1 26.8230333325 60.891713661 8.1996532779
3310 1 26.9702022882 60.7247200441 18.9163170468
3311 1 45.0352499131 39.0438291338 6.5083531203
3312 1 10.2122412247 16.7670905378 53.6382782708
3313 1 50.3806782754 5.2597259865 14.6801950961
3314 1 26.9192995551 33.7053977108 57.9812784686
3315 1 44.2748575392 12.6906154179 60.1932441995
3316 1 3.9522837474 47.7202670458 42.266735972
3317 1 32.4391849363 4.6188588274 47.1672173052
3318 1 18.686176053 15.1328387583 18.3737044073
3319 1 23.5844999966 28.1109366187 61.4869199606
3320 1 51.7250818461 7.3622129412 57.6428598398
3321 1 48.5812404216 16.3641834522 50.8060921823
3322 1 6.2347144875 8.8199727587 10.8075641399
3323 1 16.4318788395 37.800997798 61.4356090727
3324 1 9.4531899308 29.9818598686 6.6929265472
3325 1 13.7423136963 21.9726384228 27.8975882791
3326 1 23.7791898315 19.7935583063 49.8173663573
3327 1 59.6957618183 23.2744189718 14.0977582107
3328 1 8.1737587719 52.3806367468 53.8717428107
3329 1 7.6887834195 11.5286570384 29.2660146746
3330 1 54.7560393173 51.6552290692 24.0976671834
3331 1 21.5030271829 43.6250751134 58.7872092555
3332 1 51.2465495087 38.3829682208 16.3609765217
3333 1 25.739324057 7.8034632539 19.5516974393
3334 1 44.0766109269 32.9887362072 48.5798993416
3335 1 31.8942399837 32.5667624621 47.0431965569
3336 1 34.3164637394 24.1249552465 27.9942043487
3337 1 14.4477800971 39.5270844053 54.6604144808
3338 1 14.8682378387 45.3023580693 54.0015943418
3339 1 37.1062017296 8.5446606912 47.4280282161
3340 1 23.8867677726 44.6177075629 25.4837025427
3341 1 6.6433648941 61.3508877999 27.4343909002
3342 1 21.9096076616 11.0502996244 12.2807697008
3343 1 41.806920447 13.8783458571 51.839481803
3344 1 15.2405916229 18.9387655602 14.2076684648
3345 1 26.4306216557 47.621027124 59.0134436249
3346 1 39.9718565108 17.1198528921 42.1350768983
3347 1 48.607070789 39.8261452507 57.2026940526
3348 1 10.9105357627 43.3790743906 26.0139539229
3349 1 41.9862753234 5.4651386308 16.7348463094
3350 1 15.0447939393 18.2014630858 60.237616456
3351 1 56.0928628705 23.5031605778 6.9994624561
3352 1 28.0127462378 55.2271082529 16.9060380899
3353 1 29.888275806 12.0028162888 51.8314353229
3354 1 11.0091342984 57.4666535861 60.4715474586
3355 1 31.1783947897 60.8821511774 38.1691534186
3356 1 59.22422642 10.7256416428 33.8761230287
3357 1 7.593129429 29.1513814865 53.5655101025
3358 1 45.0410806958 42.0054585985 16.502547926
3359 1 53.4336177974 17.7996638489 8.5841001055
3360 1 12.2835684765 15.5075831634 58.866332977
3361 1 8.4314093985 59.0883691828 14.4506371806
3362 1 54.2216480814 8.2646315205 56.3728570565
3363 1 13.2081556917 26.3154053893 20.4263148466
3364 1 52.6680943347 18.2019878563 20.5397235704
3365 1 10.4334611209 4.2139459525 8.7126222181
3366 1 46.7809862582 46.8135803335 51.3460226618
3367 1 59.282592555 32.9023823152 41.9136820785
3368 1 3.7667558214 28.0972342793 25.6058574406
3369 1 52.8871568413 33.2262239872 60.9439574742
3370 1 27.2977756612 7.0446568529 53.0321100996
3371 1 49.579645346 17.0442276403 12.938190452
3372 1 9.7562157085 3.7089797616 50.5391589496
3373 1 24.4133457597 4.3220253409 56.6544838617
3374 1 17.7800141112 45.1174639494 27.0531743263
3375 1 31.1241102026 23.352609768 46.7276345963
3376 1 14.6388548467 35.7689700216 20.3755287292
3377 1 41.3970164221 40.2220553971 21.4512498323
3378 1 24.3597025587 3.4581843862 60.8749210068
3379 1 40.918367469 45.4572819661 36.4305306285
3380 1 46.9229658173 39.7986239563 4.5693962976
3381 1 7.8912048722 53.4992724108 56.369650126
3382 1 10.4881538628 8.185105475 10.4561428657
3383 1 58.1759099956 14.9544168072 20.8674718669
3384 1 41.786687631 40.7423361388 25.4472601508
3385 1 33.1636596887 24.1736422822 14.7141885593
3386 1 5.6394673724 36.2984634 3.7942083126
3387 1 58.0886814862 30.4498967972 46.3395376988
3388 1 58.8428932305 45.9664259128 23.136054498
3389 1 41.5285588802 35.0192479801 43.7256561152
3390 1 31.0669102242 59.1452776221 43.4751656898
3391 1 34.9299203889 10.6636604225 56.4539049362
3392 1 10.3286819555 42.2541997891 17.629288378
3393 1 53.3006176437 27.3647713546 40.8665318107
3394 1 21.8247697731 53.0572407731 7.9948820197
3395 1 22.001908952 3.6949071675 57.8840793207
3396 1 9.7419885987 51.090576071 3.4367970752
3397 1 24.1129438341 24.2502587671 17.3009570033
3398 1 54.4351713445 46.423792509 55.6780026803
3399 1 6.3708166176 34.4944192278 22.4198011492
3400 1 22.1799810561 55.4309524166 42.8917375712
3401 1 15.5661242219 46.0274159 16.122380893
3402 1 5.4055830161 51.8621052399 26.5075879876
3403 1 48.1190342757 53.6059757345 13.7070957687
3404 1 5.8826226732 46.6169663404 38.105947734
3405 1 16.7058090115 28.0038251402 47.8220142042
3406 1 29.1769203148 10.6522903962 28.389473109
3407 1 41.09008402 19.8529739822 24.8798083769
3408 1 18.4599999914 7.2006944292 48.5182096604
3409 1 9.3257873284 32.0287561409 18.6063526376
3410 1 15.4653682966 9.0278868087 15.4745809333
3411 1 18.4487465808 20.9846705994 5.7502755671
3412 1 34.7719061773 47.0309519132 29.2967428996
3413 1 7.794926988 30.4124048643 24.7441843709
3414 1 24.6628449521 5.0131421854 45.807128929
3415 1 21.1051928782 61.1702501514 9.853531472
3416 1 23.1889396972 48.587829206 7.5650775334
3417 1 46.2798304838 34.0908707561 19.9895892212
3418 1 56.6960573424 6.1886338117 3.511289989
3419 1 49.0324263881 6.8765378949 16.7707639309
3420 1 58.4203947149 25.7380995926 34.8554612936
3421 1 48.4292319162 40.039260359 50.1604496122
3422 1 8.8193080494 42.8457910035 52.1637899376
3423 1 26.6035043633 5.4506083202 55.2693814276
3424 1 9.8809944586 16.654031661 15.3154005651
3425 1 48.0411350186 43.6600598097 18.3316061561
3426 1 34.2250370664 48.6140094204 7.1169760509
3427 1 9.6687539678 23.8119005225 52.3265270832
3428 1 46.3956298285 38.2134090594 13.1217434919
3429 1 40.6558656312 40.4597764084 13.6254065029
3430 1 60.1591924285 21.8434865856 47.2539210442
3431 1 31.4733740873 25.8274854916 59.8784985486
3432 1 9.4737725938 39.2849319991 45.4740746203
3433 1 46.406241853 30.6511754165 53.3565348499
3434 1 39.7325611882 5.0356023605 5.3939097891
3435 1 3.7437918667 56.7024712034 45.52882567
3436 1 22.3363626486 48.5588502159 37.281475058
3437 1 54.5569763954 46.8106066344 16.4380011614
3438 1 30.0665811415 58.0352715165 48.0515721197
3439 1 54.9502626896 61.4597485132 24.0794168335
3440 1 42.9373342921 49.6068167934 49.3820401197
3441 1 17.4408374806 23.0978045634 41.1937553367
3442 1 18.7180121266 34.4709794813 27.2380101384
3443 1 61.1814452542 21.4448359714 38.9700697324
3444 1 40.3180883884 50.5473803533 17.3853284292
3445 1 17.3139596487 27.5312402011 8.8552081786
3446 1 39.0985801835 48.3883581293 42.3946633448
3447 1 14.6944805138 21.0745812689 46.4991845295
3448 1 50.2672112438 58.5633655071 48.8346462384
3449 1 57.2766866852 35.4430875756 22.9588570113
3450 1 30.5690779959 47.3263393655 41.007753368
3451 1 25.7841044682 30.6738571613 14.1999135238
3452 1 5.2134295717 44.5431318519 27.9847001729
3453 1 17.5603685263 30.6901250451 24.0096806723
3454 1 24.2981294932 20.4250320744 8.0288230059
3455 1 18.9973649265 49.8152672755 59.3804913968
3456 1 40.6990134232 32.4759771752 46.5878707346
3457 1 11.9656742029 37.9042609599 6.9018551534
3458 1 15.4024541511 49.2960360747 14.2076684648
3459 1 47.2631919887 54.3870090793 52.7664013313
3460 1 46.0239757382 24.6841856168 4.4667686911
3461 1 50.6968233142 34.7451428846 4.0036004661
3462 1 56.6321519639 40.0337794232 56.856112328
3463 1 21.3240221535 51.9075270373 47.1555557398
3464 1 45.0806717105 48.3611283741 14.2675506033
3465 1 11.3416638367 51.9333574047 45.9807113305
3466 1 56.8822925424 8.7170536129 38.0210515377
3467 1 39.3930347106 25.6734362123 11.8059107565
3468 1 57.8454212313 23.0511583017 40.3610612571
3469 1 58.3605125764 39.8439874458 48.5390838625
3470 1 24.6265774836 56.94112514 32.5044313949
3471 1 27.8332747458 16.893210368 35.8250621513
3472 1 52.916602294 45.5445104755 21.349152827
3473 1 54.6035060415 58.3822030881 10.1227970178
3474 1 22.4441155131 38.2528251506 37.1794363605
3475 1 12.0038658297 36.2740907283 21.0588964634
3476 1 3.9192506141 24.3236683215 51.394184927
3477 1 27.6802750073 48.9974999996 35.9989360919
3478 1 30.3660501418 16.8806741851 4.4212419396
3479 1 4.2868307365 4.0051456235 10.4641893458
3480 1 7.7104214542 36.9226486897 37.8400057343
3481 1 48.1259729071 19.5364790964 13.9240008857
3482 1 27.8192808673 48.4241591352 10.9932745694
3483 1 27.480337468 29.8442533965 16.2795204872
3484 1 4.4960625434 40.3571546326 48.1162938078
3485 1 39.1702988109 31.5901646651 19.2816738917
3486 1 22.17799859 59.6463167808 29.3653129043
3487 1 48.470105703 11.5154211616 26.2808288478
3488 1 41.3634311137 37.8295686333 19.9012528631
3489 1 3.7839280596 33.3164261958 57.8498526262
3490 1 54.2555832368 17.9653746937 27.4140414685
3491 1 54.0258503979 49.1578465243 55.0646626464
3492 1 54.1249153962 23.4914407045 37.7726018862
3493 1 19.4279099222 18.2650769253 54.9774924449
3494 1 16.8436487149 35.0428626501 57.9924735714
3495 1 23.1526139209 32.0568605136 39.419214925
3496 1 6.3134417157 35.6728204146 7.3542131073
3497 1 6.7855776845 19.3523429782 52.1324786345
3498 1 20.249408899 11.9748285318 4.3303750218
3499 1 53.6205526913 43.3049068345 25.3087790613
3500 1 50.1402751041 26.7849583214 23.5863658471
3501 1 52.6585901589 11.3224222537 59.2920967309
3502 1 30.6177650316 19.6191595953 4.9709448109
3503 1 10.1975476522 10.6690247426 11.6045738293
3504 1 45.1360058385 9.4546476265 44.1536938744
3505 1 7.4273661072 10.5314182705 42.601714439
3506 1 7.352907012 32.6958559914 51.274770497
3507 1 17.8504499664 24.5346260401 8.6885644086
3508 1 27.7841212475 13.7249962717 46.527697057
3509 1 42.1740848346 25.6135540738 36.5919266941
3510 1 60.9166694111 36.812563512 17.031516534
3511 1 54.8437925972 21.4536987611 44.9581086578
3512 1 55.4897850142 58.445991851 49.2050175565
3513 1 53.4639961754 49.0733584828 15.2243237391
3514 1 10.3816837704 7.1202704432 3.3814940836
3515 1 22.2623117081 13.985632259 12.7999425938
3516 1 13.9442337018 6.8811442132 48.3084764061
3517 1 58.2790565419 54.1167523004 37.3638640178
3518 1 12.159606036 56.7039288991 24.4512458473
3519 1 10.2867586278 54.1811824494 53.7039328841
3520 1 7.8078596641 38.2767896676 54.8756286708
3521 1 44.7716402266 10.6949134179 5.3207684507
3522 1 52.522266459 36.1873869893 9.9658323471
3523 1 10.8704199776 45.2888306534 14.3933205865
3524 1 4.2998450435 52.2269956223 20.8664806338
3525 1 3.7346626103 15.4825691056 45.8848532626
3526 1 3.8206946431 5.1781241824 30.0010431438
3527 1 11.2420740679 14.0987494437 27.0882756382
3528 1 26.719303708 29.4314339803 47.3475051068
3529 1 14.415069406 31.4579808209 53.0040640348
3530 1 5.4528006945 31.2593260538 56.5464394579
3531 1 47.7158356509 5.2095987475 3.9530475799
3532 1 56.0334471946 19.47251541 43.0805966234
3533 1 4.442914959 44.1048319152 38.4324715661
3534 1 55.516839846 16.8135035682 43.5936471945
3535 1 32.8278649121 14.8007756827 13.5511806389
3536 1 46.9736936269 45.7689373022 34.7754046469
3537 1 60.3298594386 52.0598270818 22.7908721612
3538 1 56.8359378198 12.3534212535 5.2617667604
3539 1 34.1690615523 9.0502536912 35.0983717015
3540 1 59.0351341366 53.7725611967 59.5719159934
3541 1 27.8164820916 16.3195779644 23.0525576895
3542 1 34.2684180898 47.8440545629 25.5639341129
3543 1 61.3347365318 24.2564393968 61.3754937029
3544 1 48.5602496038 24.3828507661 29.789793886
3545 1 27.989714646 38.960099094 44.9468552472
3546 1 30.4976509076 26.1445051479 17.9968026125
3547 1 21.0967382432 36.6631788589 53.4775818991
3548 1 35.4464694296 31.6173944203 42.1849300905
3549 1 24.4980670325 29.2155784042 32.7127069534
3550 1 7.207434814 8.2237227489 36.2779973527
3551 1 50.8590939972 11.7245130298 42.8922623417
3552 1 30.7099497063 19.4193386716 59.0544923352
3553 1 29.5194787993 60.871830692 17.5687648534
3554 1 17.4737230951 14.9366912278 4.0285270622
3555 1 61.212873173 15.3244382783 23.6998328788
3556 1 35.2667647063 18.8844226653 16.45735936
3557 1 12.5230387227 3.7840843245 47.7701785458
3558 1 11.9058503722 45.3140196348 59.8769242372
3559 1 18.2432697979 54.8861240797 41.6657571975
3560 1 41.6694305906 34.6028717863 5.7340484988
3561 1 18.4036746304 59.8853205643 58.1852975558
3562 1 30.5563085818 11.0264517231 58.2367250593
3563 1 43.419773254 20.1403149544 45.1173473338
3564 1 25.6073734441 58.6940333477 28.7506317904
3565 1 35.6167282849 11.9897553355 32.8790591843
3566 1 4.789432545 41.7946174955 3.9737760125
3567 1 49.5524155907 33.0234876722 26.7704979802
3568 1 18.469270936 41.1644264996 23.3600148621
3569 1 3.4682028371 31.8685262319 10.0728855178
3570 1 28.2325667461 28.5967574346 19.6744354154
3571 1 56.0833003869 36.8439914309 37.8880513839
3572 1 28.1087209213 17.6959342244 12.749622939
3573 1 58.404826525 38.1030323426 44.2434879282
3574 1 11.4506994735 13.8358394511 46.7811611816
3575 1 10.1485690774 7.5134342909 30.0939858203
3576 1 18.3205276689 46.4815755657 35.0714334854
3577 1 18.7078665647 54.9118378315 32.2362736978
3578 1 4.0010990603 31.8927239802 25.0665683473
3579 1 12.4625735059 48.8456081099 51.8480530536
3580 1 3.7145708992 7.5398302442 47.7494792672
3581 1 23.0451525955 18.1190158182 55.80225666
3582 1 28.6712165298 45.4474279433 30.5771244761
3583 1 59.1445779282 13.3202233355 26.3571537935
3584 1 56.9649730413 46.6412807043 47.4465117973
3585 1 12.8064730705 28.2617789676 59.8993727507
3586 1 57.74938824 11.2686041293 39.3981657994
3587 1 7.3441141916 53.0314687135 31.0303512165
3588 1 38.3770208224 42.8888221799 24.8275062559
3589 1 37.4934823176 33.5476750383 43.5370302944
3590 1 48.2945408355 47.8997385378 23.8542903129
3591 1 25.2884879374 54.7972629511 8.9770307219
3592 1 11.1416096817 17.5495232704 4.7476899715
3593 1 36.373680497 53.6420099717 3.8095356911
3594 1 25.2830653095 25.7471373058 8.5495119024
3595 1 9.3804217625 13.2107212361 8.8104277674
3596 1 9.6480546891 30.6833030293 36.5908188454
3597 1 30.3973031371 32.4893879754 16.2991702249
3598 1 36.4455740479 18.7459415758 33.858455757
3599 1 53.4750746625 42.3635852729 40.1945341027
3600 1 60.8315982912 39.6981012623 41.6461074597
3601 1 37.2243333874 59.0897102628 59.7252655788
3602 1 15.5179036488 21.9470995945 53.2138555969
3603 1 37.4472442106 41.952981554 17.9330721574
3604 1 14.7462578643 21.6006344855 43.6577858044
3605 1 6.2344521022 17.7303358424 25.2432993714
3606 1 11.5311059671 15.741164319 6.9318428689
3607 1 12.7472323181 28.7235769586 35.6357366366
3608 1 40.7653677306 16.7430094052 39.4339668053
3609 1 13.9079662333 44.1650055928 38.0602927053
3610 1 4.6020603424 8.4769536423 37.7957500935
3611 1 51.8109692755 41.254687016 7.0952680469
3612 1 9.6645558042 20.9098033494 50.966438707
3613 1 5.5654864013 50.2579402993 38.5197583833
3614 1 55.8807389953 59.4449798537 12.4703284469
3615 1 19.0894912934 38.4239586233 39.7387418178
3616 1 25.1359546616 12.9091531541 59.7575098072
3617 1 36.9744260402 7.2580635003 43.8956234314
3618 1 10.1934077965 58.9628324309 42.01910263
3619 1 20.5706850266 21.9587611599 28.1350760591
3620 1 45.9146485623 58.6893687216 30.7083170872
3621 1 31.5002539956 5.8942900694 15.7122436368
3622 1 57.3278809575 57.3704456713 45.6673650673
3623 1 32.4937610625 30.7402114686 7.4048592859
3624 1 12.0847387859 9.9662988097 8.3775096431
3625 1 10.3485066167 43.053075329 10.865230581
3626 1 58.6552586427 4.0880826768 28.7794941649
3627 1 26.6046705198 49.0737666376 15.5454832511
3628 1 57.2417019889 37.7277631671 15.6518950357
3629 1 58.6207987168 46.7658845309 28.5950665076
3630 1 52.8375368804 29.8837861034 5.9991508658
3631 1 18.2626279965 7.6955646198 36.2901836886
3632 1 23.0697584985 37.9224530019 4.3490335265
3633 1 21.2821571336 56.6825299265 17.9229849033
3634 1 52.5825567523 60.1921946587 45.3869044187
3635 1 50.1533943652 41.4094942971 47.0114770989
3636 1 18.4789500353 52.5880959959 50.0841829743
3637 1 31.4041043886 55.4967236457 23.2347113415
3638 1 12.6295088151 45.6531379575 4.2580674853
3639 1 7.2126475337 21.0344654838 27.7171838619
3640 1 14.6747141604 59.4274291977 45.511275014
3641 1 53.1438862043 5.6203307435 26.2229291754
3642 1 18.0080560232 24.3854746183 17.0726818599
3643 1 15.7444295573 39.1843509972 10.906395907
3644 1 35.70675557 53.436474881 45.1739059261
3645 1 34.6379730983 52.4391778053 15.3520761884
3646 1 42.7116246932 42.343993843 23.1261421674
3647 1 37.4871850722 27.2110719222 32.0506215761
3648 1 6.2243240327 52.5971920169 16.8799161834
3649 1 45.2426508543 18.7354461669 52.8406271953
3650 1 17.0746060182 25.7035813589 52.9686711837
3651 1 13.2011587525 44.3717651479 19.6273809989
3652 1 29.3168007921 40.6382566674 36.9050397259
3653 1 29.6030922234 4.6441294397 13.8479674791
3654 1 39.9532563139 58.3389969882 6.1170084768
3655 1 55.8760743691 4.8857745678 29.0652025179
3656 1 14.5183908758 53.8497607598 3.7368199999
3657 1 29.8145164047 43.777666697 5.3536365729
3658 1 59.4806642439 46.4393606989 53.1866258416
3659 1 48.3156482689 19.6451065784 26.7784861526
3660 1 14.8801909433 42.7783871553 46.0979683709
3661 1 18.9690273225 36.7611943163 25.3838795427
3662 1 32.050330037 10.8659885828 48.9379677081
3663 1 30.8217841188 16.7785771798 30.5765997056
3664 1 41.7080303722 59.1010802891 60.3267108159
3665 1 56.1244657128 31.7478873375 32.1845546551
3666 1 52.7796372081 32.3128318748 38.3478669089
3667 1 16.8680796945 52.657540618 54.7977877216
3668 1 17.964266845 34.6274776894 11.1771191485
3669 1 51.0349504039 47.9814861115 39.3583415535
3670 1 58.5101887687 12.8637313567 7.7335871539
3671 1 14.7874814981 56.9425828356 25.5564124032
3672 1 58.2659955886 21.9856410682 11.743346458
3673 1 53.2550792307 43.6741703038 34.7464839646
3674 1 40.3091672909 46.7163228778 52.4613930874
3675 1 49.7847139741 25.2262734859 48.5565762107
3676 1 3.9732978883 43.7931765791 15.6101466314
3677 1 10.506637444 14.3882478055 13.4039533753
3678 1 4.2549830013 14.3413683125 51.4602476952
3679 1 21.8030792614 28.9465460897 44.7796283989
3680 1 9.1068064528 8.886915975 8.0813000503
3681 1 50.0988182389 59.4665537497 38.1634392516
3682 1 8.2769461336 45.2342545272 8.5422642395
3683 1 6.4647330348 27.2880382541 4.1405014134
3684 1 48.6881186688 11.9854405563 40.6541163963
3685 1 42.9636311221 17.3088868678 53.6382199629
3686 1 22.7339637219 42.7387961406 23.6094557467
3687 1 5.3406106043 56.4483656927 13.1453581619
3688 1 51.3141282803 14.0874960331 57.3271812636
3689 1 13.3890848794 39.908709134 12.3720797582
3690 1 34.8528957492 53.7243406236 12.7472323181
3691 1 15.6141115637 57.612773001 21.7952077047
3692 1 32.8275150651 32.0334790749 41.3804569992
3693 1 58.7795709302 9.7193651617 47.4705346221
3694 1 27.4298428897 47.3964836816 5.3214914678
3695 1 39.5713400461 24.8421415206 43.3414658421
3696 1 58.8311150494 38.8975347955 39.8039882764
3697 1 33.7543179778 23.8254279384 47.5598039055
3698 1 20.7969777038 12.1425218427 18.311723187
3699 1 15.0099841665 27.3132272354 36.0225507619
3700 1 32.308050633 10.6193464739 53.0898348485
3701 1 55.1820363025 9.295234027 33.9818351193
3702 1 30.3700733818 4.370863977 44.3563718816
3703 1 40.3906816333 19.5573532985 39.235370346
3704 1 54.5036830414 41.1873997835 60.3419291588
3705 1 13.30185637 25.0921654834 53.8936082459
3706 1 25.6921530248 43.8633208951 40.8790096857
3707 1 9.6776750653 32.7171966561 5.8210262846
3708 1 7.6038930539 38.5287960965 7.3443357614
3709 1 49.879872348 43.3433316926 23.157978241
3710 1 43.6665902863 59.0121608527 13.2960838951
3711 1 61.3473893303 47.2710052376 35.4818622807
3712 1 54.3282930973 52.6769571244 12.0885287947
3713 1 5.0156844067 52.7318830976 56.2977565751
3714 1 24.164604569 57.3512040883 43.9700242188
3715 1 32.6026217758 58.0531137116 6.1862082061
3716 1 22.0548524591 18.6526490524 7.4485784947
3717 1 22.327791398 10.7321721194 46.4816338735
3718 1 32.9155015763 49.6048343273 58.3920571109
3719 1 9.3875936252 12.9349252137 44.9380507653
3720 1 17.5823505771 11.590521643 9.9494478477
3721 1 16.6241197456 57.3976171188 9.9253667151
3722 1 34.4217676752 16.5994555348 39.1970037957
3723 1 61.6330976833 42.5400247578 9.0171523377
3724 1 48.369932856 9.5857236219 15.6999406852
3725 1 56.9128458438 33.0170155034 21.3801142832
3726 1 39.4769979817 43.4677605957 7.9899083621
3727 1 43.4717838358 24.2618620247 55.5257609436
3728 1 17.5998429253 42.5526192485 18.4636150767
3729 1 47.5817276485 15.4047864642 25.8678928159
3730 1 6.7416777214 48.2682440054 25.257584789
3731 1 49.629906693 51.8937663901 29.3798898611
3732 1 43.218378019 42.1944342663 10.6494333127
3733 1 37.7893945404 61.3452319406 42.0074993724
3734 1 42.5587415704 26.5265380314 21.0568556895
3735 1 8.8985775404 16.5937413677 33.4694259343
3736 1 19.2329285482 58.8193951761 41.1697908197
3737 1 51.8337676359 39.4126844484 31.4606629809
3738 1 11.4891243316 37.8645533296 43.9131157795
3739 1 11.7887682553 38.4212764633 49.8047135588
3740 1 53.8710431168 46.0196026512 37.93323995
3741 1 5.3125178932 25.2637071109 24.07655975
3742 1 41.1674585066 27.4501923214 48.0927374457
3743 1 42.2115184597 34.0038171701 20.3350630971
3744 1 25.0841773111 34.7111494214 56.1617827222
3745 1 6.330071108 16.5782314857 39.6338460368
3746 1 55.5743896714 7.2611071689 35.8642450112
3747 1 42.1376424426 57.2645003494 38.7862251534
3748 1 4.7516607346 37.4237461563 31.4917410528
3749 1 11.3404976801 58.2480950856 36.4052250315
3750 1 37.429576939 23.0013051094 17.9762782574
3751 1 14.6856760319 25.4584552536 13.0139906273
3752 1 47.7989826125 27.0812203911 48.957559138
3753 1 29.1264257364 7.7723560282 36.4292478563
3754 1 24.2755643641 12.4154607816 36.8003771762
3755 1 24.7410357483 37.0600219305 52.9176518349
3756 1 12.3756365356 15.088408194 39.7185673096
3757 1 32.5180754264 17.8816446539 52.8721717298
3758 1 12.4165686303 46.8941034428 49.4090366437
3759 1 26.3728969069 46.3182553419 52.855903846
3760 1 22.3393946556 27.7992229747 51.9586046939
3761 1 29.0938899689 35.1128320426 32.2377897013
3762 1 43.4814046273 8.5599956497 38.1971994835
3763 1 47.2009775372 22.3408523512 14.1011400646
3764 1 28.9898688052 24.5522933118 59.9137164762
3765 1 47.2409183988 39.7361179656 25.3892438628
3766 1 58.1286223478 36.2452283538 39.4533250039
3767 1 53.4745498921 10.8319368117 43.3289879671
3768 1 12.6945220423 61.3539198069 7.2124434563
3769 1 21.5835502922 57.2235682547 21.9594608538
3770 1 39.983926231 18.692240067 48.0885975899
3771 1 27.5953205032 3.7687167136 11.9910381077
3772 1 30.615257795 24.0737026665 37.4327838695
3773 1 32.828564606 16.6464516434 23.3020568819
3774 1 53.0804472884 36.8129716668 28.5632304339
3775 1 31.8937735211 24.4859973123 6.5664510393
3776 1 10.4759092191 50.1469805042 48.0708137027
3777 1 59.5808370909 8.9351423789 4.5199337679
3778 1 20.900823944 24.0520704626 58.5788753891
3779 1 28.9287038946 46.3318410656 38.6240127783
3780 1 23.5093995153 41.5294334976 58.0828507035
3781 1 7.9872028789 20.9582571537 15.0355229948
3782 1 47.2829000343 37.822921541 7.8440571632
3783 1 33.7334437756 9.5326051914 30.1567250423
3784 1 39.760257406 18.0832731202 28.3539636423
3785 1 12.7611095809 50.8045761788 59.0789233148
3786 1 54.0878899259 59.4130271644 57.7483386991
3787 1 8.3965763026 5.3206460043 48.4810092667
3788 1 38.1923599338 25.3030648942 39.3098877491
3789 1 30.4638323679 20.7477075899 38.0284566317
3790 1 32.7439599488 19.7470869681 47.6256334423
3791 1 15.1302149061 32.6075779411 28.1458046993
3792 1 15.7774317875 50.2831292806 27.9403279164
3793 1 58.8647586656 45.9657262189 56.6911011771
3794 1 30.5259885116 8.9275506998 50.3446440382
3795 1 24.6592881746 40.7212870132 51.2545959888
3796 1 37.3768083554 6.4637826172 4.3607417382
3797 1 51.3201339865 57.7766763031 11.909640381
3798 1 34.6349993991 14.5993804477 49.6910132958
3799 1 52.6591732372 37.2529042227 18.4543441322
3800 1 8.8164334735 57.0080042177 36.1703027959
3801 1 40.1657883439 27.9763621536 17.6920276
3802 1 4.7294804371 21.1459500494 47.0248878991
3803 1 32.0913787473 44.8171203317 41.0477525375
3804 1 43.8476943975 24.9402735937 51.9107922756
3805 1 19.7304692373 19.1718802532 4.1099597736
3806 1 28.5451550075 47.672979398 57.3137704633
3807 1 61.5031878444 34.1672540097 46.9968418343
3808 1 22.637464268 44.7463929374 5.1859374312
3809 1 24.048571993 45.3077806973 54.2058466603
3810 1 5.2805826962 13.424652654 40.8123055314
3811 1 59.6589695793 46.8253585146 48.0202025087
3812 1 17.3797308777 44.121449646 45.7232822736
3813 1 60.41032424 6.5732089164 55.9069192097
3814 1 15.2114960171 33.8502343534 36.684053061
3815 1 47.636537006 55.7524617756 35.0653111635
3816 1 29.4817536351 12.634581596 5.7681993932
3817 1 3.8761162328 10.4008087377 19.1923463005
3818 1 21.4206965309 32.0161033424 37.0812459796
3819 1 30.1294369792 16.0935768264 13.9102402385
3820 1 45.1505244874 55.5020296579 18.5575489863
3821 1 8.1185704135 5.9645218472 41.7694285142
3822 1 8.2694885625 46.8982432986 45.7534274202
3823 1 11.4731479869 50.2024895556 36.7673166382
3824 1 50.4949033088 57.5565059478 61.0662872955
3825 1 51.9591877722 60.1524287205 56.1077896743
3826 1 37.7686369539 48.0109315642 22.6913407003
3827 1 21.2388927258 32.5211657412 21.9017361049
3828 1 28.4876051821 44.6683770647 40.9404661355
3829 1 15.4977874485 51.2933706939 18.6397630226
3830 1 17.3021814676 11.2884870983 26.3509731638
3831 1 10.2762049111 46.1437400152 47.6640583004
3832 1 57.3888709447 41.3280965704 60.7819200225
3833 1 3.6613247745 10.3376030531 11.0806780023
3834 1 33.5170051212 25.006627901 42.9239234918
3835 1 19.5435926513 34.0115138033 50.3249359927
3836 1 52.1730025743 44.84131808 47.1994615337
3837 1 48.822634826 33.6972929228 60.3264775846
3838 1 19.8999700909 23.2767512849 52.0078165
3839 1 13.5807427073 17.6957593009 35.7277463878
3840 1 4.642753375 48.2741330959 27.285705941
3841 1 3.70726143 42.7041612913 49.6513056655
3842 1 25.374666906 8.1049030588 54.8214606994
3843 1 22.9198490749 44.86359167 13.3678608303
3844 1 29.7698526091 47.2616759852 9.3577983256
3845 1 36.3121657394 9.967231735 24.6349738107
3846 1 55.8819051519 20.9215815305 35.6721207207
3847 1 4.2056254256 4.6486366348 27.0915408765
3848 1 58.677415617 54.8591858636 45.4591478165
3849 1 18.7960863072 43.1706239085 14.4411330048
3850 1 3.4988645911 53.307264736 15.7868776555
3851 1 31.4502258799 61.0203990356 59.5691755255
3852 1 38.5115952875 10.7595184904 58.5263983447
3853 1 8.5049997071 34.2214802889 3.7801450477
3854 1 10.0323615779 4.6900993306 32.8324129226
3855 1 43.1769211539 46.0636833685 28.5639884357
3856 1 23.7673533426 10.7096652981 43.9248939606
3857 1 12.0361683659 25.6961179571 49.9047697902
3858 1 26.0630491134 16.1138679502 25.5553045545
3859 1 11.9747119161 50.8990931667 26.9402903729
3860 1 61.5004473765 44.3754968489 35.7722935678
3861 1 47.4407976302 17.2746601732 54.4830420706
3862 1 17.5102237949 38.6908335482 58.8905307252
3863 1 53.0369496493 54.6871194656 8.5166962573
3864 1 15.17680286 33.7116366483 61.1361400725
3865 1 24.0272313282 47.2132804887 31.2399678552
3866 1 11.6462056179 15.7495023383 33.2125799557
3867 1 8.6065369574 23.2198428456 23.573596433
3868 1 16.3404521665 22.506913043 18.3747539481
3869 1 24.9077961339 59.9448528559 4.6448932722
3870 1 59.8915595018 49.8136346563 19.6851640556
3871 1 4.5832560682 47.3322284561 31.7812394146
3872 1 31.6476561826 46.5598246698 25.5424185247
3873 1 53.2508227593 10.8235987924 56.5084810625
3874 1 13.246522242 36.8506385232 34.4887633686
3875 1 30.1851792619 54.3798372165 42.9172763995
3876 1 51.5536568343 15.4079933947 27.3437805368
3877 1 17.2059735528 26.2658437362 56.7074273687
3878 1 19.3285533848 7.5357078809 26.33202312
3879 1 13.9561284985 41.6524047051 20.3446838886
3880 1 22.4033000341 15.8957966766 54.3046201195
3881 1 52.2639627847 53.5065608892 39.8364074283
3882 1 22.4117546691 21.9377120343 40.1956419514
3883 1 23.9666494958 4.2535544595 32.4594177523
3884 1 38.7180049956 30.6310009084 59.2106990041
3885 1 3.8744672874 10.2460014566 6.5568535709
3886 1 60.5300302092 52.770891034 40.671083974
3887 1 55.3159110737 46.83165576 6.1181862949
3888 1 41.7912939493 28.2701752947 56.9470725383
3889 1 7.7922506588 13.2129952414 42.4185112461
3890 1 60.855621116 11.467375512 4.4715557637
3891 1 54.4562787779 59.9373311462 40.3577377109
3892 1 51.3045074889 54.8771446743 15.7212230421
3893 1 49.6809843496 51.1985038591 16.1191156546
3894 1 19.6035330976 42.3892990247 36.9764668142
3895 1 4.0942574757 21.3012237931 19.3005656277
3896 1 27.4694922122 57.0215899414 5.6083776389
3897 1 29.7307280571 20.2429367302 9.9639081888
3898 1 31.4723828542 5.9855418189 36.8219510722
3899 1 48.8331885427 49.5574300638 40.0081239793
3900 1 52.5490880595 7.5152651567 61.4716433099
3901 1 15.3374409238 34.0646905417 23.8612872521
3902 1 22.302135954 37.2523794523 41.1281007233
3903 1 49.7412746428 42.6479525459 20.3559372992
3904 1 11.4059190622 25.4058615935 46.9629066789
3905 1 37.4621127066 17.8646187684 46.7531734246
3906 1 45.1012543735 11.0095424532 8.2569232257
3907 1 18.2106174147 17.081777881 16.4107130983
3908 1 13.2738103051 58.0481575463 27.8032462148
3909 1 36.267093789 32.3492742668 23.4887585445
3910 1 15.0066023125 9.8495665398 7.9740544639
3911 1 41.2032595125 16.4147363383 30.1445387064
3912 1 25.4891834785 54.0488236818 32.2419878648
3913 1 30.342027317 49.300642393 49.4404062547
3914 1 47.4193986577 49.5726484067 16.8844641939
3915 1 18.1102696442 59.3531450259 8.3733697873
3916 1 17.7360500095 18.7706640945 8.9984063713
3917 1 38.0102645896 23.0674261854 52.9515286825
3918 1 3.6053142757 37.3745343502 21.0693335645
3919 1 46.4820420283 15.8501999558 46.9939847508
3920 1 60.9479224064 21.7986478665 60.1660144443
3921 1 35.8023804066 27.6989918199 47.1086179389
3922 1 17.786136433 40.668401814 40.8833827727
3923 1 19.1381200213 10.2741641371 6.6097329394
3924 1 20.9296280106 47.6128640282 34.0018930119
3925 1 26.3537719396 35.1701486367 46.5622735985
3926 1 37.8464779032 13.7431300059 47.2131055652
3927 1 12.802916293 49.5242529102 10.7340962777
3928 1 46.6447791739 6.2190879898 12.2267766529
3929 1 23.3358754217 47.3693122342 28.5060887633
3930 1 28.5594404252 56.2921007159 55.80359774
3931 1 33.0871598194 18.4329451596 31.5899897416
3932 1 57.2151136198 43.4546996424 22.8299384054
3933 1 47.3544437382 49.2387194806 3.7788033846
3934 1 46.582681338 5.9895767205 56.6239305602
3935 1 30.2234875044 50.2124018862 41.7546183261
3936 1 21.8503086014 38.235157879 11.8918564937
3937 1 14.5298192099 18.7241927563 21.4058863428
3938 1 33.8965307682 36.2916996921 38.2500263749
3939 1 56.3741398287 7.0653911162 40.2184403118
3940 1 34.2238709098 48.0353625437 16.2044200058
3941 1 49.2812841944 49.6078663343 42.8997840514
3942 1 12.727699196 15.755333121 48.4341880815
3943 1 34.2819455057 3.7601297199 51.6574447666
3944 1 44.0176034058 48.2634627636 57.8446049217
3945 1 24.3985938794 9.6251397131 9.7099776016
3946 1 4.5426096819 55.1327661886 50.9530862146
3947 1 37.5275923964 61.3532784208 7.4061129042
3948 1 44.5872125693 58.3857015577 37.5645595589
3949 1 40.7261265629 36.5775246608 23.9022193468
3950 1 36.9013663328 33.4799213432 49.5447772653
3951 1 52.1087473488 43.8440793122 19.271470022
3952 1 31.1324482219 10.5148005398 21.0077021912
3953 1 6.0671319614 22.7297655584 22.6382805776
3954 1 50.2462787338 20.1467871232 45.2735540027
3955 1 35.3456551965 41.8803300014 5.1764449169
3956 1 3.4135654877 29.3900937308 50.3865090581
3957 1 15.0470679446 40.2638621092 4.1807979528
3958 1 6.999841457 13.5615594321 46.5362099998
3959 1 43.0201897145 22.5054553473 38.5711858869
3960 1 21.9082082738 6.6738482261 23.200834494
3961 1 12.9677525204 57.2484656969 40.3403036706
3962 1 58.2207487147 20.9520182162 3.8653986711
3963 1 24.3558542421 22.3845832216 10.2720650553
3964 1 56.3479013065 46.0577359701 44.6079118479
3965 1 29.5623933601 23.5576783962 42.9095214585
3966 1 47.3897199737 11.7718006776 30.2784134775
3967 1 18.6522992054 39.6159455338 49.2532381295
3968 1 22.2925734704 34.2266113777 16.211416945
3969 1 19.7545503699 26.4248491809 26.9037313653
3970 1 28.3273752731 14.5913339675 51.5555809926
3971 1 7.4318849638 7.046773427 45.4498185642
3972 1 37.0779807413 14.5807802508 12.9800554719
3973 1 32.7962620698 18.4822152736 50.0709470976
3974 1 19.2075063356 60.208929005 23.4596629387
3975 1 3.7544155529 61.1515333388 19.1217355218
3976 1 13.4880915699 54.5941184813 55.9854598529
3977 1 6.3739652403 37.3240980797 21.2587756949
3978 1 15.521227195 29.747637327 11.4079015283
3979 1 17.0420702507 28.1810809348 54.6285200993
3980 1 46.9184761146 37.5428690472 45.1350146054
3981 1 58.5953765042 18.3570283687 16.5555497409
3982 1 4.7242735481 44.5734519221 47.7774670242
3983 1 27.8055785279 17.4908655963 27.507683839
3984 1 50.2166000498 5.4725670479 26.4044414414
3985 1 8.8773593221 3.3529623146 59.0868531793
3986 1 28.2953059682 22.0528699929 12.0621736568
3987 1 60.0408275394 35.650430209 52.2412227321
3988 1 59.5886503398 33.8589805275 20.150926979
3989 1 27.2170776284 10.6129909207 6.0906358466
3990 1 3.6111602185 55.9634194942 17.0657432285
3991 1 55.5194053904 51.5478843594 29.7879863433
3992 1 57.8090371472 6.1773395855 47.0864609646
3993 1 20.2993787069 46.8138135648 48.1383341665
3994 1 41.7528690913 7.6908067011 34.3579206045
3995 1 32.0492804961 43.7504952496 20.7804182809
3996 1 57.6650168141 20.1368747926 9.5080575961
3997 1 58.2454129256 52.2785397415 8.1522665068
3998 1 44.4380611474 54.7501502268 53.6544295389
3999 1 19.6485467402 43.9349229069 39.4971724899
4000 1 8.2545209433 25.0055200522 11.8673088985
4001 1 39.4237629355 57.4558666381 48.9495126579
4002 1 41.9716400587 29.3483453266 11.7593811104
4003 1 40.6040299728 30.6822534884 39.882062457
4004 1 34.9387248708 40.7630354175 23.776332748
4005 1 31.5543636592 10.7136302304 6.4698991083
4006 1 58.0467581585 10.8453476119 29.6843150267
4007 1 43.0357579043 60.9706041512 11.1978767349
4008 1 13.7671528307 50.9184513653 3.5129500129
4009 1 33.2705379358 55.4066380527 21.1373787988
4010 1 8.6501978583 47.0578318215 26.9346345137
4011 1 56.6113360696 36.8161785973 35.1202371367
4012 1 36.8741365775 56.2902348654 24.3307235686
4013 1 27.8915242651 25.3730925946 24.5355006575
4014 1 10.8368346692 43.5011126728 46.771248851
4015 1 54.0682401882 24.4265233286 60.4657749837
4016 1 11.232919739 43.440355917 38.1915436243
4017 1 16.6845849624 60.0265421217 55.5081519798
4018 1 7.3903872832 52.4489735203 41.5546224789
4019 1 28.5371085274 21.668271565 31.9239769755
4020 1 35.2529457513 28.1356008296 58.7092516906
4021 1 31.5610107515 49.8157337381 27.9272669632
4022 1 39.0988134148 9.83533943 4.0289468785
4023 1 18.5055967123 19.7446963472 48.1699370088
4024 1 5.7115883238 45.8790224799 35.3491536661
4025 1 9.8735893646 31.5245100517 10.9448790729
4026 1 61.0838379515 9.8042030503 45.9593123579
4027 1 47.4535670444 50.3192801334 34.5949419218
4028 1 15.1037431526 39.5877245455 41.0828538494
4029 1 16.9840539627 60.6971404418 25.2230082475
4030 1 51.8902679205 41.8816710814 17.2646312269
4031 1 60.872821925 37.0885927658 43.1952881194
4032 1 14.8833978737 11.2995655855 17.0427699446
4033 1 38.1690951108 59.3520371772 20.8486384387
4034 1 42.6763484577 8.191735075 16.9985143038
4035 1 46.3948718267 43.5700908324 43.6936451181
4036 1 36.230651397 14.6119749383 55.996888187
4037 1 14.5316850603 33.4170655055 58.5336285152
4038 1 45.5634022115 12.2867170992 32.4441994094
4039 1 12.2522571734 52.9382344979 16.5321099944
4040 1 6.6090623994 7.0427152023 5.5994798645
4041 1 5.8476204845 17.1892975143 58.0977775072
4042 1 13.1398772262 24.4843063853 24.2957971801
4043 1 52.3124748969 13.5230762662 29.4993042911
4044 1 57.9594713412 8.5068130806 17.0835854236
4045 1 34.5797818868 42.6289441943 36.2835365963
4046 1 4.9474117719 18.5399400225 33.8294184591
4047 1 53.2384031921 56.7200218594 6.4944525343
4048 1 48.3777461048 24.6519413884 38.7915894735
4049 1 34.3769872639 55.6342718099 4.1793927342
4050 1 32.8497886551 47.3570675905 20.6656101693
4051 1 47.9937307552 30.4191102645 43.4419302283
4052 1 38.4352703418 12.8183095594 34.9219905244
4053 1 32.0359280037 60.5286891292 33.0977135362
4054 1 43.6842575579 6.1937532389 56.2788648391
4055 1 21.3829130589 59.0728009929 60.4549880356
4056 1 35.3019826339 30.0831405644 48.6088200238
4057 1 11.9249753395 61.3002766059 13.8433611608
4058 1 24.0048994304 55.7413832884 61.6240599701
4059 1 22.7966446361 28.7705730673 29.0929570437
4060 1 16.7453417183 24.4769595991 11.432973894
4061 1 61.4475038695 57.5373226726 48.3088845609
4062 1 5.737290414 52.6629049381 36.1126363549
4063 1 9.588055935 23.2419998199 46.6756240145
4064 1 24.507687824 14.4381009978 55.9879670895
4065 1 12.5464784692 29.3348762185 42.1512281664
4066 1 15.6401751624 44.4171869453 50.3003300896
4067 1 30.8511129559 10.2702575127 42.1371176722
4068 1 32.7576039804 25.971739056 34.5835135877
4069 1 8.2890683308 25.8269024134 33.5034193975
4070 1 17.1881896655 5.7503746904 14.4965837484
4071 1 7.560232153 19.5474409679 23.4486427594
4072 1 43.9738142276 14.6959382094 21.3934667756
4073 1 17.4559392078 16.8816071104 32.8628496084
4074 1 21.361630702 5.292209277 32.6360321607
4075 1 21.5198198371 36.2522252931 21.65579369
4076 1 12.7840828648 17.8985539238 7.9185220893
4077 1 60.2544674181 46.705127775 32.7159721918
4078 1 27.074514991 55.2071086682 22.5969986359
4079 1 14.79628598 14.8141281751 18.3622760731
4080 1 23.1824675284 22.4642317135 29.3808227863
4081 1 29.3328937524 46.0003610682 6.7393803931
4082 1 11.4240527965 47.3789330256 26.2469520002
4083 1 40.5508532344 48.9558099032 37.7791906706
4084 1 36.0190522923 21.5742793476 7.7926413212
4085 1 49.6876314418 12.3333050531 28.8272482753
4086 1 59.3275478898 9.7879934743 19.1855242847
4087 1 37.1257931595 50.2096031105 59.3941354284
4088 1 8.5856802476 33.0866933568 31.3733761637
4089 1 56.1250487911 37.8111433599 24.4131125283
4090 1 31.5806021814 24.051254153 25.5906974056
4091 1 23.6088143606 15.0568053517 35.7823808219
4092 1 31.8776222529 43.3842054794 47.3903030519
4093 1 20.2380971805 41.0503180819 15.8662929161
4094 1 20.265268628 60.3942312797 56.2212567059
4095 1 42.9825228581 51.5296923173 35.8374817185
4096 1 15.3288696732 27.2777760765 4.0267136887
4097 1 37.2645657882 43.645774392 14.4655639844
4098 1 9.4537147012 60.4839087179 27.9281415806
4099 1 10.5370158219 43.2700387538 20.2910406876
4100 1 16.9121604118 39.5851006933 34.627944152
4101 1 46.034179608 11.1981099662 20.0768177306
4102 1 10.2055358246 56.8810097702 14.222128806
4103 1 16.4950845241 27.6545612556 38.7311242568
4104 1 27.5561376433 8.6521336782 29.5799440161
4105 1 25.3816055374 45.7730188501 4.5242193932
4106 1 27.8790463901 20.5677113275 54.266311877
4107 1 20.0537861389 16.3637752974 52.7104841251
4108 1 9.7409973656 42.4423591474 58.2563164893
4109 1 19.8227705277 12.5946407344 8.5359844865
4110 1 54.7899744727 44.2988220562 17.9265416808
4111 1 31.3144852583 49.0952822258 46.7981287593
4112 1 56.4102323737 49.999286778 56.452972011
4113 1 42.1257476459 39.3633560266 28.6905747285
4114 1 42.4443416135 40.1746511336 52.6014484883
4115 1 26.2312088869 20.2364645614 37.798957024
4116 1 12.7904967258 28.5603733504 15.4393630057
4117 1 49.7624986919 53.8572241617 34.6233961415
4118 1 28.4327958246 37.3803068251 56.995409727
4119 1 60.8944541289 50.0887892927 43.3875290255
4120 1 26.4808246949 7.5570193917 3.4755822757
4121 1 56.060327103 41.1646597309 40.2211807797
4122 1 47.9238779782 15.4383717726 21.317783216
4123 1 46.2295691368 23.8499755337 10.8789912282
4124 1 51.1952969286 4.6543333095 8.9389557107
4125 1 58.7027795218 13.9188114891 23.5049681204
4126 1 17.2996742311 33.6801504216 14.759493741
4127 1 39.8359409657 15.4893328135 56.4397361343
4128 1 47.6834748069 26.9189497082 45.9233947364
4129 1 32.0907373612 15.7560911228 49.5777211877
4130 1 50.7171144381 30.2559649641 42.5123285399
4131 1 25.9681822786 31.0435287855 4.4715149482
4132 1 59.8849707174 18.9962570778 47.3813819544
4133 1 42.2695347477 15.1332469131 17.6702787805
4134 1 36.3350224076 58.1700792129 13.4431362352
4135 1 36.753206144 16.771755164 53.9258524743
4136 1 26.963205349 43.4425133066 4.5411928017
4137 1 39.065344722 39.6593848651 19.949531744
4138 1 30.6672683768 55.8655789603 6.769088231
4139 1 30.6950229026 39.5964124117 49.0991888502
4140 1 40.0354703502 58.9815492434 39.4146086067
4141 1 56.7161735428 25.654661092 48.0906966717
4142 1 52.1146364394 31.6232835109 51.9583131548
4143 1 56.8822342345 55.5504251545 6.581243735
4144 1 44.9714028424 6.8921119155 36.6374651071
4145 1 42.1394499853 9.9454829155 35.9928720779
4146 1 48.397570766 25.0872093181 54.3772716721
4147 1 16.1174247277 34.713306811 26.4587260284
4148 1 20.699428709 13.8893077286 55.3442486777
4149 1 31.871849778 55.5681507339 14.0766507772
4150 1 18.0211752843 41.1690328179 26.2550567882
4151 1 29.1074173848 59.452618179 5.4914821071
4152 1 45.9881164245 43.7128867011 28.1141435492
4153 1 3.7900054844 40.4891052455 26.9831466259
4154 1 40.6050212059 52.8522887607 7.7798893994
4155 1 44.7665674456 51.1872504485 44.3788787028
4156 1 19.1579446825 42.343294149 50.5837061296
4157 1 43.9204042579 15.9100820943 9.4998945003
4158 1 58.4554960268 48.8829251193 3.9099266094
4159 1 13.2816818618 13.9440004704 14.2947220508
4160 1 42.1775249964 53.5745478157 47.6592770586
4161 1 34.0547199033 55.5031958145 24.6775968323
4162 1 49.9419701839 18.2953386876 52.0359791805
4163 1 32.9996397709 12.0867212521 41.791060718
4164 1 23.1288826353 16.1304856809 3.9030608628
4165 1 57.5138246183 9.8797699942 6.3529685917
4166 1 56.2639380354 21.0683423314 52.3116002795
4167 1 13.1012191367 41.1084509855 7.9765267157
4168 1 14.3632920555 45.4938992815 33.5617272247
4169 1 14.9590231256 29.0719662259 27.0187144004
4170 1 56.2924505629 9.0122486495 8.7195316956
4171 1 37.2576854645 31.4909830511 55.7304214169
4172 1 20.8237409965 6.4405294558 49.9920566074
4173 1 47.0799887958 11.7368742891 60.3312588264
4174 1 25.7131438426 34.3903397564 41.0619796473
4175 1 10.9217891733 27.1802853895 34.1136108087
4176 1 55.4264044061 36.3466839731 27.0911327218
4177 1 51.1787375057 24.7263421758 21.8152655973
4178 1 47.0917086691 41.7561926374 21.4787711268
4179 1 19.6378181 56.7908075616 43.1962793525
4180 1 28.571976608 44.6540333392 11.8792036952
4181 1 55.4663452677 40.5873539342 43.8618631995
4182 1 27.8839442476 45.0672026024 9.1525139585
4183 1 22.8722698879 19.7732671825 12.4969168161
4184 1 28.7171047898 36.7591535424 34.5582662986
4185 1 17.5724965543 13.3540418753 35.8848276742
4186 1 6.6105026027 56.1745521363 10.6005713535
4187 1 60.4039103791 50.2816132771 39.3666795728
4188 1 39.7719189715 46.4509056486 21.4628530899
4189 1 27.9372959094 19.1353212456 59.660427275
4190 1 20.6038621803 22.9266710907 49.1010547007
4191 1 31.2000853014 8.2313552435 8.1822542223
4192 1 34.4288229223 56.6127354574 29.51248186
4193 1 44.3247690392 49.5388298669 5.6112172301
4194 1 3.4389917818 54.8390113554 42.2589227231
4195 1 25.6377518221 29.829268285 10.4085053709
4196 1 11.6807238516 6.0532721909 40.8906129433
4197 1 52.2845454477 52.4366122609 16.4863966579
4198 1 9.2292878745 56.3067942883 11.6887120239
4199 1 16.4673883062 56.9716784414 49.272654636
4200 1 8.5872837128 18.9139847337 45.5971624434
4201 1 57.2794271531 43.3537687936 13.6136283218
4202 1 26.2214714797 11.9070165288 31.7078881681
4203 1 45.0911671194 22.8469059831 20.6506250577
4204 1 29.5607024331 23.2257319362 23.7708518122
4205 1 13.7833624066 49.9776545741 7.1411971223
4206 1 56.6088871408 61.5712330787 11.0161895455
4207 1 26.0329622745 39.8294687969 32.3514899642
4208 1 15.8298505241 60.0235101147 61.0889690403
4209 1 54.817554075 23.2304548702 40.4599513319
4210 1 9.9845491596 39.8255038646 36.391231153
4211 1 48.2003153868 56.9615328795 43.7012251356
4212 1 40.2157581518 48.5956424549 58.6660455907
4213 1 30.9284291347 56.1632404179 46.3632689844
4214 1 11.5890639473 49.4885685199 24.3974277228
4215 1 55.2516558481 37.2050918045 53.3784002851
4216 1 30.2544489606 42.2168244719 45.333844296
4217 1 38.4381274253 53.656761852 53.1637108655
4218 1 20.7603603884 32.7124737221 13.3507183291
4219 1 7.9333206158 48.7208876676 15.6095635531
4220 1 43.3937679631 17.985840741 29.0258447346
4221 1 54.9748102848 25.8832277744 28.4748940758
4222 1 7.2484835243 23.7542923893 20.0409001091
4223 1 44.2961398961 53.9236950847 44.8877894183
4224 1 60.741279467 14.248775483 35.0737074906
4225 1 3.6390925831 32.7675746188 60.780054172
4226 1 19.3551417539 44.2985888249 17.0204963546
4227 1 12.3070665309 51.5857261392 8.8776275381
4228 1 17.5850327372 20.5532509863 30.0103723961
4229 1 18.511077648 7.8277776179 40.4394269768
4230 1 4.2002611055 10.1444875295 53.4008487986
4231 1 45.7536606515 50.9764676533 27.932398052
4232 1 25.6157114634 45.9356976879 21.2628572428
4233 1 8.2596578628 3.3582926412 44.8831247921
4234 1 16.9279618329 56.3018964309 15.1993096813
4235 1 45.7344773764 4.3959071887 42.4695305948
4236 1 3.3494644105 31.9825763418 51.3859052156
4237 1 37.3488789062 46.9718277764 3.6308612671
4238 1 61.5668016838 48.2464368781 16.3433675579
4239 1 5.5510318909 38.6959063292 36.2577062288
4240 1 12.4313788184 16.0975417586 20.8039746431
4241 1 39.7653884948 52.9121125914 57.2584363353
4242 1 52.5438986629 45.2001444483 44.515785481
4243 1 53.9393215824 61.1285017471 9.945307992
4244 1 15.3204733461 18.8187680519 53.0205651499
4245 1 36.507963423 51.5773881199 21.3892103042
4246 1 46.8962025246 20.913651666 34.5494035088
4247 1 22.3241763127 22.434727953 53.4532092274
4248 1 9.6677044269 58.5265732681 49.7626153076
4249 1 28.8564604967 59.1693004469 15.2990743735
4250 1 6.8758382009 17.174545634 43.9272845815
4251 1 14.3841079498 41.3125283806 17.6099301794
4252 1 23.2024671131 25.3052222838 44.9049319194
4253 1 54.7611120983 39.0300684866 38.8897798544
4254 1 29.8383059982 18.5135848846 49.7708367112
4255 1 61.6002120688 34.3390288685 28.3776949279
4256 1 56.2717512842 3.6637363862 40.5335358098
4257 1 50.643938115 27.9707646022 16.5603892906
4258 1 26.4592507989 51.8758075793 14.9772151676
4259 1 33.3235980586 35.1315488552 51.6019357152
4260 1 13.2216247998 30.8387516965 38.415970451
4261 1 36.8638743999 57.0759328363 43.6223346455
4262 1 40.4919040212 39.5874913142 10.9103025314
4263 1 51.2316227049 30.7870909616 17.0758887904
4264 1 60.3442614719 27.2524704795 41.4322343497
4265 1 48.2140177262 19.745745888 8.0858772148
4266 1 57.5167400096 41.2227343268 29.2110887015
4267 1 16.4040076981 45.8394897731 37.2000190235
4268 1 45.8642122918 4.6150280032 58.9053409133
4269 1 24.4616829484 37.9231526959 39.0430128242
4270 1 52.2701434144 8.5535701272 19.6483135089
4271 1 56.7483011556 7.2517429318 53.5819529097
4272 1 34.2597302235 22.7835836828 44.2033721431
4273 1 30.9041730786 18.281694656 39.3767668268
4274 1 14.1997386004 42.3379881368 57.5028044389
4275 1 9.7282862593 54.9132955272 50.9043991789
4276 1 37.0810127483 48.2620633757 26.0364607442
4277 1 50.0065169486 15.0907405071 48.8792517262
4278 1 58.3901912604 56.5449234544 15.9933456715
4279 1 50.8056257197 35.3399993372 18.7743957955
4280 1 20.8230413026 56.0048763593 28.792263579
4281 1 51.1514494426 44.0127638561 50.7055694883
4282 1 7.1142064291 42.7163476272 31.1122737137
4283 1 43.192722575 9.5678814268 54.4846746897
4284 1 22.051820452 47.0932246726 60.5316045205
4285 1 39.1044109662 22.9958824815 36.6802630522
4286 1 14.7124976324 45.0156001754 56.9289388041
4287 1 20.8948182378 26.8762683787 19.9307566236
4288 1 34.4350618598 39.9677166551 8.328700161
4289 1 44.5055816113 25.0463938391 39.3935011732
4290 1 49.6114231118 39.7316282629 43.9405787661
4291 1 36.3596283107 17.4685336985 44.1136947049
4292 1 57.4306776568 35.1482832016 7.3771164218
4293 1 59.3138455504 46.3319576812 25.8713912855
4294 1 52.7227287688 56.9378015938 38.8789345986
4295 1 60.421461035 24.1599399428 39.1515819984
4296 1 40.029814491 38.2585976255 54.9839063058
4297 1 46.3212873489 25.5595610259 28.6128503949
4298 1 33.300508159 44.1965501273 34.0383354038
4299 1 8.1825632538 34.2849775127 20.1405481857
4300 1 43.7395333781 48.005917091 54.9304380283
4301 1 35.228748003 34.7221696007 26.4717286739
4302 1 39.342656748 51.5554643769 51.5768633495
4303 1 4.6127948134 56.0553126298 26.0056742114
4304 1 41.3193503964 57.1862512453 45.0139675562
4305 1 34.0366444768 39.9824102275 35.296210159
4306 1 43.0339503617 7.3483006936 28.6628785106
4307 1 33.5923971417 46.6862943469 10.1657698864
4308 1 35.9155558991 51.4182077518 27.3429059194
4309 1 46.8052423143 53.5605539372 27.1498487037
4310 1 49.3251316804 28.0510544802 26.3875904793
4311 1 52.4367288766 61.5846438789 12.3383195262
4312 1 14.0313455955 12.106662529 35.353585061
4313 1 22.0594004696 34.1995565459 54.4450253673
4314 1 56.2114609909 16.8214334327 51.7883458386
4315 1 10.8910026406 14.6398460797 50.168962555
4316 1 53.3516953003 6.4146524421 28.9302782059
4317 1 54.6825131473 25.8376893614 44.2575984224
4318 1 41.9055189827 41.5128157669 39.9479503017
4319 1 13.2859383332 56.160150103 21.9643587113
4320 1 9.7822793072 50.6548999865 18.5957989209
4321 1 61.6363629216 19.9558872971 41.2985345021
4322 1 35.5682161727 41.2813920009 15.2574425849
4323 1 17.3387987831 48.3915650598 29.6034420704
4324 1 35.6256493825 45.0532670317 11.3059794465
4325 1 8.4788428159 39.9850923876 5.0349318204
4326 1 24.9647628811 41.5189963965 3.7805392087
4327 1 15.0724901572 4.6703213157 29.0605961996
4328 1 59.8330767512 54.5744104357 32.1768580219
4329 1 35.6608090022 18.0833897359 11.1977018114
4330 1 48.0876063569 36.0883802988 59.0978150508
4331 1 15.9877481201 32.9637804572 44.3051193015
4332 1 31.9900980515 26.1176835474 20.4116212742
4333 1 45.5697577647 48.193843218 35.0201809053
4334 1 17.3900513632 34.0239333705 46.8177784971
4335 1 12.1396647591 31.8737156285 25.3420145228
4336 1 7.8620392971 52.9020836451 8.5478734525
4337 1 23.0017715721 41.5745637558 9.927407489
4338 1 23.6320208758 16.5371244675 41.6324634282
4339 1 6.3980638652 58.930763126 5.3556307006
4340 1 46.1499789527 10.777535609 17.1966443005
4341 1 56.5478971536 17.6331950024 46.121524733
4342 1 24.7167213843 26.8051911374 50.7144322781
4343 1 5.142900424 42.5425903022 40.6736495184
4344 1 51.3062567237 18.2335323908 15.2376179237
4345 1 8.691264061 33.6491889654 35.5043107942
4346 1 28.0852811748 18.9822048915 56.781536617
4347 1 3.6390033721 20.0820654351 50.5197424432
4348 1 44.1294961261 7.0433274345 31.2674891496
4349 1 28.7826427875 57.4182580896 51.4928417706
4350 1 49.4566158307 22.6636444824 5.9948302558
4351 1 20.8382596455 43.0141257004 11.0012044339
4352 1 16.1127017937 53.7737856611 20.0206672931
4353 1 39.6202020052 3.4479426164 39.9576877088
4354 1 59.7415334626 10.6126993816 59.5688839864
4355 1 56.720488322 48.9665385434 28.7309820527
4356 1 44.6949654339 25.4918073307 19.5472660444
4357 1 39.852383773 39.5593869415 27.1494988567
4358 1 27.1336974356 22.1117025905 22.7151302938
4359 1 15.0207128067 31.6293475249 7.7933818306
4360 1 26.8866471719 52.0991265573 56.2904097889
4361 1 16.1637211424 16.2220872774 58.5498380912
4362 1 18.6329410068 28.4853894847 30.4927530502
4363 1 40.116168383 13.8668592151 54.2421724366
4364 1 43.4962731232 48.5936016809 32.8755024069
4365 1 31.4434621719 14.3599102015 40.7060686703
4366 1 32.883898734 40.243337754 4.1379067151
4367 1 58.3924069579 37.7111454363 57.4401235248
4368 1 26.1701605918 32.1932425213 25.6184519313
4369 1 34.9960997727 6.6481111512 23.2379765799
4370 1 60.0029857595 40.0798426067 12.6574382643
4371 1 45.9517906482 45.7074808524 31.9865412741
4372 1 44.5950841259 28.5393825326 37.8920163162
4373 1 18.7125894987 39.610173059 19.9790355045
4374 1 49.520579517 17.3603726791 42.0987511219
4375 1 5.9310823083 23.8730071254 10.6837183151
4376 1 43.1261350364 36.480617052 58.052647249
4377 1 12.2113250787 50.5032413281 21.8252945435
4378 1 61.1697836887 43.3776166949 6.249460537
4379 1 14.2791538609 4.0158451098 51.9321329404
4380 1 50.0476239667 6.1671415466 61.1023215327
4381 1 53.0067461948 59.9783215486 33.3742092525
4382 1 24.0649564924 55.1005219601 54.9784253701
4383 1 36.9819477499 35.8388811064 24.6428453673
4384 1 47.3986410712 45.2116893981 60.7719493841
4385 1 40.0382108181 59.8812973243 47.3338027674
4386 1 8.4215728681 37.1223529977 16.1961986021
4387 1 46.7418617061 18.6002303158 60.4254259673
4388 1 23.3366917312 49.3109628784 34.7728391025
4389 1 30.035386454 61.4256384343 57.1548233265
4390 1 4.4811998783 53.1729235022 30.1483287152
4391 1 36.5467964359 8.6832175808 22.1058135
4392 1 35.6738116477 61.190599583 44.081275553
4393 1 34.3368714789 55.7115879887 52.9217333828
4394 1 22.2580552367 21.4959719358 37.4468360558
4395 1 54.2629883309 48.8338299288 23.6971507187
4396 1 44.396371051 24.135917118 6.831774976
4397 1 6.1070145152 27.2729365268 7.8549024191
4398 1 26.2495175446 25.5781029149 57.2589611058
4399 1 13.1965524341 18.1694520887 28.6773388517
4400 1 13.1320639773 49.4468784235 30.645636173
4401 1 14.0828897147 28.4773430045 39.9930222521
4402 1 38.6756735131 24.9282621813 16.3157296478
4403 1 23.6732445096 13.9604432777 47.5318744563
4404 1 16.7189865804 28.1418397671 59.9724907659
4405 1 5.5174407517 8.7611751458 34.1725017141
4406 1 22.9806058308 13.2459391637 19.8191554424
4407 1 53.2160129865 50.9960007754 52.961499321
4408 1 39.4952483316 53.9824693744 40.594525797
4409 1 42.0982263515 28.8622912794 50.6218394485
4410 1 51.5541232969 18.4348110101 36.7897651516
4411 1 59.4529097182 10.9223722516 16.470828468
4412 1 42.9275385771 43.6118975444 42.9007169766
4413 1 23.2491716827 53.1339738737 51.1148321271
4414 1 11.8286508091 45.5121496314 52.0148134393
4415 1 60.5355694528 10.780217769 26.6061282155
4416 1 52.2857699121 36.2160161324 39.6232340122
4417 1 56.3097096797 60.1805330932 19.9503480535
4418 1 12.9332342867 52.827216395 28.8691132952
4419 1 47.7422490966 60.7695587631 22.8412501239
4420 1 8.4761898097 47.9473760326 32.5327689988
4421 1 10.964412195 36.6649280937 52.14816344
4422 1 42.1708779041 42.4809006211 16.4985829938
4423 1 25.4437616811 20.997964784 12.4799492384
4424 1 48.809807104 20.7261920017 60.8786527078
4425 1 7.5142389389 58.1299634278 41.475673681
4426 1 20.0298216219 36.1022575616 16.5409144763
4427 1 21.3618639333 41.1072265212 3.3503815693
4428 1 61.3460482502 56.8543047853 31.4615375984
4429 1 42.8816503172 26.5835630864 11.8324408178
4430 1 33.272520402 55.8108862184 55.6940956406
4431 1 14.6901657346 48.2666113862 41.6796344603
4432 1 53.7421245109 7.8015390956 41.5280341097
4433 1 8.8848752011 59.2200865643 11.6164103182
4434 1 59.1927401934 21.8007469483 34.3631683089
4435 1 47.1809196446 28.0439992331 18.5781316493
4436 1 13.3706012982 13.0496167097 25.471457899
4437 1 31.5015367678 24.5150346102 56.193560488
4438 1 35.8146250503 61.6273835163 25.7256800254
4439 1 24.2328247268 20.0760014211 16.3095490181
4440 1 44.5035408373 13.6076809234 27.9510565566
4441 1 58.4836587074 54.032205951 21.4233203831
4442 1 42.7327904344 33.8909332168 35.3521856731
4443 1 18.9746831817 42.0114059969 4.4964298827
4444 1 12.9622715846 30.9332686843 59.0927422698
4445 1 35.2524209809 55.1001721132 27.3135187745
4446 1 45.6481817922 18.2152820409 13.5033099128
4447 1 53.6028854197 11.298049582 8.6385013082
4448 1 32.2155744191 46.5758010144 3.4560339936
4449 1 4.3814585092 17.7131350334 6.1915608646
4450 1 25.59326295 20.4310960884 34.8473565056
4451 1 38.110320821 12.2406539158 11.6253897236
4452 1 49.7006340873 28.9034566054 59.3854475621
4453 1 25.2368855104 33.8119844188 38.1470547521
4454 1 44.5918188876 40.3094005222 12.6985452824
4455 1 60.6621557455 13.6711198394 40.5869457795
4456 1 38.0383106545 5.7101014742 12.4644976642
4457 1 19.0971879266 11.7173994749 30.3709479992
4458 1 37.4718501137 15.6286885204 22.981538756
4459 1 46.4934703625 13.175678232 22.1798061326
4460 1 52.0689814107 45.6262580492 28.887072106
4461 1 59.3055075311 45.3778667055 42.8390856033
4462 1 8.9437661065 48.2892348232 23.5695148851
4463 1 6.0533888066 35.1250183785 56.973485984
4464 1 18.5422723356 5.4358156245 30.496193212
4465 1 40.9093297558 7.4679075394 6.7747790749
4466 1 33.3703026281 7.4106784071 40.2490519211
4467 1 45.5168142576 9.6202418556 33.3752004856
4468 1 24.1225646256 53.2720468084 41.912515922
4469 1 8.9587337257 27.1104909204 61.0927590491
4470 1 60.5360942232 31.7597238264 47.0168997268
4471 1 28.4803750116 28.5681282914 61.6131564064
4472 1 21.7855869132 29.7851875676 35.122161295
4473 1 59.6702812978 23.6293387157 5.3701551803
4474 1 17.4244529812 44.2159666338 59.36457336
4475 1 12.7903218024 55.1957969497 30.5000998364
4476 1 21.2067651131 4.0181482689 25.8817117709
4477 1 22.2287263996 44.5912941172 17.0556559744
4478 1 4.5797284446 35.0012308615 16.3142719521
4479 1 22.7623013259 42.7506326295 7.3364233892
4480 1 6.0442344777 3.9753969701 58.6490197052
4481 1 51.6590773858 9.8446686823 35.3647801638
4482 1 45.0673775259 44.6622547428 36.6038214908
4483 1 16.8264479059 10.465821965 57.6246677977
4484 1 57.6020443608 21.6159694441 54.850264766
4485 1 57.123278792 20.6056114151 31.7731929345
4486 1 55.4255297887 41.5140985391 24.0672304977
4487 1 36.0510049816 19.8214294477 22.6832942201
4488 1 46.4866483467 9.5600098701 23.2992581062
4489 1 42.250876243 15.7962069079 57.8001743574
4490 1 33.3247642151 56.801128047 34.6587889926
4491 1 23.1776279788 23.8135914495 7.9534659701
4492 1 4.8544749262 24.5254717113 38.5990570283
4493 1 22.8435241292 54.2514433811 10.4736935216
4494 1 51.7117876615 48.4493481166 34.8837405897
4495 1 4.3779075625 15.9136388718 61.1734570818
4496 1 32.4711959334 42.5770502281 26.5713767505
4497 1 29.9970782115 5.276833503 18.0761595653
4498 1 4.8869990322 26.503389824 10.616606006
4499 1 12.5209396409 26.083398545 39.9960542591
4500 1 37.0038714929 34.6811791982 21.9760202767
4501 1 46.6060044689 43.1314993565 41.0283943388
4502 1 42.5127366947 52.3065858064 11.1950196514
4503 1 42.1648721979 29.9714227676 46.9290298313
4504 1 15.8233200475 59.6138393211 11.4990366622
4505 1 47.3321118404 9.2345355789 53.17164073
4506 1 9.155236934 32.8227921311 45.7201919587
4507 1 60.6227396544 57.7117796915 25.5126815328
4508 1 23.2805996015 31.9264259043 47.5807364154
4509 1 27.6123463887 8.5829689336 43.4340586716
4510 1 18.027006067 7.9802584167 54.7718407385
4511 1 37.7844966829 40.0077158245 14.1015482194
4512 1 45.0962399003 53.9623531741 60.6211070352
4513 1 29.3634470538 11.6095299946 17.4620032219
4514 1 44.7482587879 36.1483207451 12.3493397056
4515 1 7.7106255315 38.8778267499 29.5727721533
4516 1 36.1617315453 4.0443867912 57.0303944233
4517 1 47.0254709774 10.3561449421 35.7553259901
4518 1 28.990976654 54.3808284496 10.4339858914
4519 1 3.403852978 49.6215103659 8.8741057454
4520 1 11.8141904679 57.1224624824 17.6724361701
4521 1 9.9788933004 19.0954969996 39.5689494252
4522 1 41.0700844353 54.59656741 38.3440185923
4523 1 38.7738638941 23.7881692369 60.3454859362
4524 1 5.9408138847 19.71000319 49.1598289904
4525 1 30.8280813641 60.418429028 13.9271495084
4526 1 21.5493235976 10.5561990971 24.1523599253
4527 1 36.7834095985 35.0849025934 13.6424906962
4528 1 24.6100763685 55.8705934334 46.5160354916
4529 1 52.6398150385 15.6695623073 31.3799066403
4530 1 11.9591437263 55.5740981323 37.0806045935
4531 1 43.1555221813 32.9392328619 45.1825354845
4532 1 25.2284308755 11.1629503465 34.4706879422
4533 1 40.8060082861 51.7086973467 37.5696906477
4534 1 8.7214150384 19.7012570159 48.3422949459
4535 1 47.1043031597 10.6837766229 11.7123850017
4536 1 38.3390041191 38.7057020441 51.8914923848
4537 1 25.4871427045 10.8821398509 22.5258630868
4538 1 9.743912757 56.9339532772 56.4743126758
4539 1 30.763709523 34.9872369829 10.1700846657
4540 1 61.2863410352 54.060893402 45.014725558
4541 1 9.9493895399 48.6534255116 50.4551373707
4542 1 19.709653343 11.3332675096 20.644794275
4543 1 60.8320647539 56.6411313692 52.2596480055
4544 1 9.3309184172 22.8683049557 5.6831341041
4545 1 27.4668683599 59.9016467559 60.2347593725
4546 1 60.215692713 13.0020375228 52.4693229519
4547 1 11.6081889146 61.4167756446 41.5717649801
4548 1 60.5891543459 25.559852565 46.672067237
4549 1 55.3289720269 20.4533696784 39.534606115
4550 1 5.5315862306 60.2033897615 25.0542653957
4551 1 15.0790789417 56.3995037335 29.210913778
4552 1 12.8494459391 52.8103071251 53.1890747703
4553 1 9.9356288927 45.7764590119 10.7495478519
4554 1 49.5171393552 40.2392562061 17.64345718
4555 1 19.0047117127 11.6085970694 40.4173283103
4556 1 54.8312564143 54.8507895364 21.9837752177
4557 1 20.3688816369 44.7413784643 50.0990514703
4558 1 11.6231157184 54.2316187199 14.0779918573
4559 1 33.4731576352 40.9706112821 31.7645050683
4560 1 61.1814452542 61.5987543731 15.8176058804
4561 1 49.9414454135 60.0747626948 51.3246236892
4562 1 28.7723223021 39.8925578659 51.4853783687
4563 1 31.244749097 48.9261312192 23.988864778
4564 1 34.8740031826 19.1308315429 8.720272205
4565 1 26.217681471 13.7196902594 38.4915957028
4566 1 21.397723247 4.0623456019 19.222549755
4567 1 29.2038585309 19.9462081978 19.1207442888
4568 1 51.8426304257 45.108484544 10.5560824814
4569 1 57.0267210302 56.9820572346 9.8260684854
4570 1 33.6017263941 4.5410295397 3.9842247751
4571 1 18.6161483526 47.8721006277 61.5428954747
4572 1 60.7918906609 25.0154323829 23.7257798618
4573 1 40.9964999574 34.8341789367 48.1098799469
4574 1 49.4919503739 47.672979398 8.5451563077
4575 1 6.0425552123 50.7915735334 14.5046885364
4576 1 29.2399510759 19.8901160681 28.3748961522
4577 1 54.060543555 5.094516589 3.6766323284
4578 1 13.1967273576 29.948682715 20.9178498295
4579 1 52.3569054612 27.7177086324 50.3338570902
4580 1 17.8610036831 28.9959911271 57.4119608442
4581 1 33.7698278598 58.3020298258 24.5699022756
4582 1 45.8033972281 40.2644451875 41.020930937
4583 1 39.2279652519 20.521298297 35.5313073181
4584 1 40.8053669 27.5521727111 13.6889037266
4585 1 44.9542603412 38.9612069427 36.4984009393
4586 1 32.4955686051 31.2948938283 22.517699991
4587 1 41.6849987804 4.7431186379 34.363809695
4588 1 41.6705967471 50.8933206918 53.3336198739
4589 1 30.5105952453 16.951226656 47.5153150334
4590 1 37.2684724126 39.1020203453 49.0870608221
4591 1 12.434877288 6.199840576 9.5391939758
4592 1 11.368543745 26.2715579033 22.8412501239
4593 1 35.2836739762 28.1656293606 37.3429315078
4594 1 6.390932818 43.9326489016 55.8596315619
4595 1 45.4827624865 28.0253990363 34.3360551693
4596 1 16.191533976 27.9494239375 43.7109625428
4597 1 51.8095698877 14.0444065488 38.7277424028
4598 1 25.9409525233 36.6166492128 35.0208805992
4599 1 23.2498130688 31.5551799688 44.6261621978
4600 1 40.9964999574 48.524098751 31.3029986163
4601 1 52.1657724038 36.790989616 43.4314931272
4602 1 15.4988369894 5.5017792693 36.2553739157
4603 1 49.1127745739 10.2149233847 48.1375178569
4604 1 33.5507070453 34.2382146353 11.8407205293
4605 1 3.3692246591 51.4673612501 37.052441913
4606 1 43.0098109212 44.6049381487 25.8836359292
4607 1 32.9623227615 43.2755196896 29.9935214341
4608 1 21.6265814686 20.2127915836 15.1846161088
4609 1 9.7153419217 37.3206579179 18.6233785231
4610 1 32.6007559253 6.1708615859 44.7590457359
4611 1 14.8940098983 22.6343739531 33.2465734189
4612 1 21.8706580331 16.5282616778 37.490975081
4613 1 15.9087410143 24.0588341705 23.7703853496
4614 1 22.3344384903 10.7458744588 35.6356783287
4615 1 52.3426200435 39.3629478718 52.4904303854
4616 1 34.2380397118 12.8650724368 21.9682653357
4617 1 40.2216472423 46.5292130605 55.4852370037
4618 1 39.3864459262 49.0214645166 33.5822515798
4619 1 34.0011933179 15.1502727986 16.1683274608
4620 1 45.3532608024 31.4750650143 20.9723676479
4621 1 38.2670522604 34.9235648357 47.2232511271
4622 1 33.0991712318 8.3703377803 56.7615953401
4623 1 12.6449603893 56.2827131557 43.0954068115
4624 1 13.5954362797 13.6380009935 37.6693387243
4625 1 37.7131862103 28.2362401393 39.1870331573
4626 1 15.643673632 57.4289284219 3.6561277979
4627 1 40.3829266922 37.6390186541 32.2549322025
4628 1 18.6790041902 54.033896878 57.9299092729
4629 1 52.9608579349 54.5293384853 25.0592215611
4630 1 47.1226118175 31.6456737165 30.080225173
4631 1 9.6935347943 31.9603027518 42.9374509077
4632 1 35.8882095282 11.2932100323 35.5934634619
4633 1 33.7547261325 50.6197986746 37.7462467483
4634 1 29.185958028 57.0928421062 39.6224177027
4635 1 50.1486131233 59.3667890574 59.1918072682
4636 1 39.368603731 51.3875961426 23.6958096387
4637 1 59.9864263366 12.3771525391 57.4698022088
4638 1 57.9724739867 59.9720826111 39.2432419027
4639 1 20.356695301 27.8447030799 36.8057414963
4640 1 13.7493689434 20.1769905777 41.3557344805
4641 1 52.5475137482 24.6234871687 27.5075089155
4642 1 14.3353626063 57.1677093563 37.780065288
4643 1 36.6435874289 43.9809277825 28.133093593
4644 1 48.5302793806 45.8688186101 47.2359622335
4645 1 15.5467077155 3.5700975143 13.2943929681
4646 1 52.5717114964 13.3243048834 10.4113041466
4647 1 54.1287637128 13.30185637 12.6930060388
4648 1 34.3319736214 10.2939887984 40.1644472639
4649 1 55.6517058502 44.6339754466 4.2423127104
4650 1 30.9016075342 27.7975903556 30.4647069853
4651 1 48.626312372 24.3250677093 20.4537778332
4652 1 35.0824536647 59.305215992 26.9980151218
4653 1 5.7701235515 31.480895797 11.8579796461
4654 1 49.4107858785 15.3482278718 19.0281514592
4655 1 35.966866787 24.5132270676 19.9300569297
4656 1 51.9740562681 48.8489899639 51.7294549332
4657 1 54.076403284 23.6976754892 21.6880379184
4658 1 3.7217520912 4.8551687893 4.0724969946
4659 1 45.9109168613 19.9768198071 57.9858847869
4660 1 4.6000487224 17.6355856233 9.7314931898
4661 1 54.4751122061 34.8071824127 45.8268952824
4662 1 56.7067859826 13.457713192 47.5898324365
4663 1 47.6286071415 49.5335238547 26.136050513
4664 1 31.4304595265 20.6488758229 32.1479373396
4665 1 8.1505755798 13.1313059756 15.9986516837
4666 1 29.196395129 16.5707680838 38.3928222436
4667 1 20.4843311346 12.2950551185 57.6986604304
4668 1 17.3387987831 58.4392281431 35.3780160405
4669 1 41.0071702898 57.3586674902 36.1246477673
4670 1 51.2049177201 31.164109372 28.386091255
4671 1 52.1828565971 6.3937199321 34.3134317323
4672 1 14.0214332649 14.1918087359 6.8954121385
4673 1 55.7571264017 49.1355146265 46.5346356884
4674 1 38.765467567 23.8106760582 27.0895001026
4675 1 6.6603441333 24.2734652823 44.9504120246
4676 1 44.8273825093 59.0044059117 40.9387169007
4677 1 5.9820899955 27.8192808673 30.4753773177
4678 1 58.8828923999 5.073129278 59.0947247359
4679 1 22.3986937158 56.7014799704 37.0900504615
4680 1 26.149869468 57.6488072381 61.5426039356
4681 1 39.2437666731 20.5327266312 17.7768654885
4682 1 46.4865900389 5.938685649 16.1367246184
4683 1 29.0114427013 5.5492243483 49.1121331878
4684 1 13.4034869127 57.2915551812 58.8848165582
4685 1 9.0377641546 41.3833723906 60.9038416891
4686 1 22.2798040562 51.7160441329 15.6082224731
4687 1 8.2547016975 39.3484875307 52.1071147297
4688 1 26.219022551 19.0662847782 14.5024145311
4689 1 9.0513673707 21.8611538572 9.837671743
4690 1 18.7473992715 56.8895810208 11.7111605374
4691 1 45.5289422857 8.0954746831 55.0286867171
4692 1 49.5306084633 51.1062608765 3.8628249636
4693 1 60.8649503684 30.8492471054 40.6467113023
4694 1 20.7126062779 38.1744594309 29.709853855
4695 1 42.7483586243 19.7316937017 6.9517083456
4696 1 40.3938302559 42.3823603932 10.5867523985
4697 1 40.460242871 40.9014581991 45.5448603225
4698 1 58.8850497895 29.3856040281 28.6357653709
4699 1 3.4521576892 48.1684210053 38.2524169958
4700 1 25.860779261 59.0370582949 53.2575864673
4701 1 7.2245889767 53.9108673627 50.3360727876
4702 1 15.6337613014 7.5411363396 42.6699929046
4703 1 47.4249962091 47.3966002973 42.6425882258
4704 1 42.5604908052 38.5736348156 23.3351174199
4705 1 29.5626265914 50.5468555828 10.4741016764
4706 1 44.7417283112 46.0354040723 49.341457872
4707 1 59.4919176545 42.6915084928 3.9340508898
4708 1 4.606847415 59.5490010173 49.63562086
4709 1 52.2502021375 60.4839087179 16.8386925496
4710 1 19.2981750068 32.4030923913 25.1628345699
4711 1 34.0970513858 40.85661948 11.1722795988
4712 1 26.9497945487 25.635419509 38.7471589092
4713 1 5.2813523596 26.1314441946 59.6285328935
4714 1 42.6439876137 42.7028202113 58.7528659453
4715 1 50.0529882868 10.8371845161 37.6773268966
4716 1 20.7123730466 34.7075926439 36.2177653672
4717 1 23.5046765813 17.2965839162 31.0307010635
4718 1 29.3022821431 10.5104274528 44.5945010477
4719 1 39.8727332046 39.3509364594 17.09897869
4720 1 30.8058077742 34.4673060882 57.6618098836
4721 1 54.5745270514 15.2278222088 48.1894701309
4722 1 37.8461280562 29.9493824089 42.4259163401
4723 1 37.6221676921 43.1807111626 3.9538697203
4724 1 46.9902530498 54.6833294569 9.4159895371
4725 1 18.6146323491 56.3771718357 19.1204527496
4726 1 35.4599968455 14.5774567047 5.4115828915
4727 1 32.6560317455 40.30677667 39.0491934539
4728 1 55.5037788928 12.4374428324 56.2436469115
4729 1 16.3024937711 38.0879306154 38.7960791762
4730 1 45.977154553 37.1126738984 25.1676158117
4731 1 29.2424000047 59.7413585391 8.4148732987
4732 1 36.9326193282 18.1347589316 31.1802606402
4733 1 40.0903380156 36.7642263233 60.6089790072
4734 1 46.5297378309 22.5793896721 60.9857058784
4735 1 34.9335354741 10.7511804711 27.9302406623
4736 1 11.2455142297 61.3745607777 45.1828853315
4737 1 27.3817389323 51.6284074687 8.885709003
4738 1 26.5467125396 53.877048823 11.5856820933
4739 1 42.5551264851 14.0626568987 41.5759631437
4740 1 41.1752717555 37.9699738811 51.6838582123
4741 1 26.1270127997 43.1604200388 15.2815237176
4742 1 17.0532653535 54.8657163402 4.313786445
4743 1 50.1038327121 40.8777269135 34.4891132156
4744 1 40.0587351733 52.9657557923 45.8793723269
4745 1 42.3416615299 23.444386288 49.9088513381
4746 1 18.4561516749 50.0124643469 48.6818797312
4747 1 34.0101144155 15.3274702854 25.5933795656
4748 1 23.6240910113 8.9581914629 13.3597560424
4749 1 7.7424732667 8.6518596314 29.0278855085
4750 1 4.8056712748 12.5484026275 14.1926833533
4751 1 24.7796355298 28.0391013756 42.2595641092
4752 1 6.0415523177 49.8355000915 41.4322926576
4753 1 13.0904904965 50.1384092536 40.3008292716
4754 1 29.7356842224 24.7111238329 14.7147133298
4755 1 45.5758800865 25.4086603692 49.6494981229
4756 1 46.590436279 9.5586104823 28.4127379321
4757 1 5.1480490051 42.9630480439 24.4660560354
4758 1 24.9332183466 36.7986862492 14.3908133499
4759 1 9.9583689453 38.4306640234 8.8596687274
4760 1 46.0229261973 27.9535054854 30.4240664298
4761 1 17.0897660533 49.9632525408 20.5414144974
4762 1 41.1203457823 57.0108613012 3.8700504695
4763 1 48.3510994278 5.047555465 22.0354359526
4764 1 53.4424222793 49.9749141062 28.450871251
4765 1 47.2510056529 60.7110760125 52.0329471735
4766 1 34.2979218503 31.4201973489 34.9942339222
4767 1 57.8245470292 26.4287558053 42.4586270311
4768 1 55.3159693815 14.3970522874 8.3932527564
4769 1 19.3874442902 3.9431119262 38.2148667551
4770 1 15.4401793153 8.4587907541 36.6035882595
4771 1 51.1758804222 31.0002060699 35.6546866804
4772 1 55.5240117088 43.8276365049 33.2097811799
4773 1 11.1781103815 32.3934715998 15.1296318278
4774 1 29.8309009041 38.2589474725 53.8118606722
4775 1 3.7728029261 42.9515614019 56.7797873822
4776 1 8.5421767777 16.1655286851 19.9302318532
4777 1 22.9587403956 35.4552156037 38.8033676546
4778 1 21.4300840911 46.0114978632 31.6585014385
4779 1 41.7922268746 42.7652095863 36.4197436805
4780 1 26.0394927512 34.3317403901 8.1084831594
4781 1 44.4649993636 4.0499551887 31.6002519192
4782 1 29.8476935583 52.9683213367 36.9605487774
4783 1 30.4909455075 48.7265435268 52.3914236949
4784 1 17.1710471644 51.5330158635 16.3610931373
4785 1 11.3563574091 34.3642178498 36.3136234351
4786 1 53.8745998942 56.9776841476 30.9856874209
4787 1 19.7488945107 54.6786065229 26.4244993339
4788 1 8.8967583362 27.1955620402 15.3428052439
4789 1 51.5966297029 60.0948205873 8.4460679862
4790 1 19.1150301217 31.5756460161 32.9727015547
4791 1 33.3449387233 36.1104789653 18.7728214841
4792 1 42.493086957 52.9274475499 60.3798292464
4793 1 27.9392783756 16.9488360351 61.1843023377
4794 1 5.2024385463 57.1300424999 61.5929818982
4795 1 5.7246259539 22.5680779537 13.8763050831
4796 1 53.9610704019 33.7016660098 6.4911989576
4797 1 10.9391649058 41.4617381103 34.367191549
4798 1 43.3291628906 46.7837850339 36.1626644706
4799 1 57.0748249876 33.7270299146 48.6992554637
4800 1 4.4831881752 52.0462413581 42.3697075947
4801 1 45.6636916742 11.6789163089 26.4853143976
4802 1 44.3706572992 44.1280384304 30.3913557387
4803 1 18.6605789169 59.463754974 61.0094954719
4804 1 57.9615121152 13.3060545335 41.4782975332
4805 1 32.4345203101 14.5024728389 31.2278981349
4806 1 51.1080101113 38.19836564 54.7145241444
4807 1 43.5591872687 16.405407086 40.0386772807
4808 1 56.0120482221 41.6652907349 11.6218329462
4809 1 52.5834896775 27.4917074943 4.4862609977
4810 1 45.4248045064 30.3457590179 18.2977876163
4811 1 32.202805005 58.5012093633 26.9324771241
4812 1 16.9040556238 33.4997460044 33.3555507478
4813 1 41.2187693945 25.4899997881 9.6900946325
4814 1 7.6824920049 42.9977995088 20.6298091634
4815 1 51.487652374 54.5351109602 45.2463825553
4816 1 48.6011233906 50.0258168393 47.1610949834
4817 1 42.0354871295 17.0528571987 33.8147248867
4818 1 43.9809277825 22.2648189446 11.6904029509
4819 1 26.5879944812 61.0652960625 14.7609514367
4820 1 58.4114736173 59.440140304 57.6090996078
4821 1 6.9679179216 30.9316360652 39.9821186884
4822 1 46.1884038108 55.0165003812 24.894268718
4823 1 39.7242814767 17.891382061 59.9461356281
4824 1 52.2574323081 50.6360082505 33.1490827319
4825 1 49.1561555973 37.0795550526 33.8332667757
4826 1 21.2887459181 34.2729077925 19.5618430012
4827 1 19.403362327 61.3435993215 42.0314055816
4828 1 12.3486983195 5.2875621432 53.4297694808
4829 1 31.4399053945 31.1527393457 14.0927437375
4830 1 10.9191653211 35.7348599427 30.1678035294
4831 1 30.3838923369 23.2555855437 52.9896620015
4832 1 17.7776817981 56.5845727769 52.5538693013
4833 1 39.9885908572 23.9261838638 18.7377201722
4834 1 38.5003418769 11.0207958638 46.6532338089
4835 1 10.626401721 58.4106573078 7.8957295596
4836 1 21.0593046182 5.0875254805 43.2380277567
4837 1 30.5798066361 55.2366124287 51.6369787193
4838 1 19.5045264071 47.2576527452 54.0275413248
4839 1 24.9795730692 34.8570356049 12.2697495215
4840 1 48.9599497589 30.3706564601 9.1634933223
4841 1 8.439741587 4.6196926294 12.7913713432
4842 1 13.8256938892 53.5407292759 36.2496597487
4843 1 52.7271601636 53.4040557291 42.8916792634
4844 1 37.9680497228 55.8668617325 47.0522342701
4845 1 33.6267987598 58.3051201406 20.6275351581
4846 1 46.8260582085 18.5725924057 41.2717712094
4847 1 33.1654089235 6.9231375103 25.5684238156
4848 1 45.0245212729 56.9759349128 46.8082160134
4849 1 10.7472738467 54.2102197473 56.5884794013
4850 1 26.1166340065 49.4559161367 26.4375602872
4851 1 15.2711449243 57.9830860112 52.9820819839
4852 1 31.5737218578 21.6362022601 29.5290412829
4853 1 30.2457027865 43.9637852813 25.0831277702
4854 1 39.4087195161 36.2433625034 53.2582861612
4855 1 45.1424780073 41.461504879 24.4893791663
4856 1 47.8526841213 35.7858792915 15.1537129604
4857 1 5.557632337 61.2785860942 53.810927747
4858 1 32.1654879956 30.4789340951 19.6432407279
4859 1 46.8587688996 37.2000190235 22.4156029857
4860 1 36.885448296 23.9910804754 29.2867139533
4861 1 13.4713572235 12.9707845274 58.5416749954
4862 1 43.9336984425 14.627601436 53.8713929637
4863 1 60.5165027933 39.2700051953 61.5677929169
4864 1 29.2653732885 46.2035638458 52.662263552
4865 1 8.9030031045 57.4126022303 52.3035537993
4866 1 45.1267932018 21.263790168 16.8988662272
4867 1 41.9294251919 19.2422578006 50.0982934685
4868 1 61.6281998258 28.0806748564 37.2277735492
4869 1 28.3918637299 13.1132305491 43.9175471744
4870 1 28.0344367495 7.575876143 15.863960603
4871 1 44.0769607738 42.9505701688 34.4740697962
4872 1 6.1829021523 16.4591085948 32.6016305427
4873 1 11.9633418898 18.4681047794 48.2448042589
4874 1 34.7564546031 43.8818627842 20.0495879754
4875 1 11.5088323771 29.2112636249 47.7983995342
4876 1 6.0585723724 33.0513588136 34.4232836787
4877 1 24.2643109534 45.9324324496 7.2749319547
4878 1 60.8409275436 50.2482611999 30.0585929692
4879 1 53.4052218856 20.5947661593 37.2976263261
4880 1 17.5179204281 4.3191624266 58.419345174
4881 1 25.6865554734 51.8800640507 38.0974930991
4882 1 23.48216976 56.8000785061 26.5496862388
4883 1 41.5076263702 14.6558807322 35.4820372042
4884 1 44.1657635946 54.3869507714 5.6798280503
4885 1 19.8554229109 15.9426761697 49.6564367543
4886 1 54.0553541584 28.3226523391 48.0802012628
4887 1 8.0624024836 29.9170215648 30.3184709548
4888 1 51.7296298567 58.157892877 28.1740256877
4889 1 36.9951253189 33.4758981031 19.3322267779
4890 1 34.7794861948 50.1926938407 4.8709760413
4891 1 55.5632528765 22.1257547769 59.4937251972
4892 1 19.3557248322 35.1301494673 13.7321681344
4893 1 14.2888329602 43.4278197341 15.6139366402
4894 1 30.6268610526 8.6196795416 16.0304877574
4895 1 20.7417601915 40.0635747229 55.7904201711
4896 1 34.9370922516 10.2634938048 53.5534403822
4897 1 32.3742300168 35.3639638542 44.0152710927
4898 1 5.519714757 53.6546044624 13.5655826722
4899 1 49.623142985 48.2607806035 14.345916323
4900 1 8.3230617941 42.2028889012 33.5741467918
4901 1 43.0559324125 27.2532284812 32.8176027345
4902 1 10.4611573388 11.5832331646 29.7777241658
4903 1 17.3801973404 19.4437696512 21.1814012083
4904 1 47.0311851445 9.4190798519 3.7216733756
4905 1 11.1815505433 60.5215755743 32.1885778952
4906 1 53.4037058821 19.8862094437 41.8444706877
4907 1 50.8037598693 18.6521242819 33.0817371915
4908 1 53.5479011387 34.1222403671 11.6064979876
4909 1 17.1288906053 30.2388807707 52.6971316326
4910 1 30.3807437142 51.8801806664 44.1823813253
4911 1 43.7310787431 42.952552635 38.5194668442
4912 1 29.5053099973 45.4204897271 34.3286500752
4913 1 6.2947773802 39.010360441 27.2585344935
4914 1 22.6325081027 27.3488533178 17.8063109412
4915 1 18.3801182682 46.6778980197 15.5580777418
4916 1 35.946633971 56.3256277165 39.6729705888
4917 1 45.7564011194 61.0215068843 44.8670318318
4918 1 28.0323376677 20.6812366669 5.0661206772
4919 1 45.7973915219 37.7349350298 15.9781273286
4920 1 51.1302837013 48.8960443804 16.6663929203
4921 1 29.6718954595 6.4292643835 42.3887159464
4922 1 14.9124351717 13.4678587539 56.0676738892
4923 1 61.1350322238 46.7044863889 44.5526943356
4924 1 50.0402188727 57.7612247289 24.7814430725
4925 1 19.2275059203 9.5758112913 38.3834346834
4926 1 61.5693672282 4.7153816045 57.8777820754
4927 1 38.1825642189 46.0327219123 40.9322447319
4928 1 9.3427549061 60.1771512392 25.12096955
4929 1 38.2308430998 4.5368546993 59.0709351425
4930 1 10.2832018503 32.6121259516 23.3481200654
4931 1 8.5406491127 35.5025032515 55.7110632183
4932 1 44.9087219282 21.1903806136 51.4680026362
4933 1 55.2413353627 34.1432894927 40.6948735675
4934 1 42.9989656654 5.006605878 24.9306528022
4935 1 51.5080018056 16.592633519 58.4677989784
4936 1 6.5212741348 38.6274529401 23.7969737188
4937 1 24.4664641902 5.289043162 25.2752520607
4938 1 8.0397907082 59.2939625813 55.9937978722
4939 1 59.1255695765 16.3450584849 46.2969729849
4940 1 42.6906338754 8.0234178703 11.3671443571
4941 1 25.9404277528 24.5598733293 44.9005588324
4942 1 19.7132101205 9.0809935777 12.8079307662
4943 1 48.5973916897 32.9903688264 33.5456342644
4944 1 4.6389225507 16.311298253 19.4426618025
4945 1 23.038213964 12.4751096888 22.6444612072
4946 1 13.5974770537 28.0354862904 49.6261166842
4947 1 46.6658866074 13.769076989 6.8902635574
4948 1 48.8620509172 39.4525086943 29.1426353124
4949 1 40.7169139262 28.8630492812 33.2297224568
4950 1 57.8854787086 31.0265612078 43.6237923412
4951 1 56.8355879728 36.721836533 20.4716200283
4952 1 37.8016974919 59.9231040363 24.5931087908
4953 1 59.8896936514 12.6260103454 30.5572998148
4954 1 10.6975372701 14.1128016301 54.8373204284
4955 1 26.619772247 5.1448304131 60.5909035807
4956 1 43.1219368729 24.1826216876 13.4846514081
4957 1 35.7153851285 20.925779694 42.4407265282
4958 1 38.3363802669 20.2421204206 7.1242178831
4959 1 41.5094339129 23.6050243518 59.8360504504
4960 1 22.2668014108 27.8967136617 38.8399849701
4961 1 38.892636938 47.4439462529 36.0460488163
4962 1 35.6390018749 33.3620229167 29.7051892288
4963 1 46.3917232041 41.6383525187 33.5434768748
4964 1 41.0234964814 13.5270995063 61.5468020991
4965 1 32.3966202224 29.9714227676 48.4326137702
4966 1 3.5733639188 33.4679682386 6.540562364
4967 1 60.0858994897 18.7715970198 10.1834371581
4968 1 25.656002172 22.2033624948 20.0724446436
4969 1 27.5273335767 4.91700424 41.0174907752
4970 1 54.6517266145 36.5718104937 16.4610327531
4971 1 43.087476947 49.4378407103 43.1523152508
4972 1 36.0733368794 55.9258109457 35.1742884925
4973 1 42.0368865173 13.570363914 38.7778288263
4974 1 60.4837921023 45.2235841948 9.4017624272
4975 1 22.1522848382 41.0764399884 17.9379117071
4976 1 56.7704581299 18.2009966232 58.017895784
4977 1 35.8148582816 22.121323382 24.3987688029
4978 1 5.6061736031 56.8891145581 32.7605776795
4979 1 37.8802964429 26.739186677 13.959685276
4980 1 26.8159780854 23.9902641658 10.4169600058
4981 1 22.8261483967 4.017046251 23.4231622389
4982 1 52.942607585 23.9221606237 9.2235153996
4983 1 35.3546346019 44.5747930021 30.7118155568
4984 1 14.7937204356 17.592496139 56.6404899831
4985 1 13.4979455927 8.2372326725 30.1227898869
4986 1 26.4953433439 13.9897721148 29.479421322
4987 1 31.8554069708 17.0672009242 60.167122293
4988 1 24.9638299558 36.6823038262 23.7039144267
4989 1 19.0375973272 51.7845558298 39.3185173075
4990 1 60.8464667872 50.7885415264 34.4673060882
4991 1 47.1561388181 16.2880334299 59.0379329123
4992 1 27.8358402902 24.2566726281 20.6350568678
4993 1 59.6618849707 35.7229068382 30.0898459645
4994 1 26.3596610301 26.685893323 46.8658241467
4995 1 23.0759391282 46.8885058914 21.764771019
4996 1 13.3783562392 29.4440867788 4.1003739668
4997 1 49.0776149541 58.1571931831 6.8190755312
4998 1 16.3533965042 55.4143346859 23.6082312823
4999 1 45.2766443176 34.3165220472 52.1635567063
5000 1 50.2386987163 58.7466270078 44.523890269
5001 1 61.6069174689 52.9354357222 12.0512700932
5002 1 44.6581148871 6.1673689471 40.7389542849
5003 1 25.9200200133 28.1803812408 4.7678236642
5004 1 18.0659556955 5.5257146324 20.9293364715
5005 1 32.0017013091 34.1203745166 38.0896798502
5006 1 25.2398592096 31.7769829433 20.1962904685
5007 1 26.9047225983 56.4268501044 53.362598864
5008 1 37.7010581822 5.8343204692 41.7354350509
5009 1 51.2819423598 28.0779926964 44.2957900491
5010 1 32.8085650213 40.3003045012 50.9533777537
5011 1 27.5375374465 4.5901655457 29.8030297627
5012 1 17.8545898221 31.6716206996 27.642258304
5013 1 50.2795141953 35.4755650354 54.2612974039
5014 1 29.3184917191 25.2147868439 4.3996097358
5015 1 52.8256420837 53.4412561228 47.654087662
5016 1 39.0101272097 29.1539470309 56.6940748763
5017 1 24.0822156092 10.8523445512 18.9634880789
5018 1 13.3705429904 29.8156825612 23.7537676189
5019 1 23.03080887 6.6387294218 55.9923401765
5020 1 33.7378168627 12.5621049669 6.5062015615
5021 1 51.3180349048 50.1413829528 26.5030399771
5022 1 39.5148980694 61.6502984923 23.2087060506
5023 1 12.7412849197 5.2435630568 35.0132422739
5024 1 5.8348685627 41.849426853 14.479499555
5025 1 14.0427156218 53.6809596002 9.6286381827
5026 1 8.0719008286 57.4322519681 38.8884970823
5027 1 55.6616181809 41.5096088364 7.4892831889
5028 1 26.6437950718 9.3440959862 36.522132225
5029 1 32.9984736143 31.9066595509 4.7457308285
5030 1 19.2654643158 11.4939638812 49.5862341304
5031 1 45.5357059936 7.1177165603 27.1043685985
5032 1 49.5998198542 55.8559581688 12.6138240096
5033 1 21.841679043 30.302902765 32.3730638603
5034 1 42.7055023713 40.6839700038 56.6559415573
5035 1 60.052430797 4.4214926633 9.0629706283
5036 1 17.036239468 11.4739059887 47.6792766433
5037 1 32.7755627911 52.8373036491 45.4103441652
5038 1 44.5405663075 12.0672464378 38.9475629112
5039 1 31.0795047148 51.6971523969 57.8078709906
5040 1 11.9903967216 59.6571620367 24.2515415393
5041 1 33.138587323 17.1456832595 5.8162975198
5042 1 42.4058584476 57.8532344801 51.7994826336
5043 1 35.6576020718 29.5302074395 54.3796039852
5044 1 51.4419973453 40.6822790769 22.9459709815
5045 1 56.2246385599 12.9699682178 59.9296928208
5046 1 54.1758764371 61.1065780041 37.6991923318
5047 1 43.2561031831 17.1704640861 24.4609832544
5048 1 48.1089470216 7.7433770381 58.3675678235
5049 1 17.9867736663 8.701648685 4.419568505
5050 1 56.3796207645 53.0434801259 14.1238218094
5051 1 17.6270726805 16.0138700266 43.6035595252
5052 1 6.6582975286 52.959808394 38.7338064168
5053 1 52.6741583487 41.4353829724 33.2407426362
5054 1 27.2363775192 49.7668134711 45.5215371916
5055 1 31.4822951848 34.1544845955 19.6215502162
5056 1 16.5066877817 48.3315663057 49.9464015788
5057 1 20.6922568463 47.893266369 17.1125061059
5058 1 12.9829708633 48.5354687773 18.2745811011
5059 1 44.6141507854 59.3927360405 52.7173061408
5060 1 13.0915983453 23.6783172905 11.3960650394
5061 1 20.4003095557 5.9757111192 36.5574084604
5062 1 25.1738547492 43.6057169148 8.7129545727
5063 1 59.3857974091 31.6582098993 25.9188538568
5064 1 40.3077095952 54.2550001586 29.2288725888
5065 1 23.4999536473 51.3815321285 3.6372582188
5066 1 36.7618940102 55.0802891441 49.5434944931
5067 1 37.6888718464 47.8911672872 55.7176520028
5068 1 54.2806556025 26.4468312317 8.7375837989
5069 1 9.6941178726 29.0546488012 42.3030034405
5070 1 36.1795737404 7.7022117121 60.6079877741
5071 1 33.5834177364 19.6785752712 4.920438571
5072 1 60.1993082136 15.1135388675 16.1850618072
5073 1 51.1073104174 28.6474269364 11.4887744846
5074 1 38.1623897107 37.5067765022 13.3359664489
5075 1 49.2904968311 18.0130704963 18.4683963186
5076 1 30.8424250896 56.0104739107 54.2964570237
5077 1 48.8861903576 18.0333033123 29.0315005938
5078 1 49.5622113056 15.7641959108 60.4256008908
5079 1 24.9917010972 37.1428190451 32.3211698941
5080 1 6.9205136581 27.6959598128 57.0856119356
5081 1 5.929426366 9.5011189647 49.8664615477
5082 1 15.9611014431 19.3216730611 38.9144440653
5083 1 9.6806487645 55.4974816474 59.093033809
5084 1 28.9685281405 44.6815546336 18.0640315372
5085 1 22.8131457512 38.4346872635 18.2878169779
5086 1 42.8481816244 32.686876586 37.873532735
5087 1 21.5197615292 10.9142091558 60.0698648373
5088 1 4.1630665426 6.0571379999 12.6081098425
5089 1 25.5039936666 23.3006574941 26.442691376
5090 1 28.4174608661 23.2319708737 55.2230850128
5091 1 28.2031796013 56.6167003897 36.8111058164
5092 1 9.1440126773 25.8280102621 57.1087018352
5093 1 47.669247697 52.5319455583 60.5720701526
5094 1 58.4967779685 6.5304809407 5.700125005
5095 1 37.7068306571 9.1486131649 50.2933914582
5096 1 25.4344324288 19.435081785 55.3062319744
5097 1 17.1289489131 38.3614526326 54.8955699477
5098 1 55.2802849913 57.7507876278 18.4094471053
5099 1 16.4749683238 32.1707357 21.8531656849
5100 1 16.5597479045 44.6444708555 43.0751739955
5101 1 21.6639567858 19.247505505 40.1377422791
5102 1 18.2868840526 58.619399329 21.2232662282
5103 1 26.2382058261 35.6522960595 28.5978069754
5104 1 29.2313798253 36.1167179028 6.9698828954
5105 1 37.6823413697 7.8185533196 29.6527704922
5106 1 11.6983328154 35.7267551548 47.0980059144
5107 1 59.7944769696 54.9636734898 12.543154923
5108 1 3.9322025317 24.072186663 20.1784482734
5109 1 43.4688101366 38.6444205178 26.1152346187
5110 1 41.6693139749 32.4859478136 31.4731991638
5111 1 33.9619521503 11.6144278521 15.4530653451
5112 1 46.328342596 52.587046455 6.1793570364
5113 1 19.9094742667 54.7186640001 51.7440901978
5114 1 29.2710291478 10.6851760107 14.7021188391
5115 1 21.6725280364 49.9125247312 60.2416980039
5116 1 7.9794829226 15.051324416 30.5049976939
5117 1 8.2260200773 4.007600383 30.7351386877
5118 1 7.7518083499 14.2368223784 37.1628769376
5119 1 38.8729872002 26.5879944812 60.5456567069
5120 1 25.7975152685 43.0773896929 43.729795971
5121 1 13.1303147425 4.2457528722 11.6664967418
5122 1 54.1824652216 7.3354613101 59.1168817103
5123 1 35.675385959 29.7443137808 8.6177553833
5124 1 55.4003991152 35.1186628254 18.6783628041
5125 1 24.4452401411 40.432255114 28.5374583743
5126 1 60.2120193199 46.8945115976 7.066767181
5127 1 45.6173952594 34.4905709112 39.6174032295
5128 1 22.8291220958 11.1633001934 15.0391380801
5129 1 47.7599746761 7.8043028867 36.8457406657
5130 1 27.3188830946 29.1406528463 53.2115232838
5131 1 49.1837351996 32.6197059691 47.0103692502
5132 1 12.891660806 33.0904250578 54.6445547518
5133 1 49.2588356809 12.3906216472 58.5080896869
5134 1 26.158965489 57.8455961548 21.6956762438
5135 1 34.2067867165 25.6657978869 59.6197284116
5136 1 52.2557996889 13.5528132581 48.1635231478
5137 1 48.4530798175 43.282808168 34.6032216333
5138 1 37.2232838465 32.6512505036 16.540331398
5139 1 54.2878857731 15.5695643837 36.3849922155
5140 1 53.050535373 50.0787020386 39.3444642906
5141 1 16.5823130336 61.5939731313 31.1339642254
5142 1 52.8313562507 52.7935727788 27.3483868552
5143 1 14.6892328093 40.2861356992 44.7873250321
5144 1 28.8794920884 43.3348770576 14.380667788
5145 1 31.4728493168 51.3049739515 25.4500589265
5146 1 42.6393229875 23.7822218385 27.3874530994
5147 1 10.1755656014 7.3261262269 42.8334297441
5148 1 39.122369777 10.8981745033 52.27026003
5149 1 23.5031022699 49.9299004637 32.003100697
5150 1 8.7624404256 17.9262501417 26.8684551299
5151 1 14.4236989645 54.2968651785 26.9603482654
5152 1 12.7732959168 25.7932004893 4.5031236213
5153 1 42.7029368269 58.1395842193 7.1863973499
5154 1 54.121941697 13.0046030672 37.7303870193
5155 1 55.9606207185 57.9482179306 60.7319502146
5156 1 8.7107971831 41.4304851149 29.072607612
5157 1 5.7864672354 4.2785568558 51.1794955074
5158 1 20.5471286645 5.7507245374 10.2206958596
5159 1 54.2082372812 42.4102898424 55.893333486
5160 1 50.5646977779 11.4014293595 4.6638025006
5161 1 43.3279384262 36.3862749877 21.4958553201
5162 1 34.5252057606 24.7749709037 52.6774235871
5163 1 25.574021367 16.2430780952 7.251095715
5164 1 33.5077341767 33.8042877856 21.5246593867
5165 1 18.4487465808 4.7385706274 8.4356542083
5166 1 60.7016301445 31.5727306247 28.7604275054
5167 1 43.788803492 21.0085185008 48.7481757307
5168 1 48.7224036711 20.0764095758 42.9510366315
5169 1 49.485186666 52.3374889547 52.6006904865
5170 1 47.9147236494 38.2203476909 10.7371865926
5171 1 21.9015028736 9.1013779941 57.0922007201
5172 1 9.2743598249 19.4881419077 32.9653547685
5173 1 21.7885023046 61.3896625049 52.5867549158
5174 1 33.2954936859 9.7491604614 24.5650044181
5175 1 53.1965381722 19.99337923 24.2146909925
5176 1 36.6709337999 4.7168917772 35.2801755066
5177 1 50.3634774664 9.178851604 52.7761970463
5178 1 4.160745891 12.2701576763 43.2223429512
5179 1 41.0483939236 34.1525021294 12.0797243128
5180 1 26.1208904779 32.3678161558 47.2910048223
5181 1 49.1801784221 21.8908908491 40.9076971366
5182 1 47.584234885 5.4665613417 7.9589935521
5183 1 22.3795104407 25.5988605014 3.8406312553
5184 1 40.4835076941 22.0385845753 28.44177523
5185 1 23.6742940505 43.7581918828 45.5509826443
5186 1 21.1220438402 24.3009865767 39.675594441
5187 1 47.0673943051 49.4439630322 44.7314078258
5188 1 58.345469157 60.8826759478 31.1723890835
5189 1 24.6620286425 20.4128457385 22.2418456607
5190 1 32.3201203532 36.7990360961 57.6538217113
5191 1 36.6257452338 55.8300111857 54.6524263085
5192 1 46.8129972553 15.7124185602 8.9051604941
5193 1 10.3475153837 32.1713770861 33.5549635167
5194 1 16.5359000032 11.1623089604 28.9913265009
5195 1 41.1847759313 4.6391616128 58.2847124011
5196 1 20.5590234612 4.2543007997 46.0232760443
5197 1 19.5617846934 17.4624696845 6.5419967366
5198 1 56.5940769527 13.6972417459 38.8410928188
5199 1 22.0121711296 37.86641918 49.3029163983
5200 1 44.4543290312 25.484635468 57.9738733745
5201 1 29.3119612424 4.2153570019 36.425982618
5202 1 40.2679436571 35.0302681594 38.5777163635
5203 1 36.8796758211 58.8967113549 48.8176786607
5204 1 45.162477592 28.8488804792 21.9121148982
5205 1 35.4266447684 25.5097078337 33.1052935537
5206 1 12.8109627732 6.9290849087 58.7530408688
5207 1 34.8785511931 27.3289120409 56.1473806889
5208 1 28.2590384997 35.2773767309 39.9676583472
5209 1 29.5653087514 42.493086957 33.1499573493
5210 1 58.0335805895 18.1929501431 61.2851165709
5211 1 18.5502605079 23.823562088 38.6252955505
5212 1 34.9355179403 8.4978511675 51.1554726827
5213 1 28.4722702236 18.703726709 24.7820261508
5214 1 21.5294406286 46.9687374616 41.7628397297
5215 1 8.2062770471 42.669526442 47.3014419233
5216 1 12.4084055345 54.0574532402 20.2048617191
5217 1 46.4914295885 23.0956471738 27.1361463643
5218 1 21.7096701223 25.2384598217 16.1899596646
5219 1 36.6911083081 50.2403313355 24.0113715992
5220 1 59.6652668247 8.6169274122 30.7055766193
5221 1 30.9501196464 32.9654130763 12.199430282
5222 1 53.2605018586 61.3786423256 27.6915867258
5223 1 34.59016068 33.3466879581 6.6098204011
5224 1 19.4314666997 21.3449546634 37.8026304171
5225 1 56.1006761193 50.3234199891 52.4904303854
5226 1 59.5449777772 40.0762275214 23.6721949687
5227 1 43.8300854337 51.0209565254 55.1120086021
5228 1 11.5384527533 9.3447956801 16.7070917837
5229 1 61.4731010056 55.1613953317 60.6745170049
5230 1 45.0186321824 23.3459043679 24.6998121145
5231 1 10.5055879031 55.1155653796 9.5429839846
5232 1 43.1669505154 55.7501877703 35.512124043
5233 1 34.9459550413 60.947397636 59.10347091
5234 1 59.4378079909 11.8763466117 11.3184573215
5235 1 58.3758475349 23.0920320885 18.6224455979
5236 1 41.5686746653 4.5604693693 19.5967693897
5237 1 54.1940684792 4.9752012823 42.2162413937
5238 1 6.814760752 28.7378040684 14.0502956394
5239 1 20.2947140807 16.5839456527 33.3192249715
5240 1 34.5384999452 34.3532559783 35.1361551735
5241 1 26.6092768381 36.2949649304 37.7267136262
5242 1 4.6920059966 49.0028643197 33.9041690935
5243 1 25.2848145443 4.3189000414 34.9502698205
5244 1 30.8497718758 25.6645151148 28.7254428091
5245 1 43.598545052 52.7016796432 41.6077409095
5246 1 37.6049085753 53.5337323367 26.5677033574
5247 1 49.4222725205 56.151054082 8.845295848
5248 1 11.387785328 28.3246348052 24.9529847
5249 1 17.3564660547 52.4737543468 36.7928554665
5250 1 9.8574964043 45.9029869969 20.9451962005
5251 1 43.3260142679 29.8117759368 28.8930195043
5252 1 47.038415315 43.4652533591 23.6186683834
5253 1 38.0804089057 31.9731887816 28.7306905135
5254 1 19.6973503915 19.3609142288 28.1767078477
5255 1 14.0066813846 46.9423823237 10.0186009307
5256 1 37.19850302 48.0495313457 16.1131099485
5257 1 61.373802776 21.8410376569 8.9168512135
5258 1 6.7423540922 29.4688092975 6.0273660233
5259 1 55.7798664543 49.8256460687 38.0983677165
5260 1 6.6751309983 36.9576916938 18.4663555446
5261 1 6.5504630331 48.1197339696 61.0455880169
5262 1 60.8675742206 53.914482448 28.0877884113
5263 1 31.6120301002 51.8084037311 8.5291333168
5264 1 39.2905878583 6.4436430937 19.2331034717
5265 1 11.5499977031 11.3712842129 34.0723288671
5266 1 24.3198200049 7.3097300659 11.2602078021
5267 1 40.1061394367 27.0910744139 35.3641970855
5268 1 53.8978064094 15.3647872947 14.8629318264
5269 1 6.5320144366 47.5400958599 56.5059155181
5270 1 35.3118366567 13.8559556514 38.534043801
5271 1 10.7312391942 58.6080876105 39.2211432362
5272 1 30.6732157752 14.104405303 47.435141771
5273 1 47.4269786752 49.2273494543 12.8356852919
5274 1 48.9742934844 50.0609764591 21.9438343561
5275 1 12.6629192 53.8060298895 24.5465791447
5276 1 49.5695580919 44.9034159159 57.6723052925
5277 1 52.3560891516 6.7772571576 11.8179221689
5278 1 49.5690333214 51.5552894535 33.0650028451
5279 1 18.4043160165 38.3936385532 10.3040177446
5280 1 18.7776610338 57.0506855472 58.2169003981
5281 1 19.4670927821 44.2819127863 54.4643252581
5282 1 11.5079577597 9.5552286283 31.7710355449
5283 1 27.7838880162 29.9161469474 12.3381446028
5284 1 51.0726755681 58.186930175 34.5455551922
5285 1 19.0094929546 26.300653509 48.3882415137
5286 1 35.3218072952 45.1947801282 25.8413044467
5287 1 44.5623151271 8.1491528688 9.0639910153
5288 1 10.5847699324 26.1388492887 13.1716549919
5289 1 49.5907821409 38.7891405448 47.9291256827
5290 1 15.6130620228 26.0980921175 21.8117088198
5291 1 43.4289275828 34.6193729014 26.9857704781
5292 1 8.7658805874 4.2488082024 16.798401841
5293 1 40.3667754241 13.8620196655 32.9146852667
5294 1 42.1476130811 10.5402227524 6.2293559981
5295 1 36.6786304331 36.4616670082 16.1598728258
5296 1 20.3571034558 54.2645626422 39.5360055028
5297 1 53.5573470067 21.2676967925 33.9017201648
5298 1 13.9837081007 17.5548292827 4.5135723839
5299 1 26.9363254407 45.646549173 32.981039574
5300 1 38.8168367627 27.9726887605 45.4783893995
5301 1 42.3039363657 42.1915188749 29.570847995
5302 1 30.9241726633 27.2351530548 57.4898017935
5303 1 9.5517884665 15.5442587867 59.3016592145
5304 1 14.1518678743 14.8047989227 53.5621282485
5305 1 32.8799921096 55.016558689 43.4678189035
5306 1 26.4557523292 34.9333605507 31.4240456655
5307 1 29.8303761337 41.1219200936 6.5865264242
5308 1 11.5836413194 51.5811198209 42.1937345724
5309 1 41.9235944092 61.632864452 6.5176007417
5310 1 29.981743253 42.1602658796 16.9729171677
5311 1 15.288812196 9.0887485187 5.2917486451
5312 1 6.0533713142 36.9459718206 14.6865506493
5313 1 14.1950156664 49.6299650008 37.5134235944
5314 1 38.3836096069 50.2721091013 56.8834586989
5315 1 48.4501644261 26.6921905684 31.7308031442
5316 1 36.7941382387 18.2920734492 57.5113756895
5317 1 45.7496957193 25.7539593216 32.4969096851
5318 1 55.3800496835 17.7703350119 39.2023681158
5319 1 21.0909657683 50.5044074846 7.0671578434
5320 1 16.4589336713 37.4991381768 26.632949816
5321 1 20.3983853974 50.3856344407 43.3004171318
5322 1 59.4986230546 56.6725009803 42.3107583815
5323 1 37.8016391841 45.9653763719 33.7816060409
5324 1 12.2150567796 28.6528495643 29.6898542702
5325 1 57.5602959565 50.4305897755 6.0667471298
5326 1 59.1474933195 7.4633187135 49.1310249238
5327 1 46.8699056946 41.0443123757 18.59609046
5328 1 15.211204478 29.7969074409 14.3167624095
5329 1 31.6966347574 34.9260137644 48.4664323099
5330 1 49.0734167906 19.6926857653 36.238756185
5331 1 48.4857322007 6.4288678903 19.582483972
5332 1 59.0265045782 40.6720752071 58.4967779685
5333 1 45.4196151097 3.481320932 61.4894271972
5334 1 17.7167501187 18.050620737 51.5515577525
5335 1 8.6313527686 52.5263480069 20.365791322
5336 1 23.945658678 10.4755010643 58.6075045322
5337 1 36.729941321 12.8678712125 20.1859116752
5338 1 15.1494564891 8.1998398629 54.3436863637
5339 1 26.8997081252 40.1096962142 29.6139957871
5340 1 38.0888052328 21.3601146985 50.6208482155
5341 1 44.155501417 61.2550880399 15.0496917968
5342 1 30.4269235133 5.4253610311 22.6364730349
5343 1 50.3221372169 39.4704091973 10.7717631341
5344 1 28.4247493445 16.0708950816 6.2290702898
5345 1 43.4922498831 10.2125910716 20.9987810936
5346 1 57.8455961548 40.6273531037 37.8923078553
5347 1 21.9375954186 44.5015000634 55.8974150339
5348 1 19.6508207454 8.9487922412 59.0402069175
5349 1 25.1294241849 57.5653687375 55.6408022866
5350 1 20.7983770917 8.9572410453 21.9230767697
5351 1 46.7288007529 36.2477938982 54.6455459849
5352 1 52.1848390633 21.6722948051 43.6184280211
5353 1 43.2190194051 20.1673697862 31.2274316723
5354 1 17.4948888364 22.8003180292 43.9921228853
5355 1 25.5174044668 24.4374852001 41.1762046807
5356 1 30.6734490065 33.0299015332 8.0987282599
5357 1 13.6831312518 17.7813551912 39.9165806907
5358 1 15.445310404 6.3418492891 6.1699636454
5359 1 61.6193953439 37.9951045546 49.1601788374
5360 1 60.2141767095 16.1766071722 57.5594213391
5361 1 19.9000283987 24.7098410607 33.4183482777
5362 1 20.3476575878 15.3423970891 4.8799088004
5363 1 14.1551914204 54.4649083363 6.9719469924
5364 1 53.1399795799 28.8973342835 8.5837794124
5365 1 30.7663333752 37.3002501784 59.9332495983
5366 1 9.1577966476 40.0236921691 19.1018525528
5367 1 54.5948764831 19.8974628543 17.349294192
5368 1 57.6401776797 3.747779539 61.1744483149
5369 1 5.8342038535 9.4686998128 22.8580427781
5370 1 5.3917407379 19.7475534307 4.1471485057
5371 1 7.0748486458 14.8845640303 60.8535803421
5372 1 29.5167383314 60.1747606183 11.3126265388
5373 1 22.947137138 6.4482843968 30.5649381402
5374 1 3.3760625346 11.4219537147 32.3533558147
5375 1 46.7757968615 29.7821555606 48.3076017887
5376 1 30.0581265066 53.2375285747 16.9600311379
5377 1 27.1367294426 38.9582332435 26.0056159036
5378 1 55.1196469275 46.990194742 10.2199378579
5379 1 43.5018706746 45.6485316391 33.4969472287
5380 1 57.2047931344 6.8294893091 44.3044779154
5381 1 34.9573833754 14.6048613834 33.4400970972
5382 1 30.3597528964 31.7390828556 56.9832233912
5383 1 20.3393778763 37.2591431602 4.027378398
5384 1 50.6836457453 24.9301280317 13.5931622745
5385 1 31.2397346239 20.8671220199 22.0879713049
5386 1 27.3083293779 60.9323542166 27.6929861137
5387 1 22.5497692959 36.9443392014 26.2890502514
5388 1 41.3807485383 29.9733469259 59.1972882039
5389 1 41.4949152639 59.5158238637 27.2750356086
5390 1 49.5576049873 50.1154942775 50.6446378089
5391 1 34.9790155793 14.6748890838 18.8049490969
5392 1 19.1197530557 31.4534911182 30.1649464459
5393 1 6.015809412 50.2388153319 57.327356187
5394 1 53.041089505 58.1461146959 47.3829562657
5395 1 44.7972373627 28.9456131644 50.0914131449
5396 1 45.418857108 20.6453190454 7.5629318054
5397 1 41.6879141718 46.3776127099 45.1968209022
5398 1 17.5720883995 8.9842958771 8.8747121468
5399 1 58.4562540286 39.3351350383 6.7003782875
5400 1 7.4766828674 54.6489861467 15.3935330535
5401 1 27.3700773669 22.9709267315 57.9715993693
5402 1 38.1675207995 57.2675906642 36.4002688662
5403 1 27.9637093551 4.8314258421 16.1904261273
5404 1 39.398632262 21.4779548172 48.2010733885
5405 1 35.8487351292 25.7348343543 23.3151178352
5406 1 14.6936058964 58.7451110043 50.2280283839
5407 1 38.4449494411 34.6229296789 31.6022926931
5408 1 30.2115343998 13.01848033 29.6165613315
5409 1 40.8605844123 8.9506697532 58.1127626188
5410 1 43.5461263154 42.7105751523 48.0984516127
5411 1 60.7671098344 56.382477848 10.0963835721
5412 1 31.7562836646 14.6364642257 5.6499336274
5413 1 34.8196602877 38.71922946 44.1366679888
5414 1 59.3768180037 53.980253677 49.5794704225
5415 1 52.9164273706 56.0118149908 33.4756065639
5416 1 16.1063462405 42.8281820396 27.4290265801
5417 1 11.9793182345 49.6338133174 44.3157896339
5418 1 35.7372505636 25.0645275733 41.0529419341
5419 1 37.4774476651 26.1963991141 4.6253193347
5420 1 37.7105623581 11.1048174428 27.9990438984
5421 1 30.9179337258 25.9438679147 43.7665299021
5422 1 53.4713429616 51.7196009104 35.4012225558
5423 1 17.2821235751 17.0975793021 48.9617573016
5424 1 50.6941411542 23.4589632448 54.2898099314
5425 1 28.8908038069 15.4998865303 28.8905705756
5426 1 58.018595478 41.5549723259 31.9071843213
5427 1 15.9721799302 41.7974162712 42.8262578814
5428 1 57.3884627899 51.2318559362 45.3611323591
5429 1 37.1815937501 52.9687877994 32.2698590062
5430 1 34.6333084721 16.2395796256 52.0709638768
5431 1 23.2378016564 21.7470454395 18.725650452
5432 1 18.1843788925 23.5586696292 20.4630487777
5433 1 32.3760375595 51.471092951 33.1411528674
5434 1 16.1675111512 11.0871501711 52.0782523552
5435 1 21.7614474728 30.3092583181 61.3409171614
5436 1 15.8444274809 37.4298684781 57.2348216653
5437 1 30.1111283214 48.9381426316 31.0140250249
5438 1 45.4773398586 58.5732778377 9.5496893847
5439 1 55.6472161476 49.437257632 32.5123029515
5440 1 27.2643652762 27.9214361804 9.0168374755
5441 1 47.8355999279 19.8317499331 53.4042306525
5442 1 52.3226787666 36.5111120457 24.0155697628
5443 1 43.182285474 30.3111824764 5.1409237886
5444 1 45.7301625972 32.8371941644 37.4344164887
5445 1 59.6569871132 23.9032688877 36.3691324865
5446 1 17.4465516477 35.3397661059 60.6706103805
5447 1 22.991684318 40.4169784633 5.6511580917
5448 1 19.4784628084 36.4425420409 41.7075639096
5449 1 39.0863355398 42.6631708888 20.3629925463
5450 1 40.0817084572 9.2035741227 16.2893745099
5451 1 37.8423963553 43.4212892575 31.4717414681
5452 1 32.8914204437 22.3114652064 20.1230558376
5453 1 21.1050762625 56.4849247003 24.6330496524
5454 1 9.1783851414 36.7186879103 21.3297946284
5455 1 56.8306901153 52.1979583244 54.5192512312
5456 1 56.5374017447 10.3158542335 46.0800095601
5457 1 31.9817600322 32.6129422612 44.0911295758
5458 1 40.592485023 44.6874437241 41.8054044435
5459 1 24.9087290592 45.0844617192 49.8350919367
5460 1 16.8027166202 37.3153519056 52.2218062257
5461 1 51.9816362856 21.3253049257 9.0736701146
5462 1 45.6390274633 21.3590068498 38.5220906964
5463 1 16.7772360997 42.942407073 36.3049355688
5464 1 7.7495809909 50.2912923764 47.8308769939
5465 1 59.4904599588 8.2377749353 53.4965902508
5466 1 25.3473788429 24.1373165059 23.7566830102
5467 1 35.5518899811 29.8843691816 17.9640919215
5468 1 44.4356705265 58.6839460936 5.0481676972
5469 1 12.3738873008 22.4425412018 22.5606145518
5470 1 4.1434168048 29.0675931388 17.0483091882
5471 1 55.1948640245 4.8288836208 34.2334333935
5472 1 47.0161417251 29.2641488242 7.5271599534
5473 1 52.5482134421 42.3567632571 9.6740016722
5474 1 17.3647457662 30.9118114039 4.4717948258
5475 1 9.6621068755 8.6689496555 52.4112483561
5476 1 58.2487364717 8.000106401 24.863248954
5477 1 48.766309465 49.8250046826 37.0952398581
5478 1 40.7129489939 19.2494296633 53.4210233068
5479 1 56.7896997128 53.7245155471 23.6789586766
5480 1 28.6161156332 19.4546149071 36.259338848
5481 1 9.9980765755 33.0593469859 58.1233163355
5482 1 13.5844161004 53.2999179498 49.2023353964
5483 1 30.0938692046 37.0917996963 41.337017668
5484 1 35.6622666979 18.0783169549 49.9451188066
5485 1 55.4654706503 61.1510668762 4.4312359012
5486 1 31.5947126756 34.3460841155 3.7326206701
5487 1 56.1975837281 29.3175587939 52.3304337077
5488 1 61.4651128333 4.4050965023 52.52868032
5489 1 37.7577916981 19.0162566625 42.2816627757
5490 1 38.5629061754 38.1049565009 29.2905039621
5491 1 37.4685265675 49.8970148492 3.9815834305
5492 1 40.3797780696 58.803243908 53.7506374537
5493 1 32.3686324654 40.6326591159 47.0312434523
5494 1 53.8691189585 44.7476174018 31.1352469976
5495 1 37.8266532419 21.9605687025 58.1981835856
5496 1 27.9993354375 24.4229082433 51.5587296153
5497 1 50.521841525 17.6175685047 47.7671465388
5498 1 9.2256727892 25.2874383965 37.8565651573
5499 1 27.6363692135 54.5341197272 14.1091865448
5500 1 11.1720463675 10.9977642721 43.6983680521
5501 1 59.4215401071 58.5743273786 9.1637848615
5502 1 54.3219375441 28.1974071264 26.7873489423
5503 1 24.4223834729 35.6851233662 21.1640254758
5504 1 47.5917565948 52.7692584148 56.7414791398
5505 1 49.4729420223 16.1327596862 44.6340337545
5506 1 16.8715198563 41.5588206425 21.1565037661
5507 1 38.1574335454 6.8881178293 34.5788489616
5508 1 25.1271501797 15.8199381935 48.9163938121
5509 1 34.5403074878 25.7701105897 38.6583560885
5510 1 54.0821757589 40.1078886715 5.535143008
5511 1 4.0203173201 25.0734486709 44.4450580867
5512 1 54.4328390314 26.5633885782 14.9222891945
5513 1 25.9895229433 31.6001936113 53.0270373187
5514 1 23.6527784622 58.9697710623 35.8324089376
5515 1 52.9749101212 17.3596146774 49.053708745
5516 1 53.7327369507 9.2231072448 28.6043957599
5517 1 52.2694437205 41.0141089212 48.8466576508
5518 1 45.6345377606 48.7563971344 48.6995470029
5519 1 56.1413749827 39.4866187732 13.5575361921
5520 1 17.7762824102 21.6176020632 8.5905897666
5521 1 56.7820030797 41.3686788181 34.577332958
5522 1 12.9513097131 12.6093343069 19.0766052636
5523 1 46.3242610481 17.8047366299 7.1502989742
5524 1 59.400665905 57.5206466341 38.9066891243
5525 1 61.5867429607 60.7943978975 40.9335275041
5526 1 27.2557940256 17.625556677 49.0997719285
5527 1 8.2389527534 57.5989540459 25.8980379625
5528 1 38.2823289111 16.6212043543 49.3909029095
5529 1 50.4430676505 49.2749869491 30.3177712609
5530 1 34.0981009267 22.021150535 58.1000515125
5531 1 58.0570786439 5.4812082679 42.0136216943
5532 1 40.1025826593 6.5233440627 14.1197985693
5533 1 5.2761513014 27.6573017234 54.5035081179
5534 1 19.1430761866 42.3350727454 29.6820410214
5535 1 5.7164045503 57.5644358122 55.5585299425
5536 1 30.546454559 5.9130185435 11.486267248
5537 1 42.7164642428 40.1814148416 48.953535898
5538 1 56.6980398085 46.0404185455 34.5822891234
5539 1 50.400736168 18.177790108 39.5546056997
5540 1 17.4406625571 13.3654702094 38.8010353415
5541 1 48.5024665471 8.2354950993 41.6455243815
5542 1 30.5415567015 30.2353239933 38.1172011446
5543 1 55.28139284 15.4276431324 11.173912218
5544 1 12.1887599496 60.5933525095 27.2335204357
5545 1 40.4178530807 55.5936312544 42.7257934952
5546 1 51.0976896259 40.7784286838 56.3186307772
5547 1 9.652835931 42.7321490483 13.6272140455
5548 1 22.8856223804 41.9030117462 55.2047180473
5549 1 11.3436463028 18.9621469989 30.7914640487
5550 1 9.0906901694 20.9961572414 3.5097821486
5551 1 40.6712588975 23.9093912096 53.0318185605
5552 1 6.0203690841 9.0952206875 47.0752658618
5553 1 17.1240510557 18.9448295742 11.9782686936
5554 1 17.3525011225 61.1714163079 20.2768135778
5555 1 39.7902276292 52.9048824208 10.3237257902
5556 1 41.7387002893 49.6861154383 11.0887244825
5557 1 57.2035103622 5.3697062101 19.3835376658
5558 1 59.3403173039 45.2976934432 61.0447133995
5559 1 61.4349676866 18.9781816514 37.6670064112
5560 1 43.425837268 10.854443633 10.7763111446
5561 1 43.9660592866 35.2027427121 24.2040206602
5562 1 23.1903973929 5.4978201679 51.7039161049
5563 1 53.5500585283 56.4413104456 45.2894720395
5564 1 57.8034979036 22.8565850824 30.2761394723
5565 1 38.5988237969 41.6007439702 56.8003117374
5566 1 23.0288847117 46.2656033739 48.0671403095
5567 1 51.2861405233 43.7111957741 31.8649111466
5568 1 36.1939174659 59.8211819545 3.9801432272
5569 1 40.5213494739 47.007395551 18.6947473036
5570 1 60.1390179203 20.4848559051 31.3128526391
5571 1 8.1439809645 52.8977105581 5.0929189545
5572 1 31.2074320876 15.7443712495 11.163766656
5573 1 49.594805381 30.5684366098 51.5049697986
5574 1 48.1452144901 34.7642678519 52.5321787896
5575 1 60.7187143379 19.5715804083 7.3019926173
5576 1 39.1799196024 24.2894416269 30.9125694057
5577 1 27.6953767346 9.3734248232 18.1108527224
5578 1 19.7680777858 14.9505684906 38.8279735577
5579 1 47.3063397808 11.2995072776 38.4286232495
5580 1 11.6177513983 11.7876020988 56.5091224486
5581 1 21.2352776406 30.7745547788 24.0972590286
5582 1 47.1920564396 53.449943989 39.9893488589
5583 1 46.6991803767 46.0815838714 22.1732173482
5584 1 56.2025398934 31.5896982024 50.5051654864
5585 1 59.2682488296 14.6888829624 11.414082158
5586 1 12.6795369308 55.8813803814 47.9631191459
5587 1 48.8466576508 30.5297785204 57.2345301262
5588 1 14.7447418608 16.6406208607 31.8702171589
5589 1 20.2931397694 41.7823728518 41.1472256906
5590 1 37.2919121591 51.3425241922 54.4474159882
5591 1 17.9948201464 14.7182117994 21.2753351178
5592 1 30.8735614693 22.814894986 9.4182052345
5593 1 40.8266492569 25.8835776214 24.2020965019
5594 1 39.0487269913 24.3164964587 8.3182455675
5595 1 10.5671609686 60.1216421878 21.7883273811
5596 1 43.9539312585 40.7130073018 60.3653105975
5597 1 16.0817403374 29.5093915452 21.0847268308
5598 1 14.4986245223 20.1734338002 31.7533682733
5599 1 52.7216792279 53.184818299 22.5925089332
5600 1 7.0897288033 45.751794801 21.351834987
5601 1 27.916538323 51.5816445913 18.3419266415
5602 1 31.9948792933 18.5855367433 11.0326906606
5603 1 35.2424503424 16.3856990404 47.5936224452
5604 1 20.8988414779 57.3387845212 46.5661802229
5605 1 28.1146100118 35.6417423428 9.5837994636
5606 1 3.8679117384 60.815155484 30.6235375065
5607 1 42.7494081652 51.9404709596 4.9235055627
5608 1 13.49077373 39.3901193193 52.0114315853
5609 1 56.0330390398 55.9142659959 14.261253358
5610 1 40.2021724281 29.1731886138 26.2140080779
5611 1 35.6249496885 7.4932947674 33.2740364055
5612 1 19.0999283945 8.8714527393 29.8546904976
5613 1 4.415166264 43.55807942 30.4167196436
5614 1 24.125480017 48.233959003 3.8402231005
5615 1 4.0304920359 46.535801845 19.9611933094
5616 1 58.3948558866 39.0739159726 35.5494993602
5617 1 40.5885783986 41.8530419383 60.5924778921
5618 1 32.725009905 50.6368828679 52.0758617343
5619 1 42.6326175874 52.1541691462 16.4748517081
5620 1 24.2197054657 28.4133210103 20.8544109136
5621 1 51.6099821953 50.5319870869 37.0250372342
5622 1 44.1216245694 51.3562265315 32.2279356785
5623 1 22.8706372688 30.9893025062 13.0265268102
5624 1 4.4740280156 29.6574351183 58.6919925738
5625 1 14.1082536195 38.4135215222 8.5440659513
5626 1 16.3240093593 21.1093327339 27.4259362653
5627 1 23.1989686435 40.5500952327 31.704214775
5628 1 35.7535767552 8.1282378512 14.0422491592
5629 1 39.7731434359 26.3836838549 20.1699936384
5630 1 60.3513750268 45.0280780504 30.180106481
5631 1 26.1205989388 18.0616409163 21.8406295021
5632 1 43.7647806672 10.0684541229 29.0638031301
5633 1 56.1344946591 12.7253668829 23.8780215985
5634 1 35.4618043882 11.393499495 8.5472495587
5635 1 34.8444994221 31.0233542773 31.0385143123
5636 1 36.6585142327 27.6470978537 41.5911814866
5637 1 29.0796045512 39.6374611221 32.3942879094
5638 1 8.1450538286 6.8221191998 11.0149650811
5639 1 23.082411297 48.9726608653 45.5765797804
5640 1 54.2102197473 10.1722420553 49.1359810891
5641 1 39.0510009965 20.0495296675 20.5447380436
5642 1 47.5030703896 47.108268092 57.6711974438
5643 1 15.3612305173 58.7900080312 17.8052030925
5644 1 50.1515868225 54.9251320161 42.5726771411
5645 1 3.930744836 14.3690645304 32.5724183213
5646 1 14.3998510631 33.1394036326 10.1481609226
5647 1 56.9238660231 29.4032129919 30.7000956835
5648 1 7.8362905606 5.9535133294 39.0290189457
5649 1 9.3275365633 9.1118908953 14.6845098753
5650 1 4.4613402324 34.5488787384 36.6253953869
5651 1 50.6845786705 32.5692696986 44.4888472649
5652 1 58.916594324 41.7843553179 42.3802613114
5653 1 37.4874766114 59.6355298328 56.9820572346
5654 1 10.7041260546 34.0678974722 52.9708285733
5655 1 33.5219612865 13.0440774661 47.4544416618
5656 1 20.330048624 3.559673824 50.0366620952
5657 1 35.9117075825 16.6837686528 14.7529632644
5658 1 44.4503057911 18.7208109023 38.4859981514
5659 1 13.2224994172 34.0363529377 43.6604679645
5660 1 47.8463868759 57.4849622438 10.9017895886
5661 1 33.9943713021 43.4566821086 24.1446632921
5662 1 24.9848790814 59.2228270322 41.9861003999
5663 1 58.5289638891 25.0334495014 60.7394136165
5664 1 15.2797161749 24.8626075679 40.614758613
5665 1 57.3674136643 47.3721110099 32.1892775891
5666 1 38.1925931652 15.4067106225 16.3897222805
5667 1 52.0669406367 21.7736338087 49.4107275707
5668 1 38.2416300478 18.6974877715 37.5875328428
5669 1 56.5006678136 27.6605086539 34.0655651591
5670 1 50.093745458 50.1338029352 55.5985291119
5671 1 44.4771273916 29.1517313334 56.9520870115
5672 1 17.9557539022 37.5708568042 13.0955632775
5673 1 24.1091538254 60.3210549567 13.3394066107
5674 1 13.1483318611 32.291841057 4.6016288645
5675 1 52.544540049 23.9953369468 33.7422482575
5676 1 36.6907584611 39.1527481549 40.484207388
5677 1 14.6887080389 50.03707025 43.9306081277
5678 1 11.5088323771 46.863025371 40.3215285502
5679 1 29.4161573296 14.3955945918 60.9659978328
5680 1 50.5820152026 46.4218683507 31.1190957295
5681 1 41.5658175817 32.9048895518 28.7581535001
5682 1 25.304814129 14.7174537977 20.7875318358
5683 1 11.0149650811 21.1530052964 47.6093072507
5684 1 27.106234449 55.1942226384 39.0427795929
5685 1 3.3533764168 17.9650831546 59.3168192496
5686 1 55.9957220305 26.5897437161 31.235653076
5687 1 33.6297724589 18.49894962 34.3023532452
5688 1 60.1145869407 24.7888481665 54.5975586431
5689 1 20.650508442 18.7293821529 18.8580675274
5690 1 17.4758804847 19.8937894612 32.6800545702
5691 1 7.9480724961 26.5429225308 44.520858262
5692 1 53.0196905325 40.2580313265 15.0338903756
5693 1 11.9291735031 15.6974334487 29.1655502885
5694 1 47.603826315 55.2723551268 29.168407372
5695 1 37.0248040029 43.60530876 35.2586599184
5696 1 51.0901096084 51.0384488736 23.8218128532
5697 1 25.3888940158 18.0716698626 28.75278918
5698 1 34.3059100226 32.1689864652 9.2118538342
5699 1 40.2398392844 7.3418168632 25.2549609368
5700 1 45.4282446682 14.125629352 50.1592251479
5701 1 12.8417493059 11.6201420192 12.3429258446
5702 1 21.0777881994 53.0140929811 41.9385212129
5703 1 9.1962273365 43.4980806658 4.5079923249
5704 1 41.7198085533 51.927526622 28.5922677319
5705 1 31.7323774555 6.4929365308 49.1030371668
5706 1 19.3963070799 25.758215793 44.8581107342
5707 1 26.3072422935 5.1847596131 18.5540505167
5708 1 50.911104579 11.2046404429 11.3994468934
5709 1 50.0263999176 37.5396038088 6.9846056217
5710 1 27.9672078248 50.7642271624 49.380932271
5711 1 24.6966634918 6.813956104 5.7243052609
5712 1 37.3301620937 51.0748329577 48.2407810188
5713 1 20.6808285121 16.6287843718 41.0909003296
5714 1 55.3408668237 31.3939588267 6.310106508
5715 1 52.48145098 18.3800599604 30.6775305544
5716 1 48.6363413182 52.7238366175 10.8993989677
5717 1 18.2713741706 60.6663539091 51.5059027239
5718 1 34.439376639 24.375445672 36.2501262113
5719 1 61.3946769781 41.1536978594 18.5408146399
5720 1 44.2909504995 42.5054482163 54.8223936246
5721 1 61.3552025791 58.5611498096 18.2836771221
5722 1 16.2623196781 54.3319081826 49.6513056655
5723 1 12.9003486722 11.0213789421 54.0064338914
5724 1 32.4307303013 15.872065391 33.8585723727
5725 1 23.7369749647 22.9127938278 56.074146058
5726 1 32.9258220617 41.3756757574 58.782661245
5727 1 43.2414096107 57.4781985359 56.32714372
5728 1 48.323694749 34.9889862178 35.7109537336
5729 1 50.1368932501 3.8249219605 32.319187428
5730 1 11.4823606236 25.8683592785 10.5201648599
5731 1 33.7171758919 45.8446208619 38.7955544058
5732 1 8.5791089555 16.7891892043 56.9566933298
5733 1 12.8886287989 15.5440838632 56.1207923197
5734 1 33.224591368 46.9955007543 46.2106774008
5735 1 37.2706298022 40.2104521395 7.6484518955
5736 1 19.904634717 50.5135618135 16.6749641709
5737 1 42.4484231614 18.6566722924 42.9033408289
5738 1 29.469975454 22.9450963641 5.9910110931
5739 1 19.5290156945 34.32905823 57.4560415616
5740 1 41.2406931375 13.9989264436 21.3258296961
5741 1 17.7357584704 22.4284307076 15.1219351946
5742 1 12.8041407574 10.2358558947 24.8691963524
5743 1 8.5182997225 40.1314450337 57.2066589848
5744 1 28.9094040038 53.2623677091 3.7473573904
5745 1 14.846547327 59.2764119254 23.8658935705
5746 1 9.7974393423 9.9039677425 41.218594471
5747 1 42.9327279737 24.9016738121 41.9339148946
5748 1 17.8028707794 52.3605788543 28.1652795136
5749 1 61.5793378667 46.6316599128 57.764548275
5750 1 24.0255987091 17.2389174752 16.6954885261
5751 1 20.3157048985 32.1600070598 16.0362019244
5752 1 8.3911128591 23.5425766689 55.5105426007
5753 1 54.8622761784 52.2110192776 44.4079160008
5754 1 9.2047985871 48.7934226046 43.922736571
5755 1 39.8786222952 31.3120363295 34.3173966646
5756 1 57.6447256902 51.6591356936 41.0768481432
5757 1 59.9152907875 48.8322556175 45.9510909543
5758 1 42.6718004472 22.237355958 57.6068839104
5759 1 57.6935293416 17.1271996783 26.1247387945
5760 1 49.5078684107 35.4320673963 39.0313512588
5761 1 42.7892907189 27.9191038674 23.4733069703
5762 1 18.6268769928 52.9549105365 5.7078274689
5763 1 60.5112550888 57.7772010735 6.4719340515
5764 1 51.273429417 12.6418700744 7.3321202716
5765 1 52.6370162628 23.6574430884 24.1034396583
5766 1 33.4987547713 22.1919341607 25.9998434287
5767 1 54.7231537028 20.3564037618 9.7706760496
5768 1 7.106078318 44.0932286576 13.3561409571
5769 1 55.9694252004 17.0994451526 29.4437952396
5770 1 27.4345075159 52.1017504096 43.6639664341
5771 1 12.5777314645 57.0027565133 6.6196802547
5772 1 27.5437180761 34.9842632838 53.1072688888
5773 1 26.0232831752 32.7732887859 10.3584189474
5774 1 42.4918041848 34.4071907184 54.137451579
5775 1 17.2603164477 35.4557403741 43.1266598069
5776 1 27.8782300805 47.7449312567 49.1414620249
5777 1 30.4121133252 48.7118499544 37.4086444291
5778 1 53.301200722 24.6094932902 6.5592266995
5779 1 8.278007336 40.1464884531 48.6794891103
5780 1 12.2349397487 8.1729891085 53.8819466804
5781 1 13.9931539687 26.9656542777 25.6473143057
5782 1 40.2386731279 44.29549851 46.4574944331
5783 1 11.1145548499 57.8067048341 33.5151975786
5784 1 40.216691077 52.4239594624 19.7518099021
5785 1 25.0802123788 10.2806363059 38.7824934525
5786 1 60.4351050666 15.4055444659 38.3841926852
5787 1 8.9133352515 6.1862256984 7.0451991157
5788 1 40.551669544 45.0233551164 33.6299473824
5789 1 16.4621989096 51.4988474768 52.070555722
5790 1 55.911875375 8.9608911153 11.5362370559
5791 1 29.4949312041 42.5987407398 58.236841675
5792 1 15.9019773063 19.247855352 36.1897776102
5793 1 4.6836738081 29.4541740329 39.2385189687
5794 1 53.9787959813 16.1203984268 41.3338690453
5795 1 50.5516368246 21.0249030002 34.3790863457
5796 1 38.4336960304 28.2319253601 48.2857363536
5797 1 11.5161208555 51.7220498391 31.2330875316
5798 1 43.7436732338 57.4013488197 49.3425657207
5799 1 7.2173879601 29.9727638476 19.6712284849
5800 1 50.617641285 13.916829023 54.5278224818
5801 1 58.4239514923 54.9820987632 27.1533471733
5802 1 56.3880170916 48.5622320699 8.0695685155
5803 1 14.3382196898 14.437342996 33.7948419176
5804 1 10.6691996661 35.0504426676 44.4255249646
5805 1 8.4520911848 24.4353861183 48.9662470043
5806 1 20.4161109769 24.2241368605 18.6258274519
5807 1 10.2868752434 35.8257035374 14.5209564201
5808 1 52.6777151262 15.3202401148 34.0874305943
5809 1 44.8864483382 46.6634376786 38.5419736655
5810 1 44.3954964336 45.5380383067 44.5587000418
5811 1 57.4056052911 23.7666536487 51.7916693847
5812 1 55.8110611419 27.0737569893 12.4307374323
5813 1 60.3882255735 5.1835234872 43.407295379
5814 1 30.5774160152 27.645640158 26.2152908501
5815 1 21.7443049716 13.4140406294 6.5557398914
5816 1 20.9572076129 35.8054707214 28.1414316123
5817 1 58.7625450446 55.0862365425 39.9898153216
5818 1 6.3243161255 42.8042175227 50.9434071153
5819 1 46.3427446293 58.1494382421 61.1444197839
5820 1 35.1522481338 57.8501441653 56.3424203707
5821 1 32.0473563378 8.9686635487 59.2872571812
5822 1 41.6178864714 20.5084122672 36.9267885454
5823 1 50.6865028288 37.3852629904 29.9181294136
5824 1 14.7865485728 24.6892583978 57.8460626174
5825 1 9.8178470818 48.6169831196 58.3471017762
5826 1 28.6220630315 55.9189889299 44.5669214454
5827 1 49.8736334105 3.8748422067 11.3972895038
5828 1 8.9476843925 35.2516046713 23.6521370761
5829 1 51.6450251994 57.8384242921 54.1854972286
5830 1 34.3503988948 52.0665907898 25.2251073293
5831 1 40.5625147999 12.4871211011 30.3583535086
5832 1 10.3135802283 21.6037248004 36.1641221662
5833 1 5.7734004514 37.2915040043 50.2109441906
5834 1 59.477573929 56.6791480726 21.9093744303
5835 1 19.9722134887 13.8370639154 32.3163303444
5836 1 16.471528162 34.3130818854 40.7283422603
5837 1 56.5443403762 27.7090207661 20.9682861
5838 1 50.4186366709 27.8847605572 8.7858743413
5839 1 20.3931960008 23.2274228631 43.6468822407
5840 1 21.508391503 7.0747261994 13.5513555624
5841 1 31.31390218 5.8748327475 57.3639735025
5842 1 53.253271688 47.8894763602 19.5046430228
5843 1 60.2439720092 29.042229234 20.5451461983
5844 1 27.2349781314 49.7091470301 3.8608938083
5845 1 20.2341322483 29.5199452619 19.2236576037
5846 1 43.6071746104 18.0009424683 11.3510513969
5847 1 3.4047604227 46.4176701872 22.9151844487
5848 1 19.6648729318 41.5318241185 47.3104213287
5849 1 53.964743795 56.5630571887 58.114395238
5850 1 39.4287774087 15.9265249016 45.9835101062
5851 1 12.6506745563 43.8691516779 44.5784080874
5852 1 47.7659220745 36.9521524503 37.6113224362
5853 1 55.5705413548 34.6182067449 59.1414876133
5854 1 6.0736799304 60.5216921899 41.4080949093
5855 1 31.9651423015 23.8774385203 3.6044320783
5856 1 15.5138804088 37.662691632 48.2810134196
5857 1 25.2972341115 42.2834120105 47.4358414649
5858 1 17.8210628215 15.9392360079 11.7940159598
5859 1 15.7087451671 13.87397277 60.1525453362
5860 1 45.6343045293 40.9132363802 38.1359179572
5861 1 19.881369894 8.6205308359 43.5545226425
5862 1 31.1067927779 19.3332180109 45.1234113478
5863 1 33.3277379143 53.0242968508 56.4625928025
5864 1 34.8502135891 7.1474302291 46.1904445847
5865 1 33.9737303313 9.389692707 44.6677939864
5866 1 36.3363634877 17.0498251917 36.1905939198
5867 1 43.5098588469 8.5363226719 42.0446997662
5868 1 3.3516976936 56.4163546956 28.7397865346
5869 1 30.7133315603 29.8910162739 54.9007593443
5870 1 21.388277379 54.8834419197 56.3169398503
5871 1 59.5144827836 24.7452922196 16.6012630774
5872 1 40.9079303679 3.463978435 54.2270124015
5873 1 28.6710416064 14.2392713072 40.0739535161
5874 1 3.4220312011 22.2909408512 44.7671505239
5875 1 19.9025356353 44.5130450131 4.3795285201
5876 1 6.8661357785 28.1737924564 37.6198936868
5877 1 3.4791320562 61.0169588738 37.3968079401
5878 1 39.8218887794 40.9949839539 6.7593624854
5879 1 23.3459043679 30.4463983276 41.80522952
5880 1 60.0563374214 16.8986913037 53.3135036735
5881 1 43.9925310401 53.0584652375 27.9433016156
5882 1 26.6272356489 16.2708326209 56.4869654742
5883 1 36.2595720793 9.4195463145 31.370577388
5884 1 43.9674003666 24.4320042643 29.7925926617
5885 1 16.2315914532 22.0275060881 21.8103677398
5886 1 32.0664813051 51.2534298323 14.7792017866
5887 1 12.3986681274 54.7527157712 58.8546714115
5888 1 17.7208316666 32.2179067322 42.1571755647
5889 1 43.6902049563 13.2792329331 4.7553924355
5890 1 21.153821606 17.5565202097 16.2269268271
5891 1 23.6162777624 43.1958128899 19.1069253337
5892 1 51.0585067661 8.8168591207 40.5726603618
5893 1 3.7119936932 15.2258980505 10.8284966499
5894 1 33.127800375 54.4179122276 49.0945825319
5895 1 51.380715819 33.4678516229 34.1239312941
5896 1 44.8073829246 36.4998003272 37.7614650912
5897 1 33.1946794527 12.1941825775 44.6316431336
5898 1 8.7327209261 41.1159726952 54.5393091238
5899 1 39.3240565511 4.6729276755 25.6126211486
5900 1 12.2288174268 42.5356516708 59.628707817
5901 1 29.4971469015 4.6638083314 60.9180687989
5902 1 14.6507496434 24.6511250788 50.1040076356
5903 1 26.707817066 57.6390115232 16.5241218221
5904 1 27.2964345812 49.2293319204 7.4732835211
5905 1 49.3225078282 61.1057033867 55.5613287182
5906 1 6.2065867916 29.4921324284 9.7321928837
5907 1 56.5367020508 36.7213700704 5.2562625015
5908 1 31.8239207441 53.618628533 29.242283389
5909 1 10.5228470199 43.1308579704 55.6750289811
5910 1 6.675031875 23.0473099851 57.8383076764
5911 1 56.1521036229 54.0445089025 40.5759256001
5912 1 59.5178646376 36.6666190207 19.4703580204
5913 1 56.5157695409 28.9530182585 42.3332652028
5914 1 13.4815610933 46.6581899742 23.1469580617
5915 1 17.9991349256 23.1894644677 27.1563208725
5916 1 58.7561311836 28.4860308708 32.5672872325
5917 1 10.2711321301 28.0730948389 58.5858723284
5918 1 47.9936141395 13.828434357 3.6170201551
5919 1 38.8539205407 21.2431491972 40.9674626595
5920 1 59.1613705824 52.5276890869 43.3777916184
5921 1 35.5726475676 40.5403578256 38.3190628423
5922 1 18.8742771034 9.784378389 34.3662586237
5923 1 7.2479412615 44.6638290542 48.9504455831
5924 1 23.2741274327 32.524605903 18.1953990718
5925 1 21.5601688535 36.8683057948 43.9593538865
5926 1 38.5715940417 35.7288542365 35.2598843827
5927 1 12.1125516195 31.3663792244 44.3598703512
5928 1 58.4737463767 44.5828394822 49.7938099951
5929 1 42.6892344875 43.0957566585 52.4461747446
5930 1 55.4306025697 15.2036244605 31.3536681181
5931 1 26.0590258733 32.1651381486 44.3422030796
5932 1 10.3857070105 49.3209335169 39.4692430407
5933 1 14.6695830716 7.3581955319 39.1799196024
5934 1 53.5245780078 43.5306164334 7.2654977483
5935 1 24.5264629443 24.5087956727 47.4564241279
5936 1 21.2565599975 19.0054697145 22.5091287404
5937 1 22.8167025287 46.2224555818 57.9037290585
5938 1 46.2801803307 56.7966383443 58.4229019515
5939 1 45.458331507 7.9831446541 17.9281743
5940 1 58.7755476901 17.6801911111 41.2302560365
5941 1 35.6859396757 41.0646034995 42.3111665363
5942 1 6.7861724243 44.7722816127 44.1456473942
5943 1 25.8566394052 24.246935221 54.7663014949
5944 1 28.2185145598 32.8267570634 12.2789038504
5945 1 49.8788811149 45.1417783133 6.147835825
5946 1 23.5653750293 30.322435887 51.8873525291
5947 1 44.9294212068 12.0964586592 57.3507376257
5948 1 55.2272831764 18.2211711314 36.4799173581
5949 1 20.1954158511 43.045320388 43.7020414452
5950 1 20.0077229555 30.8951353654 52.4008695629
5951 1 20.5305109337 39.4079032066 6.6942501348
5952 1 9.520593779 54.1684130352 36.1933343877
5953 1 39.7932013284 44.8687810666 15.2116126328
5954 1 29.2978507483 27.0208134822 41.5238359462
5955 1 59.5566393427 32.5621561437 49.608974183
5956 1 19.2172437427 24.7253509428 6.0458146198
5957 1 56.8256173344 35.0733576437 14.3214853435
5958 1 6.5103764019 21.4167315987 60.3743483107
5959 1 3.3978957839 58.1546276387 11.8614198079
5960 1 4.3342291692 30.2232542731 27.2956182716
5961 1 7.8262266297 11.1532712471 35.5977199333
5962 1 57.2594858762 19.7029479429 27.1406943748
5963 1 17.1895890534 25.2735611337 59.4494695564
5964 1 22.473502658 6.2738623626 20.3933709243
5965 1 45.0704095329 46.5061231609 16.6731566283
5966 1 39.865852881 14.264285365 7.3745567082
5967 1 38.7668669548 45.164168519 5.6360913492
5968 1 20.4279474658 50.6571739918 37.1613609341
5969 1 14.4515701058 30.6077360853 16.9374077009
5970 1 34.7822266627 29.4860101065 5.9532626058
5971 1 50.9039910241 13.0811612442 60.777372012
5972 1 20.3751205744 16.6535068905 43.9581877299
5973 1 48.3483006521 44.6178824864 51.5457852776
5974 1 41.1085676012 7.9562355919 40.6240878654
5975 1 29.448051711 21.1750456551 25.7350092778
5976 1 16.5834791901 41.7251728734 15.7781314814
5977 1 35.4595886907 18.3572032922 27.0060616019
5978 1 24.5030815056 7.6188606732 23.6211173121
5979 1 51.4640960118 41.2698470511 25.7697024349
5980 1 12.5951655049 21.7753830435 60.9115966301
5981 1 40.6300935716 32.9791737235 17.3539588181
5982 1 31.6629911412 45.5309830596 18.470612016
5983 1 55.5875672404 58.5712953716 29.3747004645
5984 1 36.6867935289 12.3419929194 53.0877940746
5985 1 7.0016723227 11.4139072345 55.665291574
5986 1 22.6437032055 54.016696069 27.3671619755
5987 1 42.7550057166 40.7519569303 33.2571854434
5988 1 50.492804227 12.095525734 46.357321586
5989 1 60.3393053066 36.1574167661 10.0286881848
5990 1 12.3478820099 9.463568724 58.1003430516
5991 1 9.437271894 6.2029658756 59.1630615094
5992 1 14.27542216 11.6213664835 41.4052378258
5993 1 54.2654372596 13.9954862818 18.9265209165
5994 1 31.1865578855 35.1928303815 22.4037081889
5995 1 15.0602455135 41.5337482768 31.9877074306
5996 1 7.1303402049 55.2465830672 41.5336316611
5997 1 20.7712639521 23.8549900068 26.1017655106
5998 1 13.2424406941 58.4927547284 47.7665634606
5999 1 41.4693181278 44.4484982485 49.2788935735
6000 1 56.1596253326 41.6332214299 15.4151069496
6001 1 10.3936951828 38.6599303998 24.7299572611
6002 1 59.3943686597 59.1700001408 13.3836039437
6003 1 60.3085187738 35.7459384299 36.0620251609
6004 1 54.9296217188 53.9979209486 55.0292697954
6005 1 13.169964065 19.3752579543 54.8402941276
6006 1 7.8559053137 8.584379983 3.5107693001
6007 1 59.8150013248 45.8320263712 18.8289136139
6008 1 38.7131071382 18.1847870473 25.5461502256
6009 1 59.2225938009 21.8921736213 21.0683423314
6010 1 22.1379411127 15.5156879514 9.3716172806
6011 1 55.071892817 11.285571707 31.7296369876
6012 1 5.5109744137 15.6791830988 28.7392617641
6013 1 53.4969984056 40.0169284612 19.0322330072
6014 1 50.8808428168 25.9750042944 6.0491731507
6015 1 32.8468149559 34.5674206274 32.1635638373
6016 1 45.9079431622 45.1603785102 46.8973103733
6017 1 11.8227617185 20.73079832 34.124630988
6018 1 13.4282094314 48.6759906407 27.8562480297
6019 1 11.933604898 12.4673547477 9.7730083627
6020 1 12.8404665337 21.984358296 15.7380740042
6021 1 38.309033896 52.2990640966 36.3792197406
6022 1 49.6834915861 41.8255206439 53.9746561256
6023 1 37.299375561 56.6380993622 29.7745172353
6024 1 13.4774212376 10.561971572 50.9359437134
6025 1 23.8932982493 13.1936953506 32.8733450173
6026 1 26.5643215034 15.8827940312 41.3843053158
6027 1 8.597959876 16.8458644123 22.7197366121
6028 1 22.8511624545 54.4971525647 5.6513971538
6029 1 16.5914673624 35.7742760339 5.3499748413
6030 1 5.9149543633 37.4047961125 9.6945260274
6031 1 51.4838623652 8.186207493 16.9651039188
6032 1 14.707891314 24.5106615232 28.5261466559
6033 1 42.4401434499 55.8419642903 19.7762991895
6034 1 31.3011910737 23.7693941166 16.8508205776
6035 1 57.7328288171 14.0279637416 45.1546643431
6036 1 52.8061089616 3.7291950853 35.4424461895
6037 1 41.3301373444 45.7375676912 60.832356293
6038 1 56.0067422098 33.3907103676 36.2475606669
6039 1 44.4772440073 14.8302794432 56.549471465
6040 1 12.2341817469 32.0631577589 7.2311894228
6041 1 24.655090011 22.2707080352 6.0136520224
6042 1 23.7521349997 29.55568796 26.6198305549
6043 1 10.8879123258 8.4396657868 27.3807476992
6044 1 36.2929824643 57.8440218435 19.2847058987
6045 1 53.5627696346 17.8748809459 13.6031912207
6046 1 6.5706375413 46.4748701656 18.6513662802
6047 1 3.9913091761 16.4919942093 13.4184137165
6048 1 44.6628378211 7.8608848021 6.263681816
6049 1 54.3934229402 19.5420766478 58.8020194436
6050 1 57.198845736 30.2047706918 60.2854288743
6051 1 23.7294532549 59.7006596757 26.7922467998
6052 1 4.943650917 43.9620360465 20.5671282492
6053 1 45.7828145651 15.0781460164 35.477722425
6054 1 30.1942169751 32.1203577374 26.157974256
6055 1 25.5441677595 47.6813757251 34.6942984593
6056 1 53.5754224331 23.6581427823 50.9088305738
6057 1 15.3817548724 30.6503007991 60.6208154961
6058 1 21.8559644606 22.9156509113 14.4145446356
6059 1 24.6792877593 22.8488301414 37.346604901
6060 1 56.8827006971 17.4345402353 6.9388689621
6061 1 26.1292284972 60.3472934789 25.0317002666
6062 1 36.8410760395 54.6786648307 41.8418468355
6063 1 31.2745443967 34.6327253938 14.572617155
6064 1 59.6678906769 57.4116109973 60.3629782844
6065 1 46.4522467287 54.5758681314 21.0384887239
6066 1 14.6547728835 27.6983504338 58.0064091421
6067 1 39.2935615575 14.3719216139 39.3870290044
6068 1 19.3221978316 28.8573351141 16.5682608472
6069 1 13.6774170847 52.0385447249 32.9864038941
6070 1 12.3994844369 34.8328961645 12.7064168391
6071 1 58.4150303948 49.2233262142 14.1660949841
6072 1 23.4225208528 42.6346000535 49.6755617216
6073 1 14.4597915095 13.7648205176 49.3867630537
6074 1 28.7965200504 51.6059006474 26.323276946
6075 1 21.5357378739 58.4006866693 6.8293785243
6076 1 26.952418401 23.4422872062 17.2902866709
6077 1 9.3913253262 35.6392351062 32.4343453866
6078 1 11.1778771502 40.6152250756 5.7988051717
6079 1 9.873122902 29.7534098018 22.9803142917
6080 1 43.993930428 5.5107586747 11.5803177732
6081 1 41.5264014906 45.3400832335 5.4071981429
6082 1 16.2059360093 25.2461564549 26.3580284109
6083 1 51.919771681 33.4757814874 16.9163002675
6084 1 4.5146219248 51.775401501 53.5358897263
6085 1 13.0398209948 3.4367924106 18.6513079723
6086 1 49.7970752334 34.4923201461 50.0584109147
6087 1 38.8532791546 4.085610425 47.7298295295
6088 1 47.7594499056 11.6399083726 5.6019579472
6089 1 20.9037976432 42.3996195101 52.9932770868
6090 1 21.7989394057 52.0961528581 33.1343308516
6091 1 48.2014232355 35.2296809283 18.0622239946
6092 1 9.7200648557 51.1523823678 51.6377367211
6093 1 57.1542402482 58.8730383771 4.9564961313
6094 1 30.1809810984 15.0184971093 26.3955203438
6095 1 34.7966870038 20.63499856 18.7223269058
6096 1 19.8154237415 15.2022833805 35.9208619114
6097 1 11.415423238 54.7496254563 39.7712775854
6098 1 19.8509915161 38.6355577281 22.3925130861
6099 1 49.0241466766 51.9897410736 26.5274709566
6100 1 55.0085705167 31.4803710265 3.4729712512
6101 1 48.4426427164 34.0878970569 29.1028693743
6102 1 19.3258712247 60.412365014 18.2221623645
6103 1 14.8015336844 30.541381778 43.6963272782
6104 1 33.1196372792 48.0290652984 31.4589137461
6105 1 9.8938221806 47.9271432165 13.4705409139
6106 1 47.4262789813 14.429588055 44.6821960197
6107 1 48.5131951873 30.0567854265 24.3809849156
6108 1 58.1654145867 39.2932700184 19.8723904886
6109 1 9.1255232653 53.6583361633 46.9636646806
6110 1 10.3536960134 23.1126147515 29.1759873895
6111 1 19.8313417783 51.9033288737 30.1668122964
6112 1 35.2575520696 13.8238863465 41.4869853994
6113 1 17.8413539453 34.7677663215 30.1430810107
6114 1 31.1516898048 61.2201033436 4.2322312871
6115 1 37.5882908445 13.517420407 9.1127596819
6116 1 8.2836631953 32.7476916497 38.2413968165
6117 1 55.3848892332 46.9006339195 30.0931112028
6118 1 38.6985884892 7.2750485704 58.9679635197
6119 1 59.1282517366 30.5234229673 4.2204472753
6120 1 30.5758417039 36.5846382157 12.5776731567
6121 1 60.3823947908 24.1468206817 49.0972063841
6122 1 30.2245370453 37.3284128589 30.9641718327
6123 1 23.8114340599 8.0829326695 48.5161688865
6124 1 9.8442022197 4.5309539472 19.5062756419
6125 1 31.7062555489 54.9963841809 37.5774455887
6126 1 25.5763536801 47.7715779337 50.7275515392
6127 1 58.8529804846 48.2803137256 17.6425825626
6128 1 45.1218370365 12.8602328871 44.7981702879
6129 1 54.9975503374 29.3264215836 15.679766177
6130 1 31.9815851087 41.7346187414 54.4751122061
6131 1 27.5240683384 40.7360972013 42.8218847943
6132 1 40.5779080662 19.0328743932 57.5770886107
6133 1 7.7925305364 61.2374207682 34.0782762654
6134 1 20.2961134686 48.5675380822 50.4483153549
6135 1 15.870724311 61.612631636 17.8483508846
6136 1 5.1814768824 57.6194784011 38.5897277759
6137 1 35.872408107 44.1068726892 17.1616012964
6138 1 41.8342085101 25.9315649631 58.3610373468
6139 1 58.6134519306 38.8145627574 32.5264717535
6140 1 15.979351793 39.7078969773 13.8097758523
6141 1 26.1131938447 21.531656326 49.6994679308
6142 1 26.4314379653 19.7790396574 47.6047009324
6143 1 27.6444740015 15.6665886081 31.7191415787
6144 1 18.173067174 49.273995716 14.737919845
6145 1 20.1768156542 37.0559403826 19.2183515914
6146 1 46.3320159891 51.5334823261 47.8410225558
6147 1 57.5622201148 43.4072370711 40.5158102303
6148 1 34.1480707345 38.8812669117 58.3938063457
6149 1 46.2895095831 43.0202480223 6.5536757944
6150 1 41.6160206209 30.6036545374 36.4483145158
6151 1 14.2472594795 57.766239202 8.5542581595
6152 1 18.1499772745 17.9661910033 41.3605157223
6153 1 56.190528481 46.8258249772 24.232066725
6154 1 5.7339377139 47.8529173526 13.8101840071
6155 1 19.4370059433 22.5819552165 12.8345774432
6156 1 8.8683157781 14.7298733648 52.4894974601
6157 1 33.5908228304 53.0675029507 19.1040099424
6158 1 42.4143713903 17.0589212127 60.1068903075
6159 1 8.3460933858 16.7342049233 4.5059398894
6160 1 32.3787780273 11.3238216416 26.8593591088
6161 1 4.1981853468 10.7670985079 56.050181541
6162 1 60.2387826126 12.411262618 45.0470280942
6163 1 29.9020947611 23.5253758599 49.479764038
6164 1 55.3044827395 8.7266160966 43.9121245465
6165 1 9.7087531372 16.0482133368 9.2831643068
6166 1 30.7794526363 46.0607679771 47.6066833985
6167 1 50.497877008 35.9236606871 21.7258213904
6168 1 30.48604765 10.3197025501 36.0173030575
6169 1 28.5883027996 48.5047988602 13.7773567004
6170 1 50.372048717 3.7427055919 36.7529729127
6171 1 32.8568439022 19.6441153453 56.9526117819
6172 1 55.5787044506 5.6830174885 22.7692399574
6173 1 60.8460003245 60.4863576467 43.647815166
6174 1 59.19524743 52.7258773914 30.0521791082
6175 1 21.5460583593 13.4006298292 34.6435706497
6176 1 9.160764516 26.9471123887 54.5273560192
6177 1 41.6241837167 48.1795578003 5.3916532762
6178 1 49.6985350055 6.5612733042 23.8588966312
6179 1 14.4003175258 36.8468485144 23.1034021148
6180 1 45.6326136023 29.5065927695 24.6336327306
6181 1 49.1530652825 38.2047211932 14.2245777347
6182 1 16.0095552474 61.1759060106 50.2340923979
6183 1 34.8972680056 22.3650500995 40.0600762533
6184 1 17.1074333249 21.677367586 11.4615447293
6185 1 18.5642543864 23.2955264053 3.7395173199
6186 1 29.9401697722 57.4927754927 22.1196907628
6187 1 34.1056809442 58.2682695938 32.3468836459
6188 1 41.0885097086 38.8425505145 4.1390262254
6189 1 13.5016189858 4.236662682 55.8522847757
6190 1 5.5154524548 31.0503508013 52.8736877333
6191 1 57.2358712062 33.1003373884 18.2808200386
6192 1 24.2184226935 40.502749277 40.2980304959
6193 1 41.4738078305 60.2920176587 15.881861106
6194 1 48.0386277821 9.4520237742 32.1277045236
6195 1 20.504797182 31.4571645113 46.9859965784
6196 1 49.7166687398 57.2122565362 15.0641521379
6197 1 59.754885955 41.225358179 50.9350107882
6198 1 19.3805639666 50.7070854918 25.1579950203
6199 1 52.1390091111 57.2180873189 42.8973351227
6200 1 24.7265754071 42.0837660104 26.3745878338
6201 1 20.0701706383 8.5020143464 10.0325365014
6202 1 47.5900656678 42.6733747586 57.1387303662
6203 1 15.473997855 50.1503040503 9.6460139152
6204 1 40.2710922798 15.3287530576 23.8075274355
6205 1 56.6035228207 33.7494201203 61.6065093141
6206 1 61.2386452326 6.2007385166 19.7812553548
6207 1 27.1667579736 22.2461604399 42.2545496361
6208 1 16.2430780952 54.7620450235 56.6119774557
6209 1 52.8862822239 49.6561452152 7.0379689451
6210 1 41.5642432704 8.4635311805 46.0502142604
6211 1 31.9105078674 43.6054836835 8.7930986811
6212 1 14.0923938906 46.7331738399 30.8846399565
6213 1 43.6687476759 10.0765589109 61.1396385421
6214 1 36.3697738726 24.2188308483 55.0032645045
6215 1 49.3845473563 47.2912963614 33.5561879811
6216 1 54.1394340451 45.2996176015 12.2632190449
6217 1 50.3968878514 9.6711445887 58.9949600437
6218 1 48.8946449925 58.9487219367 53.7664971827
6219 1 29.7388328451 55.9598044089 4.1638945137
6220 1 34.6275943051 23.483160993 22.2362481093
6221 1 18.2112588008 58.1631988893 16.9693603902
6222 1 42.6048630616 48.9567428285 45.9266599747
6223 1 32.5799983388 4.0411040605 18.906113177
6224 1 27.1964366576 30.5809144848 35.1432104206
6225 1 11.9354124406 37.9776122064 14.5364079943
6226 1 45.9574465074 38.2895590817 49.7944513812
6227 1 12.3705054468 16.4608578296 17.9618179162
6228 1 50.1782918074 53.6593857042 4.920036247
6229 1 56.8889979425 56.1512290055 48.176292562
6230 1 6.3405257014 8.8847002776 31.4509255738
6231 1 38.9989321069 50.3294840032 10.9912337955
6232 1 9.9556867852 23.1330807988 60.0279415096
6233 1 19.7867362905 22.3391614243 30.8737363928
6234 1 59.4490030937 11.9964024278 49.0322514646
6235 1 25.0084354436 50.0386445613 5.9449770635
6236 1 45.3718609993 46.1963919831 26.7500902407
6237 1 29.29860875 56.8786191492 9.0524985426
6238 1 58.0732882198 17.6296382249 36.6720999564
6239 1 40.3794282226 21.5300820147 33.0737490192
6240 1 6.7608143503 40.2688182745 20.8635069346
6241 1 25.0961887235 56.9817073877 40.1649137265
6242 1 37.2657319447 12.2775627704 42.7508658608
6243 1 24.655090011 36.7964705517 8.2095364546
6244 1 27.8634782003 26.871778676 36.3465090496
6245 1 59.4229978028 32.3906728241 11.6882455613
6246 1 7.3939965377 21.6128791292 46.3159813366
6247 1 43.8561490324 50.2623133863 59.6818845554
6248 1 6.4896712925 31.2986838371 32.1769163297
6249 1 31.7435725583 3.6992697592 40.7056605155
6250 1 14.4578090433 53.4592149336 22.2921070077
6251 1 48.6281199146 27.3422062255 43.2267160383
6252 1 22.9164089131 5.3740967894 4.3648349476
6253 1 31.0697089999 54.9798830658 31.444103558
6254 1 32.5320693049 6.4411475187 29.0338912147
6255 1 16.7497731132 41.3278050313 58.5410336093
6256 1 44.1749179235 48.3427031007 10.5485024639
6257 1 28.6117425461 11.6691789018 60.385718337
6258 1 42.6476610068 24.4350945792 17.9418766393
6259 1 20.5108028882 12.991833653 14.8406582364
6260 1 58.3285015793 4.4336498452 25.8971633451
6261 1 35.9781785055 36.3279671606 46.4435005546
6262 1 19.4580550689 5.6553562553 24.069154656
6263 1 60.2397155378 20.6789626617 24.2152740708
6264 1 58.0521807864 46.4754532439 38.5282130183
6265 1 40.7981367294 31.9561628961 5.8449674784
6266 1 20.2274268482 29.7834966407 55.9441779113
6267 1 9.8373218961 3.7635028277 53.4276120912
6268 1 25.9436346833 57.3394259073 35.0251370706
6269 1 4.1997071811 36.6916330785 46.7140488726
6270 1 56.1846976983 36.4071491898 44.290425729
6271 1 35.6978344725 47.3274472143 53.2518723002
6272 1 6.0439779233 38.2959146349 39.7123283721
6273 1 48.1031745467 6.0549514563 43.4088696903
6274 1 22.6639360215 18.8713034042 28.4598506564
6275 1 55.1183641553 61.0108365519 17.2039327789
6276 1 58.0265836503 17.5126727237 19.2993411633
6277 1 25.8413627545 46.3112000948 18.47801711
6278 1 53.6622427877 38.8331046465 12.7802928561
6279 1 11.9981516626 46.352598652 28.8887047251
6280 1 28.8393763034 43.4804133942 53.5554811562
6281 1 52.9340363344 4.4353116183 32.1667707678
6282 1 51.869510334 7.6564575601 54.6621054078
6283 1 56.1865052409 48.1704617793 18.4110214166
6284 1 42.0393354461 48.4737207883 60.8824427165
6285 1 8.5417861153 11.9760529961 25.9254426413
6286 1 34.9527187493 49.2871149771 46.096568983
6287 1 33.7234148294 26.7015781285 31.155363198
6288 1 39.5688328095 54.7727153559 35.8740407262
6289 1 47.0064043179 4.6063401369 50.4403854904
6290 1 48.9682877782 25.048434613 11.4235863338
6291 1 36.9212493019 39.9218283951 33.0352075454
6292 1 18.9366664784 59.185101868 47.5419034025
6293 1 58.8439427713 19.8884834489 38.214225369
6294 1 10.3914794854 34.2373400179 10.7916461031
6295 1 4.5136365225 54.8337053431 48.106789632
6296 1 12.3783186957 34.5148852752 8.6994446491
6297 1 51.5175059815 54.1666054926 60.8234935033
6298 1 48.9131285737 31.6807750285 15.492539744
6299 1 27.6796919291 53.7692376505 46.0154627954
6300 1 17.0847515802 4.2985272866 41.0733496736
6301 1 51.6404771889 23.3522016133 58.8054012976
6302 1 60.2734174619 44.0278072755 39.7007834224
6303 1 15.3006486849 34.2912164502 55.6247093263
6304 1 49.2343463935 33.5891319034 22.9725593506
6305 1 56.1385178992 24.4663475745 36.1480875138
6306 1 31.7123195629 31.346962718 10.1771982206
6307 1 36.4065078037 5.4809342211 7.0346745529
6308 1 24.4619161797 49.3949261495 38.9090214374
6309 1 30.2704836131 48.312907801 60.7136998647
6310 1 28.7993188261 60.0486407882 39.5880743925
6311 1 23.2103386698 22.1223729229 24.1083958236
6312 1 60.9962595951 52.4198196067 25.7206072445
6313 1 14.9383238469 42.9126117734 24.8860473144
6314 1 28.9322023642 54.282171606 24.6346239637
6315 1 46.1705616157 49.3453061886 56.1725696702
6316 1 13.9709386866 36.7881325325 55.1871673913
6317 1 44.253341951 27.2799334661 16.5477947999
6318 1 56.2149594606 44.4150295557 38.2109601307
6319 1 23.5622264067 16.5603309827 21.4998785602
6320 1 25.0459856843 37.8625125556 27.3543925614
6321 1 12.7739956108 56.2456876855 10.2967875741
6322 1 24.3932295593 37.2378608033 10.8649973497
6323 1 32.2938235232 13.054922722 38.3781286712
6324 1 58.8485490897 55.6823757673 24.5525848509
6325 1 16.0044241586 31.4480101825 38.0516631469
6326 1 14.1635294397 40.2512093107 59.6294658188
6327 1 24.1667036508 24.4869302375 21.1366791048
6328 1 40.9546932453 53.365281024 54.5538277727
6329 1 29.6617498976 35.0675851688 44.865282597
6330 1 10.9765985309 28.1646381275 20.6776798895
6331 1 22.620263459 13.3313601305 51.634704714
6332 1 30.6623705194 41.9684914361 51.9055445712
6333 1 13.8889578816 21.9368957247 55.5722905897
6334 1 6.2094088905 32.0084650171 59.1859181776
6335 1 10.0234404804 13.1391775322 35.6896713767
6336 1 11.6907527979 30.7483162566 31.5529059635
6337 1 12.4955174283 35.0276443072 4.8422594364
6338 1 47.8302356078 58.1008678221 28.7844503302
6339 1 12.8991825157 30.7557796585 27.9793941606
6340 1 52.3935810845 29.4938233553 30.3216195775
6341 1 39.9090589809 13.7221391881 17.9156381171
6342 1 44.5543269548 53.8035226529 22.9423558962
6343 1 26.3524308595 55.822139629 42.6418302241
6344 1 13.8704159926 60.4400029241 9.6375009724
6345 1 61.0128773259 8.7508779835 57.7074649123
6346 1 54.2189659214 43.5197711775 58.4768366916
6347 1 32.7565544395 55.2585361717 11.2493625463
6348 1 39.076481517 61.2648837548 19.0753224914
6349 1 26.2725491363 4.9630965774 49.5110753412
6350 1 46.0777355548 24.7664579609 13.5950281249
6351 1 51.5433363489 50.1370098657 44.839627153
6352 1 24.7603356391 8.3323910464 40.8026847399
6353 1 31.2444575579 27.7093123053 39.2329797251
6354 1 19.9512809788 8.5715697534 15.6570261244
6355 1 15.1812925627 58.1624408876 13.9260999675
6356 1 21.1646668619 15.4793621751 20.1001991693
6357 1 13.8550227262 6.8154954306 23.2953514818
6358 1 56.7545400931 9.7320762681 56.1627739553
6359 1 47.5999779984 13.8320494423 37.2566359237
6360 1 49.536439246 48.3289424535 27.7270378847
6361 1 9.1267185758 26.4244410261 30.8723370049
6362 1 18.4883375954 14.825964664 7.1350164927
6363 1 22.5040559595 55.3539860848 52.5575426944
6364 1 38.7804526785 31.6569271271 31.5627599863
6365 1 9.1231326444 31.2474895649 3.4144290266
6366 1 52.7845350655 7.7295814062 36.7479001317
6367 1 50.4895389887 25.3722179772 40.4190192372
6368 1 61.5249949718 20.479491585 35.3274631544
6369 1 54.4394861237 58.3818532411 14.5498771024
6370 1 55.6995182685 23.4568058552 43.2205354086
6371 1 31.1027695379 3.6847336179 8.6986108472
6372 1 3.9989824862 27.2971342751 57.1515580882
6373 1 4.5482830334 58.5853475579 53.0129851323
6374 1 13.9339132164 39.1321654919 32.71387311
6375 1 16.3648248383 23.034190724 36.8119804338
6376 1 27.7445885407 42.4730290644 24.5499609987
6377 1 33.4637117672 51.0308105482 12.1098111516
6378 1 9.9714882064 49.3195924368 27.9679075187
6379 1 25.310236757 58.3220877183 11.4966460413
6380 1 27.932048205 6.1341743011 38.4240169311
6381 1 45.1396209237 19.9742542627 10.4059398265
6382 1 16.8504124228 47.2936869823 54.9910198608
6383 1 9.2624067203 28.2218964138 51.2584443054
6384 1 29.8787133224 33.6512297393 30.0699629955
6385 1 28.0374687565 37.6662484094 29.3050809188
6386 1 31.9294579113 34.7923139168 41.1060020568
6387 1 42.1211996354 16.6339154606 50.9719779506
6388 1 30.5251722021 19.7841124383 53.6769363602
6389 1 33.9144312711 59.0445800046 16.4013255381
6390 1 54.4801266792 13.9560118828 54.0284159422
6391 1 5.6085467316 13.3903093438 30.2809207141
6392 1 3.7863513329 48.3326741544 3.9098403138
6393 1 47.1408038595 45.6997842192 11.7987972016
6394 1 34.8842653602 59.3712787601 29.940927774
6395 1 10.8998654303 18.3770279534 21.7665785616
6396 1 39.5375798141 3.8998078691 16.3566617425
6397 1 49.4134680386 28.5428810023 53.299509795
6398 1 3.4918297517 27.028976578 6.616210939
6399 1 43.5902070327 42.4975766597 7.0029550949
6400 1 46.2529505754 29.6881050354 28.1387494523
6401 1 53.0261043934 27.6894293362 36.5396245731
6402 1 21.3237306144 54.9848975389 60.6783653215
6403 1 58.0311316608 38.5075137396 60.4735882325
6404 1 59.8846208704 14.9657285257 61.4625472889
6405 1 48.1799076473 33.2701880889 43.3953422744
6406 1 50.8384530264 14.2640521337 51.617503905
6407 1 50.5153693561 31.0039960787 5.0470715101
6408 1 36.5884865323 56.8602521837 32.5465879539
6409 1 5.7636572134 5.5638187974 47.2790517177
6410 1 44.5339775231 51.4199569866 37.9842592987
6411 1 18.5969067696 10.3326468878 45.6427591643
6412 1 56.9910949478 45.1706406878 54.6362167325
6413 1 26.8801166953 37.9525398408 6.7917233295
6414 1 43.5127742383 3.3745494465 35.8335750941
6415 1 11.7479527763 23.7488697614 26.6682843592
6416 1 50.4916380705 55.0368498129 32.0237999756
6417 1 32.0922533647 34.9488121249 6.5501015245
6418 1 52.1413414242 17.7065462489 42.8661404351
6419 1 33.0819704228 45.3784497838 27.7715850647
6420 1 34.8694551721 36.3140898977 21.1200613741
6421 1 34.4999001636 38.4817999878 32.848797422
6422 1 4.093365366 18.2053697103 21.4381305712
6423 1 43.1847927105 52.1363269511 51.0786812743
6424 1 43.9595871178 4.4920976112 28.8787923945
6425 1 34.7832178957 21.2217502247 46.5801157936
6426 1 45.4446874754 31.6291726014 50.8175788243
6427 1 38.2043130384 14.8115626307 52.4878065331
6428 1 41.9368885938 5.5991533407 8.5537975277
6429 1 50.0558453703 13.9259833519 25.4777551444
6430 1 40.1919685583 37.3412988887 40.3953462594
6431 1 38.637248655 44.9395084609 50.0002780111
6432 1 30.5162511045 4.5627783593 30.3001039892
6433 1 34.8112639606 16.1693186938 31.1345473037
6434 1 47.9702910086 35.0255452254 25.3172336962
6435 1 37.8165659878 11.7924416484 30.9990399134
6436 1 52.5319455583 50.1369515579 57.2992518143
6437 1 37.6011768743 38.7358471908 22.3317563302
6438 1 12.4628650451 21.5550377647 30.2624954407
6439 1 55.0588318637 54.3745312042 46.45247996
6440 1 38.8336877247 33.3578830609 59.309589079
6441 1 39.9715649717 60.2687528357 8.4352693767
6442 1 28.4540198737 31.4338413805 3.3628293983
6443 1 41.4127595355 42.5931431884 4.9530851235
6444 1 52.7016796432 38.3595867821 45.7280635154
6445 1 54.9223915482 50.4394525652 58.923999418
6446 1 55.0560913959 39.4659194946 16.8541441238
6447 1 40.5097462163 3.8875206607 10.3480401541
6448 1 24.231075492 10.021866169 25.1339721955
6449 1 4.9915449663 60.1572099624 13.1091490012
6450 1 29.5276418951 33.2630162261 41.5880328639
6451 1 28.5293535864 32.459184521 53.7804327534
6452 1 7.8650713041 25.0129251463 59.4948913537
6453 1 7.0846793455 16.186111348 10.0734102882
6454 1 21.4370227225 24.1650127238 23.381647066
6455 1 9.8415200596 59.1194472547 4.0183465156
6456 1 53.7912197014 22.1823133692 53.4428304341
6457 1 23.7807641428 14.5000239102 30.3019115319
6458 1 39.1789283693 36.5281379312 21.4948057792
6459 1 51.8354585629 19.1279744593 18.020592206
6460 1 56.5531448581 54.2162254535 43.408636459
6461 1 61.5940314391 24.5809224549 30.0429081637
6462 1 29.4091603903 17.0695915451 54.14386544
6463 1 4.9441173796 44.5199253367 61.1458191718
6464 1 43.4816961664 30.4873304222 39.4263867878
6465 1 56.5132623043 6.3362400761 7.657909425
6466 1 23.096230252 25.9646255011 40.8753946004
6467 1 21.2584841558 27.7241808012 31.1892400455
6468 1 7.5444423934 4.7958697291 9.2268972536
6469 1 15.8155067987 18.3503229686 29.830609365
6470 1 57.9299675807 51.927526622 19.560560229
6471 1 40.0743616709 50.1557849861 45.9099256283
6472 1 14.1008485255 51.8028644876 46.8964940638
6473 1 15.4498001067 6.272993576 25.6581595616
6474 1 45.033267447 27.5521727111 13.7338590614
6475 1 50.6787478878 42.6966978894 4.7658645212
6476 1 4.8818912665 34.3842174345 50.65641599
6477 1 38.7591703216 56.7677759698 60.6802894798
6478 1 13.4927561961 23.7966821797 46.0726627739
6479 1 18.9282701513 32.2469440301 59.1681925982
6480 1 47.9311081488 5.0547564817 35.9852337525
6481 1 28.2333247479 57.06053957 25.4798542262
6482 1 53.0264542404 40.636682356 42.4277821906
6483 1 50.4821338947 28.1372917566 40.7611112592
6484 1 7.3551285402 15.2249651252 6.5968935558
6485 1 9.1507180774 52.8216188436 59.5245700377
6486 1 46.8918294376 61.3960763659 30.226985974
6487 1 61.5314671406 42.4921540318 52.7871006099
6488 1 32.4280481413 54.5208838504 8.571365676
6489 1 50.622364219 58.1873966376 17.690336673
6490 1 7.4297042511 49.0588981416 18.4068232531
6491 1 14.3013691431 61.2673326836 39.6001441127
6492 1 34.7674747824 32.6254201362 51.2976271653
6493 1 7.9823574984 41.8714089039 40.0094650593
6494 1 39.0111184428 41.504011285 52.3381303408
6495 1 8.9541740536 36.3623104708 12.1589646499
6496 1 3.3787435285 29.0085856178 9.9782519143
6497 1 43.0366908296 56.1768261416 23.5407691263
6498 1 48.7683502389 22.1798644405 16.2763135567
6499 1 37.0880679954 57.3151698512 27.0847188608
6500 1 40.8126553784 40.1678874257 31.2930862857
6501 1 12.7702639098 18.1835625829 58.6521683278
6502 1 50.2075040288 37.0625291671 41.418648626
6503 1 57.0159340822 52.5859969141 34.3003124712
6504 1 48.2259708307 4.9906062102 47.7642311475
6505 1 28.9229314197 6.5030237849 28.1538511795
6506 1 37.7278214749 13.8096592367 27.2485638551
6507 1 29.5993605225 28.7950040469 6.1144954094
6508 1 29.4706168401 29.5376708414 10.0216329377
6509 1 58.8252259588 49.2813425022 58.0096160726
6510 1 28.5603150426 20.3910386112 45.994005515
6511 1 60.7654772152 43.875157384 22.099749486
6512 1 19.8321580879 13.6335695987 51.4619386222
6513 1 49.4675777022 38.519175305 36.1514693678
6514 1 19.645223194 41.6304226542 58.0202280971
6515 1 42.5737266819 5.1633314866 14.0633565926
6516 1 9.1103923842 4.5840723777 24.3023859646
6517 1 43.3264807305 53.6094742041 56.1912281749
6518 1 31.9287582173 12.4476467022 34.6913247601
6519 1 17.2221831288 34.9472378135 53.6699977287
6520 1 52.7106590485 22.6887751559 56.1251654067
6521 1 46.0499810291 12.3976185865 14.8566345811
6522 1 10.430720653 7.4654352876 22.1567162331
6523 1 56.9609498012 43.7619235837 47.4527507348
6524 1 44.2950320474 59.0775239269 34.9864789812
6525 1 20.8958677787 39.0760733622 25.0550817053
6526 1 59.7689964492 4.0342703831 54.7281681759
6527 1 25.911040608 36.0086734991 16.9358333896
6528 1 3.4094128042 13.0918315766 47.4082035549
6529 1 50.4222517562 55.5703081235 28.5309278977
6530 1 33.6941443001 27.320107559 24.2745148232
6531 1 58.8810848572 23.3473620636 56.9001930453
6532 1 50.5867381366 41.7223157898 29.6498551008
6533 1 33.089667056 17.3775734881 46.2307352933
6534 1 40.1481793801 9.9655991158 29.2850813341
6535 1 41.6575941017 46.497318679 12.4039158318
6536 1 35.4922993818 12.7427426154 25.8034626669
6537 1 49.0338840838 23.4710912728 59.7829320199
6538 1 51.753127911 12.162638043 13.9925125826
6539 1 11.8763466117 19.2338614735 51.0660284758
6540 1 60.9664059876 26.521290327 19.4351984006
6541 1 9.3689934284 48.3990867695 61.0189413399
6542 1 54.5906783195 9.7036803562 60.7672264501
6543 1 17.7870693583 30.8866807304 15.4294506751
6544 1 60.505482614 31.9184960398 18.352888513
6545 1 51.2673070951 37.4011810272 12.4563345684
6546 1 19.0054114067 6.8653486228 52.2757409658
6547 1 11.9010691304 24.7845333873 34.8766270348
6548 1 19.8996785517 38.1114286698 57.588458637
6549 1 38.5316531801 51.9169729053 6.1213699023
6550 1 28.0113468499 22.3140890586 8.4089842082
6551 1 12.7741122264 43.2228677217 53.7345444934
6552 1 57.0641546553 10.0340525049 23.242991053
6553 1 31.4730825481 25.8178647002 49.8471033491
6554 1 9.807001826 54.8762117491 44.5455807807
6555 1 45.3116873217 44.0906631132 18.3974356929
6556 1 24.5526431587 15.3622217503 27.7493114747
6557 1 8.8752369172 25.9766952213 24.0102637505
6558 1 39.8445705241 14.5108108582 14.2054527674
6559 1 8.9852871102 22.1751998143 12.6403540709
6560 1 14.7593771254 4.7447454263 32.9187085068
6561 1 5.3759684707 16.7999178445 36.1622563158
6562 1 19.0395797934 58.8814347042 5.5469211891
6563 1 50.9186262887 13.1764945416 36.1307117813
6564 1 32.0426917116 4.3236812832 24.8183519271
6565 1 9.2353518885 52.7350900281 16.750822654
6566 1 16.4832480352 35.0875264457 17.2738438636
6567 1 52.0072334217 15.5170873393 20.1086538043
6568 1 5.2248928905 48.8600101432 47.9088345588
6569 1 55.7658725758 36.5863874505 57.2331307384
6570 1 13.070782451 11.8450936163 45.6160541794
6571 1 52.446349668 60.8571371195 59.5245117299
6572 1 50.8046927945 41.3181842398 51.3110962733
6573 1 22.737637115 12.0708032153 29.1879988019
6574 1 35.6320049356 43.6215766438 38.9435979789
6575 1 55.7441820641 49.840397949 49.49125068
6576 1 6.9184437303 6.8445910364 13.5756116185
6577 1 48.6333676191 24.52657956 42.3394458324
6578 1 10.2787704555 31.6844484216 29.2442075473
6579 1 53.2311730216 42.9063728359 22.5380494227
6580 1 9.8619277991 54.8576115522 19.5816093546
6581 1 41.8517008583 33.6332126207 14.7950032078
6582 1 31.7842714217 9.4452017585 33.5717561709
6583 1 42.5984492007 17.9056091709 36.5044066455
6584 1 13.9912298104 42.0523380915 51.2315060893
6585 1 18.2002969293 26.5491614684 20.8224582243
6586 1 14.0184595657 7.8224482825 17.671794784
6587 1 16.5051717782 41.2450079167 9.0804279918
6588 1 37.2371611094 41.6981180416 22.290007926
6589 1 26.9474039278 13.5916462709 49.3110211863
6590 1 31.367195534 57.7724781395 10.8721109046
6591 1 27.1866409426 41.6542705555 49.8282699209
6592 1 51.8194822183 19.0361396316 5.689308903
6593 1 48.795638302 16.7393943199 15.8432030165
6594 1 58.2167837825 50.2741498752 35.5858251365
6595 1 44.739454306 10.4060564421 13.3308353601
6596 1 28.2663269781 54.4833336097 31.0607295945
6597 1 31.0287769052 15.101235916 36.8649239408
6598 1 39.2254580154 56.1036498185 7.9234491007
6599 1 11.5466158491 58.9021339828 10.4950341864
6600 1 53.8905762389 29.9216278832 39.6752445941
6601 1 28.3988023614 23.2533115384 45.5941887442
6602 1 34.6585557613 47.8620716814 61.5403299303
6603 1 39.2057499698 17.9229265955 34.1979822346
6604 1 23.7972652579 29.2454903195 47.7934433689
6605 1 42.508946686 57.0703935928 31.3171091105
6606 1 39.0614380976 35.6342206331 44.641613772
6607 1 47.7239404389 56.7966966521 46.4828000301
6608 1 55.3560851666 49.5493252758 26.2926070289
6609 1 24.6043622014 52.0960362425 8.0454057519
6610 1 20.0900536074 39.4059207404 13.4793453958
6611 1 22.1149678288 39.9186214646 52.1779004318
6612 1 4.5451752262 52.6707764948 9.5986679595
6613 1 5.8704013526 14.4327366777 44.0948612768
6614 1 12.569160214 54.5423411308 45.331803522
6615 1 25.0721658987 49.9778294976 55.7980001886
6616 1 16.4017920007 48.0434090239 32.3342308474
6617 1 48.1820650369 61.4552005027 58.2160840885
6618 1 46.3859507292 25.5731467496 17.3143678035
6619 1 32.350906886 31.1554798136 50.9122124278
6620 1 57.1870092471 55.4736920539 31.5001373799
6621 1 54.4359876541 55.9736816718 36.7817186715
6622 1 38.7171886861 56.2757162165 39.1278507127
6623 1 17.1610765259 8.7816295315 50.812272812
6624 1 17.0599124458 30.3162552574 9.2089384428
6625 1 34.6563400638 59.4751250003 54.1234577005
6626 1 49.9349732446 14.1367078392 22.7677822617
6627 1 21.3046639549 49.4108441863 19.5205027517
6628 1 5.8063385429 36.7181048321 59.3562353407
6629 1 5.6524233716 30.2623788251 45.133790141
6630 1 41.2132301509 51.5148238214 31.4578642052
6631 1 41.0001733505 16.4389923944 26.2218213267
6632 1 25.8959388807 14.8719112318 33.8046959404
6633 1 27.801846827 8.7446856922 13.240458228
6634 1 40.1976244175 55.132941112 22.8065569667
6635 1 46.7405206261 4.734232525 28.0022508289
6636 1 28.0926862688 61.3081481626 21.6177186789
6637 1 49.9670425496 49.5569052934 6.4564999696
6638 1 10.2985951167 36.6726247269 38.8426088223
6639 1 56.6788565334 5.7622986411 31.8288769094
6640 1 33.8406718698 49.7517117439 23.2991997984
6641 1 51.356751302 21.6091474283 11.9385610633
6642 1 37.9314907152 40.9893280947 44.2791723184
6643 1 51.7619323929 29.15289749 21.1654831715
6644 1 53.0682026447 35.3109037315 48.0366453159
6645 1 44.7619611273 38.9509447651 57.1926067985
6646 1 42.5152439313 6.775502092 44.0507805594
6647 1 6.6180009893 15.2189011112 54.2698686545
6648 1 23.6340033419 54.1830482999 15.8212792735
6649 1 29.0868347218 24.389264627 32.3588950583
6650 1 28.5177503288 14.3027102231 56.6467289207
6651 1 43.8594142707 26.4389013672 3.77944652
6652 1 35.7623812372 5.8907624459 50.3852845938
6653 1 3.5437400441 9.7636791104 42.2610218049
6654 1 18.7659411605 45.0227720381 11.2479048506
6655 1 46.3433860154 42.2736746034 47.1353229238
6656 1 46.4974352947 51.1528488304 30.7636512151
6657 1 40.94705492 10.7301896533 60.2988396745
6658 1 25.2806163808 41.2834327748 23.7874112351
6659 1 56.1683131988 45.8224055797 14.2185137207
6660 1 10.7968354997 35.4649530108 60.698773061
6661 1 60.4229187307 50.573094105 54.5249070905
6662 1 12.0382091399 58.4864574831 51.340891573
6663 1 40.2698678154 22.242778586 6.6432016322
6664 1 20.6904493036 27.3796981583 33.9758877209
6665 1 22.5810222913 37.2159370603 57.0768657616
6666 1 61.4036563835 14.5855031848 27.1934629584
6667 1 52.3937560079 51.5210044511 13.9118728577
6668 1 4.1501105434 40.8595348714 43.6845490971
6669 1 10.1139342281 26.2292847286 26.4838567019
6670 1 31.1838757254 44.6423134659 32.1089294033
6671 1 36.5610235457 21.2203508368 28.6186228697
6672 1 18.1697436279 16.7128059507 29.9545134977
6673 1 59.2797937793 11.401254436 22.3651667152
6674 1 5.9418750871 18.9433718786 38.1440227451
6675 1 30.7388120808 14.4230575784 54.7406460509
6676 1 44.6594559671 20.8377931828 14.0398585383
6677 1 28.2978132047 6.289657953 45.2091821615
6678 1 18.1173248913 33.4007393139 7.4606015687
6679 1 39.0729830474 10.5647703477 33.3537432052
6680 1 47.6691893892 29.6683969898 61.1394636186
6681 1 32.2131837982 22.6225957721 39.2207933892
6682 1 57.7483970069 16.3357292325 39.1759546701
6683 1 40.8104979888 60.7935815879 31.0218965816
6684 1 17.7305690737 14.0179347953 27.2315962774
6685 1 53.2670906431 26.7349302057 11.3690685154
6686 1 31.8710917763 47.4585232097 55.5921152509
6687 1 47.8841703479 20.4846226738 48.9198339739
6688 1 19.3903013737 17.2593835225 21.2025669495
6689 1 24.9891355528 27.1392366792 35.9296663933
6690 1 10.1908422521 26.1846792408 41.6808006169
6691 1 21.0309670142 24.9908847876 46.9498457256
6692 1 52.9053488834 57.4111445347 24.8778842186
6693 1 16.2366642342 5.6506274905 49.2932956068
6694 1 44.8376446869 31.0283104426 46.6671693796
6695 1 20.014953126 34.3045689426 47.6430091748
6696 1 40.7730060559 22.4790419016 44.049905942
6697 1 13.4003965979 36.8272570845 30.6845858015
6698 1 37.6591931623 32.3051352416 46.2658366052
6699 1 51.1763468848 43.8670525961 41.1961459576
6700 1 40.3709152798 43.8488022462 57.4391322917
6701 1 14.3333218324 24.5002827299 43.3480546266
6702 1 15.4877585022 44.7089593124 4.0583515158
6703 1 8.9508388459 51.1999032469 14.3681316052
6704 1 35.0680516314 7.9278804955 9.4653179588
6705 1 57.313187385 42.7861420963 9.4556971673
6706 1 7.4318849638 60.2777905489 50.4339716294
6707 1 27.5841837082 23.3007741097 37.1883574581
6708 1 21.9836586021 30.1628473641 17.0425367133
6709 1 43.2637998163 3.3769078815 43.3757508445
6710 1 23.1586196271 47.8800304922 11.4037033648
6711 1 45.7694037648 58.7115840037 23.145150519
6712 1 52.5832564462 46.0685229181 6.3412370569
6713 1 27.5059346041 30.6817870258 21.5442508167
6714 1 55.0707266605 11.5942533439 35.3729432596
6715 1 6.8711210977 55.111017369 44.4283820481
6716 1 46.887631274 7.3872969684 30.4615000548
6717 1 10.1475778444 12.9046051436 22.3112902829
6718 1 17.00317893 14.3680149895 47.9625943755
6719 1 43.7236736491 34.0776348793 60.852589109
6720 1 48.4187365073 12.6702659862 34.8207098286
6721 1 41.5047109789 27.6248242637 60.8109573204
6722 1 13.1868733348 38.6955564822 37.3004834097
6723 1 11.7572820286 34.3880657511 26.3389617515
6724 1 59.1987458996 56.8281828788 49.9249442984
6725 1 12.4928352682 33.5025447801 29.5805854022
6726 1 25.6356527403 37.7792489784 45.8424051644
6727 1 24.8057574364 48.8174454294 17.711910569
6728 1 40.5101543711 5.7359959802 42.563930967
6729 1 39.6322717254 31.7164011108 25.2980504211
6730 1 21.5160298283 25.1202698561 36.9367008761
6731 1 32.1050227788 13.5973021302 61.2697233045
6732 1 54.1636901012 12.4554016432 15.6603496706
6733 1 9.8148733826 40.8214598603 26.5835047785
6734 1 31.1864412698 58.0413355306 31.6183856534
6735 1 52.8419682753 47.5977623009 47.8609638327
6736 1 49.2123060349 20.1085954964 31.0553069666
6737 1 14.7162293333 37.7266553184 15.4041450781
6738 1 44.832222059 41.5104251459 44.8956026671
6739 1 13.9018439114 29.5062429225 33.1086170998
6740 1 8.6287230856 61.4185831872 41.9103002246
6741 1 11.7597309574 60.1601836615 56.6810722308
6742 1 35.0902086057 20.2443944259 30.7399199295
6743 1 51.004572026 41.1595286421 12.9408143042
6744 1 42.0421925296 4.6273834318 45.8431048584
6745 1 35.0267696898 41.7635977314 56.5947766467
6746 1 54.6655455696 4.5001440913 59.1880172594
6747 1 16.9987475351 42.7749469935 39.3323362626
6748 1 10.8331612761 10.6356143577 19.1646500826
6749 1 46.8742787816 26.6464772319 21.0946974693
6750 1 38.7588787825 59.6897561121 27.2329373574
6751 1 36.0689054845 24.6745065175 14.901531608
6752 1 44.989419961 43.6858318693 57.4611143425
6753 1 24.2107843681 51.543977735 26.8026839008
6754 1 18.8094387996 58.0030855959 50.1293132325
6755 1 13.9662157526 49.3089804123 48.7324909252
6756 1 36.2781139683 4.1001523971 61.2188788792
6757 1 23.3653791822 6.7000459329 43.9726480711
6758 1 32.0727202426 59.3916281918 22.7645753312
6759 1 28.3032941405 13.061336583 53.9686504194
6760 1 23.7994809554 11.8706324446 5.1902347181
6761 1 10.0048402835 52.5588837745 10.4977746543
6762 1 46.4457745598 9.6829810776 57.047711848
6763 1 37.1660255603 29.8896751939 20.4382679512
6764 1 60.9468145577 8.5796920337 34.4294643084
6765 1 21.0042620294 59.6053846862 20.4566349167
6766 1 4.5966260529 47.3433069432 7.5952868187
6767 1 52.6482113657 28.2857434845 23.584733228
6768 1 42.8913294165 10.6769546071 45.1691829921
6769 1 11.3400895253 39.7058562033 59.9163986362
6770 1 29.1665415215 17.927474606 8.3367816258
6771 1 52.0446087389 52.5471055934 6.717054326
6772 1 18.3013443938 3.6961870243 48.0337882324
6773 1 46.8733458564 54.4876483889 50.0546792138
6774 1 58.504357986 48.5316787685 21.8723489601
6775 1 52.3331158677 5.8611304081 20.6050866447
6776 1 9.9309059587 20.1353004813 25.799031272
6777 1 61.5213798865 28.3345471358 29.4978465954
6778 1 22.2154905229 7.0220509083 34.6487600463
6779 1 60.3618704357 59.3375185282 32.154234585
6780 1 40.9279882605 23.7411731282 14.9546500385
6781 1 36.8380440325 3.5623064224 17.6389674773
6782 1 37.5889322306 11.1063917541 14.3646331355
6783 1 38.2787138259 61.1380059229 50.254325214
6784 1 41.4999880449 54.353365463 25.3600316413
6785 1 18.21691466 44.9386338435 30.4273899759
6786 1 28.1655710527 46.691658667 60.8409275436
6787 1 41.9782288432 6.0869799458 38.4920621654
6788 1 53.4404398132 8.4750353148 8.9466115285
6789 1 41.338708595 47.9703493165 16.1977146057
6790 1 12.2864838679 8.9392239268 4.7182620112
6791 1 26.5408234491 57.1749978347 9.2292295667
6792 1 34.981814355 15.706412854 21.5915384645
6793 1 50.1212084446 51.0195571376 58.4178291705
6794 1 46.0840328002 16.0613325979 15.3860696517
6795 1 3.7637832884 7.5371072687 5.2286304222
6796 1 12.7705554489 44.8542041098 6.9379127137
6797 1 31.164809066 29.3615812034 35.2324213961
6798 1 58.1176021685 36.9101708147 27.9688987518
6799 1 18.593058453 24.6333411915 23.053723846
6800 1 38.8652322592 28.078459159 8.9653691564
6801 1 42.8155292412 46.3615197496 21.547516055
6802 1 19.1090244155 32.2932987527 55.5549148572
6803 1 18.9640711572 31.3528518085 35.7631975467
6804 1 30.3323482177 13.0139906273 11.6098215338
6805 1 54.8590109401 49.5406957174 4.9813702504
6806 1 48.2808968039 38.5528772291 54.5196010782
6807 1 47.2355540787 46.8595269013 54.8558040096
6808 1 28.0483140123 4.6263338909 58.2419727638
6809 1 7.7216107262 17.9958113795 54.558142552
6810 1 42.4564696415 36.7712815704 41.7522277052
6811 1 32.0142957998 29.5607024331 24.6246533253
6812 1 49.1518991259 46.5114291732 18.6215709805
6813 1 43.783089325 28.3882486447 19.3016151686
6814 1 13.8929228139 23.8092766703 6.4338590403
6815 1 59.2284245836 16.6886665103 5.3396543559
6816 1 49.550957895 52.0619844714 45.5536064965
6817 1 26.7079919895 20.6088766534 17.7523762011
6818 1 14.2537316483 29.1793692435 6.8276059663
6819 1 6.7507970656 35.0363321734 41.6353788195
6820 1 49.6159711223 47.327855369 4.524627548
6821 1 38.3267011676 48.9241487531 18.5832044302
6822 1 15.5010526868 55.8547920122 40.7730060559
6823 1 37.9014621842 57.4914927205 52.9295466317
6824 1 20.8863636029 39.3314033373 45.8359329956
6825 1 19.164533467 16.6286677562 24.2511916923
6826 1 45.1625358998 47.8905842089 46.129629521
6827 1 24.2277519458 56.4457418404 17.3903429023
6828 1 38.090088005 39.7853880796 59.9129001666
6829 1 39.8809546083 29.8594717394 14.5987973694
6830 1 51.9300921664 31.5634013724 46.8892055854
6831 1 43.3853133281 35.261808541 47.0192903477
6832 1 26.7031524399 11.3533254021 19.9498815909
6833 1 58.8406192252 50.584580747 28.0869137939
6834 1 48.3836351953 58.3145660086 41.2521214716
6835 1 8.784918093 12.6325408221 3.6927182917
6836 1 46.0657241424 30.0254158155 32.3972033007
6837 1 8.0859821689 30.1837798741 56.2751331382
6838 1 50.1452895772 4.8843285337 41.8597473384
6839 1 20.3719136439 13.5854073334 22.088262844
6840 1 35.0576145303 54.8374953519 7.8666339539
6841 1 5.4466492188 26.4899790238 50.0949699224
6842 1 52.1395338816 23.0758225125 41.2859983192
6843 1 60.5379017659 6.3757611214 26.0140705385
6844 1 39.4957147942 55.8419642903 26.6649608131
6845 1 32.1034484675 18.2433864136 8.2932839867
6846 1 58.9735027633 36.0233670715 12.7419263058
6847 1 8.5966362883 20.59045138 43.1169807075
6848 1 59.5916823468 42.908005455 28.5834049421
6849 1 38.4184776876 20.6259608468 54.4076500501
6850 1 19.7175248997 21.3759161197 21.8848268351
6851 1 56.0258671771 24.3036104289 57.3141203103
6852 1 49.7795828853 28.5109866208 19.149664971
6853 1 18.236156243 23.0358233431 55.4844206941
6854 1 48.561882223 42.6396728345 31.7351762312
6855 1 41.3410992159 21.0993037876 8.9645470161
6856 1 16.3329304568 32.4091564053 30.749190874
6857 1 16.2016212301 14.1184574893 15.0742976999
6858 1 11.0424280677 23.0933731685 49.8836040489
6859 1 60.1488719431 22.3647002526 28.9443303922
6860 1 48.4329053093 11.7972228902 44.3003963675
6861 1 33.2035422424 40.416395385 21.5167878301
6862 1 16.4180598845 29.7677535273 35.8715334896
6863 1 42.4648659686 11.8026455182 14.5501686416
6864 1 35.1713147933 50.0191697471 53.269131417
6865 1 50.51070473 23.9093912096 44.5152024027
6866 1 25.6364107421 29.0840359461 29.9822097156
6867 1 27.8093685367 43.9967292037 60.2957493597
6868 1 46.7507244959 54.6415810526 43.6960940469
6869 1 16.1667531494 35.0725413341 8.9426174423
6870 1 58.6129271602 47.4748494013 36.0578269973
6871 1 51.4657286309 30.6605629767 60.7451860914
6872 1 14.5347753752 21.3270541605 12.5002403623
6873 1 11.4521571691 31.5343057666 40.5990154997
6874 1 58.5807995474 29.8697922248 14.7155296394
6875 1 58.6956659669 13.8974708244 14.1240550407
6876 1 22.2981710218 34.3169885098 11.6624151939
6877 1 23.3899267774 37.8626291713 59.8601898908
6878 1 47.0698432339 45.4106357044 5.2076337737
6879 1 59.1266774252 32.4095062522 60.2374998404
6880 1 46.0851989567 27.9121652359 52.3369641843
6881 1 3.5043752638 26.6408213726 33.0565482102
6882 1 52.4415684262 33.720499438 40.9466467652
6883 1 26.0758768353 53.7344861856 53.8204902306
6884 1 50.8708138705 46.833988073 49.9313581594
6885 1 21.6155612893 52.1802327449 54.6927753249
6886 1 7.4296051278 16.092352362 50.5136201213
6887 1 26.1719098267 11.2742016807 3.5868977485
6888 1 56.0996848863 10.0766755265 53.2928043949
6889 1 11.2402082174 38.2593556272 27.3584158014
6890 1 8.1852920601 36.5806149756 5.2833115026
6891 1 21.8146242112 10.7192860896 9.4706822789
6892 1 52.8974190189 59.1432368481 19.3269207656
6893 1 9.1941865626 36.5088963482 58.3796375437
6894 1 9.0494840279 22.7967029439 26.4022840517
6895 1 33.0839528889 59.6344219841 57.5020464372
6896 1 25.3104116804 12.7579026505 45.5907485824
6897 1 48.7677671606 42.1358349 25.5639924207
6898 1 47.1307749133 7.1406373672 39.5674334216
6899 1 5.9094909199 8.7981598005 40.9911356373
6900 1 16.5332178431 18.3898556754 26.8332372023
6901 1 10.972167136 61.5462190209 60.8922384315
6902 1 55.2032603516 21.5470495924 56.6064382121
6903 1 29.5935880476 28.9815890938 14.4735521567
6904 1 23.0638111001 43.1668338998 61.165293986
6905 1 36.9605487774 39.3066808186 16.8188095805
6906 1 55.5768386002 50.1034245573 42.4441083822
6907 1 16.1755576313 47.8206148163 59.9897498828
6908 1 48.152328045 32.0288144487 49.6491482759
6909 1 31.9254346712 35.5870496009 35.5483332037
6910 1 3.7772599765 30.6121674802 31.2097644007
6911 1 32.8352116983 16.1995804561 55.3865218523
6912 1 6.7782250675 4.7727565064 55.9288429527
6913 1 35.1793612734 51.0379241031 33.2153787314
6914 1 27.263082504 42.0166537013 35.1436185754
6915 1 38.7304245628 13.6319952873 58.3995788206
6916 1 54.3526074612 40.3874163949 27.7337432848
6917 1 9.4952298742 52.3732316528 43.5731811472
6918 1 46.6857695764 37.6040339578 61.0527598796
6919 1 50.2650538542 4.0975168833 20.3179789038
6920 1 12.2835101687 58.5838315544 13.3030225265
6921 1 44.0082741534 8.1158765918 22.8390927343
6922 1 44.9244650415 11.1318722746 47.3261061342
6923 1 26.6105013025 53.8310439473 28.703868913
6924 1 22.8364688821 59.6734882283 22.7076085841
6925 1 53.9876587711 6.8732260103 16.7416683252
6926 1 53.6365873438 52.3352149495 31.6540700436
6927 1 46.3593040522 34.4057330227 22.8852725334
6928 1 49.7160273537 57.7693878247 32.26117114
6929 1 34.5224652927 3.6433898699 14.479849402
6930 1 4.0199383192 17.9827504262 54.5865384638
6931 1 28.0682552892 11.3121600761 34.6612379213
6932 1 58.2580657241 22.3162464482 59.3926777327
6933 1 59.0719846833 6.4720506671 10.7112396095
6934 1 44.2042467605 18.1533008206 48.47045555
6935 1 25.7645713461 56.901650741 13.9978769027
6936 1 27.5565457981 61.4769493222 4.203951991
6937 1 45.2439336265 15.9391193922 31.6503383427
6938 1 55.8945579503 60.6282788979 32.5904937477
6939 1 12.59073411 15.3632129834 43.2833329384
6940 1 30.2027882257 53.1614951681 14.1290695138
6941 1 40.6138839956 40.9602907967 54.7681673454
6942 1 23.4035125012 13.0150401682 8.7233741814
6943 1 52.731766482 38.5739846626 26.2008888168
6944 1 14.9051466933 54.5349943446 32.4272318317
6945 1 16.9597395987 16.9157171892 54.7316666456
6946 1 46.6627379847 8.4618110996 20.4815323589
6947 1 6.2783637269 50.5193342884 8.8086435478
6948 1 26.2987876585 60.7605793578 57.8509604749
6949 1 44.2052379936 60.8591778935 24.3126481422
6950 1 49.4517179732 61.4212070394 25.046743686
6951 1 30.2820868707 7.4913939322 30.6018469948
6952 1 42.8227594117 42.4293565019 13.6289632803
6953 1 48.3513909669 37.5123740536 51.7768591966
6954 1 49.386996285 54.2769239016 48.8032766274
6955 1 34.7243852981 53.0595730862 42.4616007303
6956 1 57.4040892876 36.1393413397 31.7472459514
6957 1 23.4352319591 54.2767489781 21.6289720895
6958 1 8.4605458197 13.6964837442 33.1368380882
6959 1 52.296906707 21.8159069834 6.3132551306
6960 1 60.6395323086 24.3605771761 26.5990146606
6961 1 46.4228595838 7.2736375209 47.1773045593
6962 1 40.6234464793 50.801136017 43.1645015867
6963 1 34.713306811 47.4582899784 56.0451087601
6964 1 37.8255453932 43.4164497078 11.6847470917
6965 1 8.1147687431 21.9105988947 32.2603548304
6966 1 57.7478139287 39.3899443958 11.0704741326
6967 1 24.8349696578 5.6421262093 41.6634248844
6968 1 20.6348236365 33.9460341134 30.4038336138
6969 1 54.2140097561 57.1204217085 27.4499007822
6970 1 10.9289610361 6.4721206365 50.9938433858
6971 1 29.1173880232 46.0642664468 45.1464429395
6972 1 11.0603285707 38.5447724412 57.2853162437
6973 1 22.6861513037 51.4641543196 11.0654596594
6974 1 20.528062005 32.6619791438 44.3352061403
6975 1 30.165937679 39.0805047571 11.2584002595
6976 1 54.3335408017 60.9294388252 30.2852354933
6977 1 45.4197317254 48.5892285939 23.3668951857
6978 1 9.6698618165 37.5221697685 41.5447101483
6979 1 48.168537621 49.2298566909 32.1109701772
6980 1 48.453254741 30.634499378 35.3898525295
6981 1 32.9158514233 57.4377329038 44.8749033885
6982 1 41.1222116327 29.2892211899 44.492170811
6983 1 8.8599019587 40.068589196 12.6938806562
6984 1 37.1992027139 22.4803246738 13.6249400403
6985 1 21.7932835464 35.5611609256 50.9428823448
6986 1 15.6647227576 18.8216251355 43.0122015422
6987 1 40.5861877777 36.8798507446 11.9485900095
6988 1 46.8788851 23.5527805387 22.6302340974
6989 1 29.3117280111 60.0193119511 52.3763802755
6990 1 44.4322303647 42.7225282568 20.8054323388
6991 1 57.8653625082 10.9868607084 36.3955459322
6992 1 60.7227958858 14.8219414239 43.2856069437
6993 1 11.3728002164 35.5284502346 55.3584757875
6994 1 14.9941827453 51.7445566604 30.3051767702
6995 1 51.931258323 56.9905118696 21.1267084664
6996 1 59.5031127573 44.1708946834 16.5353752327
6997 1 57.3352277437 20.3747707274 24.1752749014
6998 1 33.7735012529 13.7092531583 9.4218786276
6999 1 12.9953321226 56.2273207199 3.9513974684
7000 1 50.4202109822 27.4211550235 29.8303178259
7001 1 27.8429538451 19.965041626 51.4519096759
7002 1 7.6860079669 43.7953339687 35.8515922127
7003 1 8.0812708964 37.1979782495 25.677925915
7004 1 4.2421319562 55.1009301149 54.9786586014
7005 1 13.8414370025 49.2059504817 33.3795152648
7006 1 45.0675524494 55.0711348153 41.2587102561
7007 1 50.5305293912 51.8017566388 18.73911956
7008 1 55.8835960788 48.472146477 60.7232623484
7009 1 43.8831455564 18.6397630226 19.9773445775
7010 1 58.6430723068 12.5958651988 61.4019654565
7011 1 48.8786103401 43.2948195804 28.2231208781
7012 1 46.0072413918 51.6790186627 13.4240695757
7013 1 44.8736206163 19.4340322441 35.6362030992
7014 1 12.3088157657 34.9198331348 58.207162991
7015 1 8.6888093015 29.4382559961 17.3054467059
7016 1 27.0706666744 21.4128249742 29.384962642
7017 1 7.7152959885 25.111173835 27.550190245
7018 1 53.1755473544 33.176020948 25.7628804192
7019 1 28.9385579173 3.8269225021 46.83165576
7020 1 19.4571804515 38.4714211946 51.8850785238
7021 1 28.6119757774 20.4616493899 15.2921357421
7022 1 40.5155186912 39.8164078436 58.3893749508
7023 1 8.8187133096 55.5403962082 30.741086086
7024 1 57.48962687 32.4390100128 15.3587232807
7025 1 49.3674048551 8.0674052951 55.9265106396
7026 1 55.3073398231 13.866217829 26.2977381177
7027 1 26.1466625375 51.6053175692 40.9530023183
7028 1 50.7317497027 56.4566454041 5.3684292686
7029 1 15.0690499954 36.5959499342 36.6039381065
7030 1 46.6055963141 42.0515217819 13.9361872216
7031 1 26.1436888383 39.4765898269 11.1205022483
7032 1 60.4963865929 17.8277099138 28.7381539154
7033 1 59.1777550818 29.4863599535 51.88974315
7034 1 11.7924999562 46.4793598683 32.5592407524
7035 1 53.4715761929 21.2703789525 15.1428677046
7036 1 43.6962106625 48.7362226262 17.6757597162
7037 1 51.7957509326 57.7700292108 51.2533715244
7038 1 8.3736671573 14.1735000781 23.9893895484
7039 1 45.6019436853 20.518965984 55.1280432546
7040 1 19.9969943153 35.1322485491 39.1051106601
7041 1 10.701618818 52.9834813718 22.4390427322
7042 1 24.156499781 51.6561619944 53.5946057082
7043 1 55.7959011068 10.3468739976 25.7975735763
7044 1 46.307759933 17.6241572892 27.0626201943
7045 1 6.6345837353 49.0876439004 30.7275586701
7046 1 38.9911771659 25.2688381997 33.4737990213
7047 1 17.4551228983 21.7144513641 46.5602328245
7048 1 25.2100639099 11.4215455599 49.8341590115
7049 1 27.7390492971 58.0651834319 19.217826821
7050 1 18.9549168283 29.3799481689 61.2242431993
7051 1 52.1925940043 4.1505420213 39.093332479
7052 1 45.15099095 26.5784319976 10.0889201703
7053 1 46.6378988503 44.556251113 9.1011039473
7054 1 46.7139322569 47.0539835049 7.5823249887
7055 1 31.3859123465 18.3475825007 14.9270121285
7056 1 49.63696194 22.1550253061 38.023966929
7057 1 8.5245911371 58.1454733099 18.5316020032
7058 1 36.77343896 51.4398982635 18.3503229686
7059 1 31.8342995374 57.9969632741 38.3352724182
7060 1 46.9850053454 60.7451860914 41.0436709896
7061 1 15.4320745273 16.9887185888 8.9273874378
7062 1 26.2640945014 49.371136556 42.7731394508
7063 1 43.0042133698 7.7841225477 25.71535954
7064 1 5.7291914568 6.7368498334 28.5306946664
7065 1 14.1821879444 21.3419226564 35.6174862867
7066 1 38.9013831121 24.0396508954 47.0396980872
7067 1 38.3475170619 11.0617279585 7.6838389158
7068 1 20.4011258653 46.2610553634 24.0748105152
7069 1 35.7101957318 35.9215616053 50.6152506641
7070 1 20.5981480132 57.7574347201 15.2450813256
7071 1 27.8640029707 43.6435586946 45.4222972698
7072 1 35.6038422551 55.719926008 10.6394043664
7073 1 6.1360693055 25.114555689 47.5215539709
7074 1 52.7929313927 34.1282460733 43.762506662
7075 1 7.7991834594 44.5160187123 58.4073920694
7076 1 20.1575157634 45.5671922203 13.501910525
7077 1 54.9478720687 13.2993491334 41.2130552274
7078 1 57.270680979 42.8103398445 17.7629882256
7079 1 59.755235802 28.63069259 59.6089414636
7080 1 9.8381965135 12.8127703158 58.4189370192
7081 1 6.3198905614 34.7332480879 38.9616150975
7082 1 53.7328535664 60.3022798363 21.6867551462
7083 1 5.5602386968 8.2726721698 58.3556730267
7084 1 36.139924418 59.2956535083 46.1010003779
7085 1 58.6335098231 56.4435844508 4.4934037065
7086 1 23.4037457325 24.4153282258 51.6098072718
7087 1 41.217603238 14.8373929981 9.9934119494
7088 1 5.2210912202 22.3224853857 5.3724525087
7089 1 45.5769879352 29.1621684345 11.3580483361
7090 1 25.19047248 8.031021211 15.6051321583
7091 1 27.5537470224 57.5283432672 49.097906078
7092 1 7.4445377623 27.6685551341 47.0019146152
7093 1 43.4682270583 31.2904624335 60.7788880155
7094 1 3.7022714461 36.2311178597 6.2401079615
7095 1 11.9966939669 42.6890012562 49.1739977924
7096 1 22.9758828968 37.5122574379 46.52332397
7097 1 29.5228023454 34.8114971919 17.7238053658
7098 1 35.5152143578 14.3142551729 45.6934286661
7099 1 22.5132685961 30.549836413 20.3717387204
7100 1 47.5284926023 27.1293243485 4.3682459555
7101 1 29.443328777 61.2771283985 42.1963001168
7102 1 14.2590376606 42.6298771195 5.8068516518
7103 1 54.7773799821 4.2897752817 20.3925546147
7104 1 24.5969571074 45.9067186978 39.5620107937
7105 1 10.0651305768 51.8628632417 7.0767902965
7106 1 58.1948600395 38.7888490056 25.8271939525
7107 1 16.7421347878 45.0307019026 13.5463410892
7108 1 24.0056574322 27.8042374479 7.0623766016
7109 1 6.5729640236 57.4335930481 46.0358122271
7110 1 12.7170288636 57.4277622654 56.2058634395
7111 1 19.4165398959 53.3935603202 9.7969145719
7112 1 33.2231919802 20.9950493927 50.9711033332
7113 1 24.0956264095 56.6002575824 20.3835169015
7114 1 50.6352502488 47.7982246107 54.0908053173
7115 1 46.2047883102 51.1359395606 24.2653021865
7116 1 16.5473283373 19.7560663735 56.784568624
7117 1 8.48460946 47.0362579254 6.335412105
7118 1 31.2392681612 45.400956605 10.9518177043
7119 1 29.3288122045 46.0306228305 15.5409352406
7120 1 14.9488775636 29.7534681097 46.5048986966
7121 1 36.4523377559 42.9254394953 7.6270295998
7122 1 61.450360953 5.9806031459 23.4375059644
7123 1 8.2654128454 36.5867372975 44.7816691728
7124 1 10.4629065736 14.152975723 19.812216811
7125 1 23.1143056785 34.8874139829 24.5824967662
7126 1 59.7379183773 42.607778453 37.3846216043
7127 1 51.711962585 20.6514413673 58.5851726344
7128 1 8.2183525981 45.4319180613 30.8915202801
7129 1 46.1979079866 34.1464964232 27.4889087186
7130 1 15.7793559458 56.4666160426 19.2570679887
7131 1 58.1548025622 24.0205842359 46.2197734218
7132 1 47.1459349483 14.5053299225 33.1361383943
7133 1 4.1942495685 40.2485854585 39.5900568586
7134 1 51.3197258317 30.7224275813 55.903770587
7135 1 56.3852766237 12.4436234621 17.8272434512
7136 1 54.2832794547 18.9464621934 51.9487506711
7137 1 10.2857090869 4.7714620727 28.8596091194
7138 1 15.8563222777 21.9013279502 5.0075096493
7139 1 19.8867925219 25.5168213886 60.8125316318
7140 1 46.9429070942 31.7414734765 26.1688778196
7141 1 6.4618467974 59.7513291775 17.2426491761
7142 1 7.8185766427 38.6921163204 59.6992602879
7143 1 22.8585675486 42.9152356256 40.4719627443
7144 1 45.3933182797 29.5847252579 44.2861109498
7145 1 60.7641361352 23.1500483765 32.4043751635
7146 1 25.8453859946 14.4803158646 53.3725695024
7147 1 42.5925601101 31.0395638532 14.9008319141
7148 1 36.2635370115 24.9282038734 47.7357769278
7149 1 33.649655428 56.7206049377 41.2697304354
7150 1 45.6821169476 36.6204975294 33.2706545515
7151 1 24.419643005 18.6329993146 4.0202007045
7152 1 6.6311785582 53.0531592252 60.804368536
7153 1 7.2921735792 48.3782125674 35.0888092179
7154 1 39.2144961439 9.2744764405 9.8974955737
7155 1 14.1857447218 8.0385895669 61.0606897441
7156 1 20.4851474442 34.7365133262 23.76688688
7157 1 6.2360672291 14.3979852127 34.582055892
7158 1 40.8830912336 31.1016616892 49.2216352872
7159 1 55.519871853 7.9566787314 47.7763008677
7160 1 31.4722662385 39.071758583 17.8943557602
7161 1 60.9802832505 6.5861649156 32.2444951014
7162 1 42.285277861 11.1137385403 42.425624801
7163 1 25.4362399714 58.6758413057 7.105891733
7164 1 31.2344869194 50.0978270059 4.4432473136
7165 1 30.809247936 6.9143155361 4.0013381224
7166 1 54.7419288231 50.7502915918 8.7995358652
7167 1 18.4323620814 14.1293027451 53.9386801963
7168 1 22.0829568317 9.1491670892 50.2912923764
7169 1 31.9930717507 37.2246249265 33.2129298026
7170 1 20.9927753874 51.0927917685 21.9743876576
7171 1 7.9867247547 7.0147449376 16.228617754
7172 1 5.3117249067 45.2606096651 41.9102419167
7173 1 56.9006595079 37.4495182159 48.1218913592
7174 1 20.3123230445 36.1005083268 10.4569591753
7175 1 31.8885841244 59.2624763547 35.6009851716
7176 1 46.3316078343 43.354643411 53.0252880839
7177 1 17.2252734436 45.2134969407 32.8528789699
7178 1 33.6904125992 6.7250366676 54.6400067413
7179 1 32.9949751447 10.9547914035 60.9255905086
7180 1 29.1514981021 32.0158701111 49.9192301313
7181 1 11.7911005684 28.2334996714 38.2396475817
7182 1 47.3734520899 50.8512807484 9.2329029598
7183 1 4.7032419149 13.2996989804 25.045402606
7184 1 13.8236531152 32.8918285985 41.129558419
7185 1 49.4068209463 31.3803147951 19.2746186446
7186 1 30.8150787187 26.7183124749 36.5873786836
7187 1 14.4538441111 44.2663445964 9.1996674983
7188 1 41.3135196136 7.2577894535 22.4089558934
7189 1 59.6308068988 26.9046059827 38.8345040343
7190 1 16.1310687592 29.7441388573 31.6009516131
7191 1 6.8796573636 28.7581535001 59.8403069218
7192 1 7.3764108971 60.2667120618 61.3305383682
7193 1 19.5487237401 49.865703546 33.1419108691
7194 1 36.6565317666 44.6395729981 54.1342446485
7195 1 38.5065808144 6.5996573468 16.5263958273
7196 1 61.2163133348 27.6610917322 22.9899350831
7197 1 25.7508690068 37.4405971183 4.2374556684
7198 1 38.6918247813 33.8851607419 4.9310447648
7199 1 60.0480577099 20.8705038739 17.5815925754
7200 1 32.0239165913 59.1582219597 8.5576400135
7201 1 39.5651011086 37.1238690012 57.6875236354
7202 1 20.4036914097 44.2635458207 35.1386041022
7203 1 11.8349480544 28.6971052051 12.7164457853
7204 1 39.0040631957 6.3146311954 31.8113845613
7205 1 27.5729886054 26.7373791344 21.9347383351
7206 1 52.1024501035 40.0954691044 38.7464009075
7207 1 33.903352784 38.2444871313 46.7635522178
7208 1 47.0156169546 22.858742472 18.3711971707
7209 1 4.9426013761 14.5674277584 38.0159787567
7210 1 35.3496201287 56.3462686873 45.7900447357
7211 1 5.4943100367 4.3558672038 6.2173445858
7212 1 45.7922021253 36.4115222769 9.6749929053
7213 1 26.8075817583 47.7730356294 55.0916591704
7214 1 22.9120941339 34.6838613583 46.9235488956
7215 1 17.1111650259 13.2868712584 50.6739083382
7216 1 7.9079916957 16.2868089655 46.5050153122
7217 1 18.2730650976 20.8987248622 60.4499735625
7218 1 58.8557792603 49.145485265 41.392001949
7219 1 58.3695502896 34.1241062176 37.6321966384
7220 1 38.8287898672 8.079539154 52.6486195204
7221 1 20.0692377131 31.4129088705 39.4760650565
7222 1 16.1808053358 47.6849908104 8.3652358455
7223 1 28.9260217345 45.1400290785 49.816783279
7224 1 15.4767966307 48.8856072793 17.0078435561
7225 1 49.8822629689 19.2919943771 21.0492173641
7226 1 20.5452045062 56.2020734308 5.0694500541
7227 1 28.6258530403 39.4734995121 17.3542503573
7228 1 43.9994696715 36.4704714901 5.8879811625
7229 1 27.0861765564 26.5868283247 59.8846791782
7230 1 46.1591915894 14.4550102676 13.0399959182
7231 1 35.4541660628 33.1039524737 53.9320914118
7232 1 52.8369538022 46.7473426419 32.9192332772
7233 1 36.5639972449 39.1620774073 5.1975931659
7234 1 47.058006745 8.2850509216 10.2768462972
7235 1 3.5924976322 6.901919292 17.1993264605
7236 1 25.8178063923 39.3794489869 35.1910811467
7237 1 5.7083813933 33.4510589687 4.4102042679
7238 1 44.7732728457 47.8739664782 61.3921114337
7239 1 5.4732550803 39.8734328986 33.5788697258
7240 1 43.3214079496 56.8799602293 58.9443488497
7241 1 39.2482563758 11.448483776 39.2413760522
7242 1 50.3863924425 7.8581268419 6.0797730984
7243 1 42.5836390126 44.9166517927 18.9007488569
7244 1 47.9438192551 32.0586097484 4.2681022624
7245 1 41.4613299555 11.7927914954 19.3761908795
7246 1 18.3914882945 46.5217496586 51.3115044281
7247 1 56.715415541 58.8392781452 16.2780044836
7248 1 18.7397609461 6.6098320627 45.7394335417
7249 1 33.7375836314 60.2597734303 5.1941530041
7250 1 58.4623763504 50.9992660137 60.234934296
7251 1 54.7976711059 16.8496544211 22.0335117943
7252 1 24.0703791203 14.4853303378 17.3600228322
7253 1 44.4828415587 32.5461797991 29.1872408002
7254 1 32.1316694558 45.1566468093 59.1370562185
7255 1 39.9011874243 57.0877110174 20.5445631201
7256 1 52.6143345181 25.6255071784 30.283661182
7257 1 30.4232501202 42.5363513647 28.7022946017
7258 1 59.9961054359 22.9496443746 52.4651830962
7259 1 40.1780329876 17.0215458955 12.9092697698
7260 1 26.2303342695 55.0021566557 19.0637775416
7261 1 16.4918775937 27.2094393031 14.3605515876
7262 1 21.2992996348 54.1282389423 31.2731450088
7263 1 10.1739329822 16.1892016629 25.1730384397
7264 1 55.7256401751 48.3781542596 21.1944038537
7265 1 12.8906112651 9.4439189863 14.0828314069
7266 1 61.1716495392 52.6189991442 47.6175286544
7267 1 46.1300376758 18.2081101781 29.9651255222
7268 1 20.2226456064 29.111732164 27.9798023154
7269 1 31.4715665446 46.4377280797 36.0552031451
7270 1 60.6804644033 35.1650175479 49.5710740954
7271 1 17.5968692261 27.7450550033 11.8265517273
7272 1 15.7610472881 57.3268897244 31.9263675964
7273 1 5.7657854491 46.3277595177 58.927731119
7274 1 44.0994092873 44.7695411448 10.0789495318
7275 1 44.0751532312 40.3643848032 8.9638123375
7276 1 16.4456394867 50.5512286698 60.706178155
7277 1 9.9319554996 19.4229537569 16.2308334515
7278 1 42.9972164306 18.0886374403 56.3690087399
7279 1 58.996534355 8.9251542481 44.0620922779
7280 1 57.6011114355 46.7990033767 59.0306444339
7281 1 4.0759954643 26.2874759401 27.8241204169
7282 1 25.1400945173 7.1216989849 38.118775456
7283 1 7.978987306 55.773919056 54.3867175401
7284 1 39.9463759903 47.6689561579 49.6253586824
7285 1 23.7854870768 33.4261615265 26.8710206742
7286 1 13.805519381 48.1692956227 3.4088291429
7287 1 28.136475447 21.7518849892 39.6224177027
7288 1 33.6479061932 44.2032555275 45.2669069104
7289 1 53.5303504827 54.7853681544 52.6213897652
7290 1 27.0171400891 40.6987801919 5.8026243343
7291 1 29.3352260655 14.1183408736 8.2538212493
7292 1 50.1329866257 37.9817520622 58.7174730942
7293 1 60.9859974175 18.2821028108 3.7181282597
7294 1 58.6169504002 15.110331937 51.4746497285
7295 1 6.0974870163 40.150570001 50.470880484
7296 1 28.0869137939 35.4872266008 15.2776170931
7297 1 37.5671834111 46.6357414607 28.2646360511
7298 1 53.6676071078 50.9237573775 46.5451894051
7299 1 36.1659880167 17.6151778838 61.1409213143
7300 1 7.8248272418 11.2153107752 21.5991767898
7301 1 17.0110504866 60.7224460388 38.8349121891
7302 1 44.8359537599 19.4058695636 25.4841106975
7303 1 10.4829061583 60.2228062679 16.0678630746
7304 1 7.0462253335 20.2648021654 34.4881219825
7305 1 17.8049698612 26.3717890581 32.1968576066
7306 1 38.7228445453 30.8442909401 22.5542006908
7307 1 45.8362245348 25.2820157686 42.5583334156
7308 1 10.820042015 42.6280695769 30.5521104182
7309 1 44.0059418404 27.1823844713 48.0560035146
7310 1 21.3951577026 17.8311500756 60.5035584557
7311 1 60.9527036482 54.9286887935 6.523711402
7312 1 30.9733261616 21.3611059316 61.1458774796
7313 1 55.0206402369 53.4832960662 16.6107672532
7314 1 6.0565665832 41.9816106972 53.7729693515
7315 1 12.7446667737 13.3794640879 51.6839165202
7316 1 22.6307588679 13.3384736854 61.3256988186
7317 1 14.9814133312 50.7231201443 22.34598344
7318 1 29.9364963791 14.4137866338 34.2589722218
7319 1 50.4445253461 43.3777916184 43.8831455564
7320 1 47.6704138536 38.1138775985 18.2110838773
7321 1 8.6823779481 43.8672275196 42.0188110909
7322 1 22.245810593 56.4315147306 40.0635164151
7323 1 32.35562982 7.8530598917 52.3020961037
7324 1 50.3572385289 25.6218920931 18.4789500353
7325 1 27.4102514598 12.1826959356 8.5575292286
7326 1 44.4404517683 11.3508764734 36.1659297089
7327 1 58.9502379402 50.7511662092 47.7634148379
7328 1 26.323276946 18.1636796138 31.4210136585
7329 1 43.2565113379 37.9541141521 32.9545095127
7330 1 7.8745696492 44.0422676167 17.8403044044
7331 1 4.7429495452 15.9834333409 41.9709403648
7332 1 35.898704937 50.7103507301 41.741149218
7333 1 38.8628416383 18.0683463164 55.4399901298
7334 1 21.4802288224 9.5261330225 54.2263710154
7335 1 38.811997213 40.4428088307 4.1689614639
7336 1 46.5616322124 39.78859501 59.1912824977
7337 1 32.2016971563 32.2924824431 30.5784072483
7338 1 20.9881107612 22.5756579712 56.0540298576
7339 1 39.1461010626 41.9214953274 35.7581247658
7340 1 49.7411580272 52.2174914465 40.0570442463
7341 1 45.5162894872 6.7306225574 44.5315285943
7342 1 36.2557237627 41.6056418277 46.4978434495
7343 1 14.3452749369 18.2972628459 45.5431110877
7344 1 17.1986267666 44.283370482 52.6918839282
7345 1 56.3063278257 26.3037438239 59.5662018263
7346 1 49.8416224134 58.7793376989 22.2056365001
7347 1 4.1646350231 49.2774941856 20.5922589227
7348 1 57.3911449499 38.5855296124 50.8451001187
7349 1 28.5102869269 47.2572445904 19.1473909658
7350 1 60.1119047807 27.880095931 34.9607652294
7351 1 31.7025821558 26.6962721163 14.3106983954
7352 1 60.3032710694 32.0878802777 37.3011247958
7353 1 36.9355347195 27.9780530806 6.812480916
7354 1 45.3786830151 22.7620097868 58.3117089251
7355 1 58.853505255 13.354799877 33.102494778
7356 1 21.3220979952 59.4283621229 25.2526869316
7357 1 45.5997862956 42.3727979096 3.7919803705
7358 1 19.4278516144 12.4034493692 24.4798166826
7359 1 23.8353402691 15.7688605369 51.6530716796
7360 1 36.4740282676 48.7667759276 43.6706718342
7361 1 27.5412691474 37.8201227653 49.895732077
7362 1 34.0606673016 20.4944766965 14.4192092618
7363 1 58.4372456769 23.6905619342 43.2141798554
7364 1 21.3091536576 5.9617289023 16.2337488428
7365 1 24.5133436832 45.4951820537 60.1210591095
7366 1 27.408502225 60.6369084564 31.2844567273
7367 1 8.6284373772 44.7881996495 24.7902475544
7368 1 43.3485210892 40.5350518133 4.9117856895
7369 1 43.060480423 14.2853927984 24.2777217537
7370 1 37.3826391381 59.3327372864 37.9832680657
7371 1 23.6889876229 3.647160054 49.5828522764
7372 1 26.8011095895 16.6932728286 16.090311588
7373 1 57.1879421723 35.8678017886 51.8086952703
7374 1 54.3162816849 26.0716786718 34.8483477387
7375 1 10.7375364395 14.1928582767 31.2435829404
7376 1 7.8367686848 48.8582026006 37.8034467267
7377 1 57.2928962612 26.7222190993 45.1895907316
7378 1 51.4133682022 19.8255109956 61.2613852852
7379 1 43.3919021126 20.8937103891 23.7654874921
7380 1 21.7146262876 60.3338243708 16.5858115032
7381 1 9.4846178496 31.3316277595 52.6896099229
7382 1 5.5927511413 20.3082998044 8.9362094121
7383 1 24.7650585731 53.5856263028 57.2840334715
7384 1 61.0852373394 14.676521703 20.8235077652
7385 1 35.8850025977 38.1490955261 36.7729141896
7386 1 43.8816295529 56.882759005 11.286912787
7387 1 33.7117532639 6.3190276055 17.5457332617
7388 1 10.4633730362 5.1954241147 14.7137220967
7389 1 32.3543470478 61.0426726255 55.313112298
7390 1 21.5904306158 39.2562445481 9.4331320382
7391 1 36.5764168121 28.8933693513 33.8158327354
7392 1 57.587467404 28.7052683009 16.9843455018
7393 1 60.6025068383 38.3991777968 30.2358487637
7394 1 48.0303480706 23.0357650353 57.1333660461
7395 1 57.3982585049 28.5443970058 57.8382493686
7396 1 13.3817380932 4.2190478874 43.7977828974
7397 1 26.6746399124 40.189694553 53.5100593588
7398 1 5.7107020448 34.3743634117 18.6555644437
7399 1 19.5312313919 33.6251661406 53.114965522
7400 1 18.4792998822 28.2867347176 45.6989096018
7401 1 23.6319625679 15.0818194096 39.3181674606
7402 1 32.8938110646 35.5054186429 54.451847383
7403 1 44.0557367247 13.1122976239 18.9548002127
7404 1 42.1067976021 20.2928482302 15.0622279796
7405 1 61.0262881261 49.1630942288 23.1754705891
7406 1 10.2290338789 41.1756216024 8.5652142002
7407 1 8.9719462794 50.7766467296 30.2992293718
7408 1 31.6648569916 30.2133419424 28.8717371474
7409 1 50.6452208872 51.6548792222 48.3771630265
7410 1 14.2189801833 43.3776750028 35.3228568361
7411 1 10.6157313886 54.8309648752 28.4836402499
7412 1 41.2569610213 6.7826039853 51.5412955749
7413 1 24.3863492357 13.651353486 14.7443920138
7414 1 51.144569119 4.5558164047 45.2738455418
7415 1 48.4171038881 3.6073830374 45.0658032146
7416 1 54.1916195505 33.8451615725 15.1198944207
7417 1 15.1604766684 60.7667016796 5.6171821208
7418 1 14.3954779761 59.733953445 30.9561253526
7419 1 31.046735716 40.0859649285 30.3475665606
7420 1 41.3512447778 26.4331288923 51.7103882737
7421 1 53.3135619813 18.1991890806 34.3340143953
7422 1 10.2913066383 54.8725966638 4.276137081
7423 1 22.1999806408 6.7566278483 38.2993547967
7424 1 23.6273562496 9.0092807811 21.1924213876
7425 1 12.5849616351 17.179268568 23.9647836453
7426 1 7.0864519034 59.3351862151 36.1275048508
7427 1 26.6139997721 13.5706554532 22.8570515451
7428 1 37.4441538958 22.531868793 38.927388403
7429 1 11.6118039999 40.6826289238 38.4937530924
7430 1 16.0683295372 8.8545667925 48.1503455789
7431 1 35.7657047833 59.2290659697 8.0720640905
7432 1 22.6308754835 44.622722036 42.7389710641
7433 1 29.188640188 50.9555934512 60.2909681179
7434 1 43.6145213967 51.2256753065 46.9972499891
7435 1 24.4263484051 19.1073917964 40.8309057283
7436 1 40.4952275673 45.7782665546 25.0261610231
7437 1 49.621452058 8.9202797137 20.1730256454
7438 1 6.4047109575 55.7428409841 21.7543339179
7439 1 27.9792192372 5.4968930734 34.2355324753
7440 1 56.893545953 58.792107113 26.817144242
7441 1 37.2741282718 60.6085125445 30.251941724
7442 1 34.0088899511 41.4970726535 44.7170057925
7443 1 14.9984392167 31.4559400469 25.2879048592
7444 1 28.3883069525 50.8633504686 38.2324757189
7445 1 12.2765132295 48.2613636818 46.8946865211
7446 1 60.9958514403 3.4325843347 12.9174328656
7447 1 11.6512783989 59.988000648 53.8781566717
7448 1 46.4960359069 27.359581958 26.4005931248
7449 1 61.3254655872 35.6357949444 59.3239328045
7450 1 16.4998074581 50.9923273823 12.1672443614
7451 1 35.9548553746 28.6814787074 25.076772217
7452 1 11.0736810631 6.2146449334 48.06900616
7453 1 22.0363688778 9.587706088 38.2268781675
7454 1 48.3997281556 22.9598482443 47.7797410295
7455 1 29.2067156144 40.8305558813 55.0154508403
7456 1 8.4878397136 35.8748570357 9.3692849675
7457 1 40.4258995609 25.970397976 40.9914854843
7458 1 16.3066919346 56.70363736 59.3306382046
7459 1 21.8508916797 9.1273716234 7.0774841596
7460 1 27.8465106226 9.2902778617 22.8337284142
7461 1 18.8167855858 29.1913806559 21.8546816884
7462 1 48.224513135 27.8536241775 11.5821253159
7463 1 43.7264724248 15.3879938099 37.2110392028
7464 1 15.1156379493 52.1985414026 39.9441019851
7465 1 56.6301694977 55.1057696646 60.9089727779
7466 1 26.9806976971 18.0132454198 39.500845883
7467 1 57.9194721718 26.1847375486 56.1825403087
7468 1 26.1194327822 42.7536646365 32.5274046788
7469 1 20.8951680848 53.9638108698 17.095946683
7470 1 56.1464477637 22.5545505378 15.3804137924
7471 1 31.6951770618 10.0544019366 18.2623947652
7472 1 32.6487432671 24.2049535854 30.3219694244
7473 1 41.814675388 13.6170101758 12.5007651327
7474 1 11.8687665942 31.1052767744 17.6971586888
7475 1 15.9524135768 47.2366619274 12.2080598404
7476 1 30.6557817349 33.3985236164 33.9642261555
7477 1 34.8364529419 31.7752920163 20.0415414952
7478 1 21.0031541807 47.7140281083 9.5650243433
7479 1 60.9324708322 38.6869269238 10.3659989649
7480 1 25.0642360342 33.9521564353 60.2081710033
7481 1 27.080579005 41.0715421309 19.0770717262
7482 1 20.4201342169 47.295494525 21.3423308112
7483 1 21.1790105874 6.7245643742 40.8899132494
7484 1 10.5984139639 48.2818297291 9.8158646157
7485 1 19.0351483985 18.2082267938 45.9169225675
7486 1 12.6082264581 39.2274404815 29.5088667748
7487 1 36.6151332093 60.207937772 52.2102612759
7488 1 22.1949661677 45.0230635773 27.5831341673
7489 1 45.1863838011 33.8427126437 55.1949223323
7490 1 60.2730093071 13.0828521712 18.2986039259
7491 1 8.5013029909 61.5971800618 38.95537616
7492 1 32.5475791869 38.5794655983 10.0187175464
7493 1 41.8285526509 21.928382782 46.7853010374
7494 1 24.076209903 8.6417082387 27.4278021158
7495 1 17.6625821473 50.3398044886 5.0265646472
7496 1 4.6353307886 19.7362417122 31.1358883837
7497 1 10.6754969114 28.9302198981 55.8556666296
7498 1 51.7277056984 50.2009152443 60.7019216836
7499 1 53.5972878683 7.3067738591 45.6713883074
7500 1 56.1202092414 47.7405581697 53.6966444057
7501 1 32.7423273296 41.8458117677 6.7083314751
7502 1 57.1143576944 18.6883334426 55.2550377021
7503 1 21.5412188096 39.8711005855 59.1795043166
7504 1 41.7906525632 58.4735714533 9.9849573144
7505 1 43.5668255941 31.3884778909 34.4239250648
7506 1 44.4403934605 7.0314617916 33.9932634534
7507 1 14.8096384724 6.7029321703 56.7967549599
7508 1 43.0435711532 30.0900791958 31.9566293587
7509 1 48.9109128763 12.3410016863 15.0128995579
7510 1 11.2625984231 54.3281764817 6.9119598999
7511 1 43.7725939161 16.1327596862 27.0934650348
7512 1 55.1148073778 55.536081429 50.3067439506
7513 1 43.6513719434 35.8212721426 15.0454353254
7514 1 31.925842826 31.927533753 36.2190481394
7515 1 28.9721432258 43.909908849 20.7068921109
7516 1 53.8859116127 30.9299451382 57.0056719046
7517 1 46.0511471857 59.289356263 16.2359062324
7518 1 15.129923367 41.300225429 48.5614740682
7519 1 38.2390061956 60.5772595492 54.5531863866
7520 1 33.9680161643 34.2859104379 14.6641021358
7521 1 49.4326513137 28.614483014 6.0401121143
7522 1 23.1476577556 47.1106004051 24.5628470285
7523 1 19.4654601629 35.0848442856 5.6418055163
7524 1 54.3596627083 57.5346988204 22.4416665844
7525 1 8.9796720665 18.387290131 59.279560548
7526 1 31.1494157996 58.3318834333 3.8476870855
7527 1 31.9320817635 25.5314566532 53.411169284
7528 1 14.2069687709 46.9859382706 38.9941508651
7529 1 4.9924429068 6.926904196 55.8479116886
7530 1 39.2884304687 20.1392654135 44.350832638
7531 1 28.6828780953 45.0631210545 56.915469696
7532 1 17.133730155 8.6732527732 25.1245846353
7533 1 47.6584024412 40.7987781155 7.7929445219
7534 1 55.2851245409 18.4077561783 61.296544905
7535 1 48.5791413398 24.2924153261 25.7713350541
7536 1 47.629131912 7.8052766274 25.1066841324
7537 1 47.5423115573 53.925619243 46.4836163397
7538 1 59.7825238651 15.9666406866 32.0910872081
7539 1 52.4241926937 51.5366309488 10.3487981559
7540 1 30.1527018022 55.098889341 58.7903578782
7541 1 56.4757703714 28.8474810913 25.0423122912
7542 1 20.5790230459 51.6807095897 13.1557369551
7543 1 6.2434140153 7.1184745621 18.2805284995
7544 1 27.3094955345 24.640921209 34.5421150304
7545 1 31.4921492076 28.5323855934 16.7334469216
7546 1 56.1344946591 27.8891336442 49.8609223042
7547 1 17.6706286274 29.1843254088 26.4241494869
7548 1 54.3640357954 38.3082175864 50.7368807915
7549 1 14.9109191682 14.5925001241 27.4487929335
7550 1 34.0137295008 41.620043861 17.6202506648
7551 1 28.3988606692 9.973645596 56.4719803627
7552 1 60.0064259213 31.6403677042 53.6368205751
7553 1 24.5317106488 45.2824167924 10.9792806909
7554 1 4.1660169186 36.7104081989 38.6434875925
7555 1 13.6410913084 59.8582074247 37.2205433786
7556 1 9.1396337595 26.0101639141 19.6632986205
7557 1 37.4858439922 15.7068210088 41.095798187
7558 1 51.8429219648 44.7423113895 61.2089082408
7559 1 19.6020170941 37.0715085724 48.2867858944
7560 1 12.0979746627 58.0479826228 30.6110013236
7561 1 43.1805362391 28.5323272856 41.446636383
7562 1 23.9870572353 54.115527836 29.8952144375
7563 1 53.5792124418 59.3503462502 61.4891939659
7564 1 56.8663745055 30.733680992 27.1541051751
7565 1 13.4960797422 43.0377986783 41.8421966825
7566 1 28.6537824895 56.5792667646 29.1809435548
7567 1 43.8541665663 42.1370010566 27.1357382095
7568 1 26.4488136978 46.0201274216 15.6688626134
7569 1 21.5836086 29.554988266 9.6700950478
7570 1 34.7130152718 8.0156221138 27.7563084139
7571 1 4.8498744386 39.3733849729 15.6991243756
7572 1 27.4749148401 19.7348423244 43.4881100274
7573 1 13.5728711506 7.1127720566 12.2945303481
7574 1 10.5027891274 61.5896000443 11.3728002164
7575 1 39.5060352797 30.2856436481 10.7538626311
7576 1 21.5916550801 43.6992426695 47.5956632192
7577 1 42.0043507498 59.8956410497 45.2625921312
7578 1 25.1342637346 10.3858236261 29.3231563453
7579 1 47.2023186172 40.6980221902 52.7508914493
7580 1 61.4791650196 54.6113192903 24.0299717961
7581 1 24.760685486 11.8131992349 52.6036641857
7582 1 11.0742641413 26.2812953104 52.4749205033
7583 1 26.2580304874 33.9933217613 34.0455072666
7584 1 41.5161976208 4.5371462384 48.6205982049
7585 1 25.3494779246 17.0225371286 45.0936743559
7586 1 24.5633717989 46.5339359945 45.6244505065
7587 1 37.3829889851 36.5167095971 40.8460074555
7588 1 20.1448046571 57.3470642326 9.2318534189
7589 1 24.3734632059 14.7181534916 11.0193381682
7590 1 56.2164754641 13.3637792824 33.3314113074
7591 1 36.122373762 53.1978792522 34.9897442195
7592 1 16.1043054665 54.8297987187 34.9979656231
7593 1 33.0862268942 44.2506014831 53.6041681919
7594 1 29.4710833028 38.0266490891 15.0035703055
7595 1 37.624208466 14.8874794216 43.8537584115
7596 1 37.5616441675 48.4276576048 51.1278930804
7597 1 19.8338490149 50.136251864 55.2284493329
7598 1 15.0854344948 5.6978451689 8.9228452581
7599 1 31.1606692102 53.2010278749 54.3457854455
7600 1 28.7111573914 55.6166045383 20.3780942735
7601 1 58.2070463753 18.8068732552 29.7818057137
7602 1 24.4595838666 29.9612188978 35.4797048911
7603 1 47.0741580131 47.2146215687 28.9015324471
7604 1 45.9094591657 60.2310276715 11.9739539144
7605 1 23.0204300767 17.0982206882 33.9642844633
7606 1 3.7630346159 12.176806845 28.6081274609
7607 1 26.5463626926 20.790855382 25.3471456115
7608 1 27.2832570122 59.3104053886 37.0280692412
7609 1 55.0994141114 54.1625239447 32.9987068456
7610 1 57.572948755 56.8607769541 58.6314690492
7611 1 47.1514158841 57.9943977297 33.202667625
7612 1 50.9298213916 41.8520507052 37.0790302821
7613 1 43.0176241701 30.980264793 43.1424029202
7614 1 9.4003630394 34.7204786737 41.9970622714
7615 1 19.2815572761 10.0116039914 56.2638797276
7616 1 20.5277704659 29.121178032 50.150070819
7617 1 32.348866112 36.1345017901 29.5748129273
7618 1 24.3346885008 9.1978599557 61.0238975052
7619 1 44.5425487737 48.4226431317 20.5490528228
7620 1 12.6637938174 16.6418453251 15.1312061392
7621 1 29.0164571744 19.3851702849 41.0468779201
7622 1 7.4916738098 4.6826242672 4.0916919313
7623 1 9.3720254354 18.8818571209 8.7657698025
7624 1 28.4435827726 26.2746482181 6.8375766048
7625 1 58.507040146 5.5847454766 23.0919154728
7626 1 31.4579225131 23.1421768198 58.6896019529
7627 1 33.5428937965 24.5169004607 18.4356856275
7628 1 20.7995432482 22.401317568 6.9382567299
7629 1 6.6635802178 30.9121029431 36.487030913
7630 1 59.3076066129 29.8374313808 38.4378358862
7631 1 32.2028633128 25.6185102391 10.8619070348
7632 1 11.4685416686 25.2354278147 30.5795734048
7633 1 43.150566016 48.6088783316 52.1236741526
7634 1 61.1835443359 50.641255955 60.5704375334
7635 1 28.7999602122 8.5974642594 4.8532971081
7636 1 54.7609371748 55.0239054753 4.6751900192
7637 1 34.3076009496 15.365370373 57.651547706
7638 1 37.602284723 16.0518284221 59.2452172378
7639 1 18.2143491156 51.5242113816 57.1155821588
7640 1 37.2631080925 20.8945266987 15.7997053775
7641 1 27.2114217692 48.4883560529 21.5290907816
7642 1 5.6982883084 40.1780329876 30.8551361959
7643 1 61.4353758414 43.1675919015 26.4683468199
7644 1 46.6429716313 53.0152008298 37.2131382846
7645 1 21.5816261339 30.6898918138 7.2070966286
7646 1 54.8231516264 30.3079172381 23.1751207422
7647 1 58.0569037204 46.285136496 5.016133377
7648 1 26.4100973006 60.0851997958 33.9203786695
7649 1 36.4810835147 51.0957654676 50.875711728
7650 1 33.1128735712 36.6677268694 61.2890231953
7651 1 26.8708457508 43.4007649023 55.4843623863
7652 1 28.2893585698 28.5824137091 50.4357208642
7653 1 29.9039606116 32.6808708798 23.22374947
7654 1 4.9863672312 50.6272037686 28.8713289926
7655 1 27.8543238714 44.607212154 36.5687201789
7656 1 34.7398368723 4.0537277051 54.4482906056
7657 1 61.1195806496 52.1819819797 18.4313708483
7658 1 56.1432408332 8.240655342 21.378831511
7659 1 28.2297679704 38.5080385101 9.284796926
7660 1 6.6464202242 3.7546843519 23.2063154297
7661 1 5.7169001668 49.1200047445 44.3109500842
7662 1 21.581567826 39.7767585211 39.6083655163
7663 1 14.4505205649 60.2677616026 33.7071469456
7664 1 37.4410635809 38.8413260501 46.2321346811
7665 1 34.4425252617 12.9598226559 29.6506714104
7666 1 19.477588191 44.4282071246 21.0859512952
7667 1 50.7170561303 27.4691423652 57.1196053989
7668 1 33.0307761506 9.8084595216 9.5679397346
7669 1 9.3695181988 3.4045003698 56.3126250711
7670 1 17.5608349889 37.2766355084 7.7836502543
7671 1 10.54914385 7.8559344676 56.0645835743
7672 1 37.0027053364 41.6787015351 54.4952284065
7673 1 30.3225525027 25.4616621841 8.6714393998
7674 1 36.8873724543 14.3849825672 30.2487931014
7675 1 33.0375398585 54.247769988 33.5412611773
7676 1 21.0587215399 57.2152302354 54.4391945846
7677 1 56.6675448149 11.4901738724 49.9013879362
7678 1 22.9615391713 4.6056346122 13.4956715875
7679 1 31.6906873591 42.8431088434 13.7753742343
7680 1 26.2916157958 56.2776403748 27.3686196712
7681 1 21.9608602417 41.379174227 26.2551734038
7682 1 18.4176685089 35.9543306041 32.7868162018
7683 1 13.7240633464 36.5798569739 42.5148357765
7684 1 42.1764171477 11.0610865724 56.8413021399
7685 1 39.9898153216 5.5013769453 55.9913489434
7686 1 5.7696162734 33.1937465275 48.1008422336
7687 1 14.7077163905 10.6357309733 31.3207241958
7688 1 13.404069991 40.6905587883 35.0911415309
7689 1 58.2424392264 19.4691918639 44.8859818756
7690 1 5.463307765 8.9039768452 25.6143120756
7691 1 48.9275889149 40.8295646482 14.9496938732
7692 1 28.8665477508 4.999469 51.7938267743
7693 1 56.8834003911 10.3963773428 58.9174106336
7694 1 36.995067011 40.8479899216 11.5175785512
7695 1 54.307127356 21.3037310296 31.2294141384
7696 1 53.4244051607 17.6056154001 56.7446860703
7697 1 39.1954294844 10.1865857807 25.5392115942
7698 1 48.0175203486 31.3313945281 21.8059946528
7699 1 19.3986977008 30.1708355364 43.7134114715
7700 1 56.9728445979 11.8521488634 14.9281199772
7701 1 20.3661994768 3.8963245595 21.9456418988
7702 1 12.9873439503 42.2604970345 10.6416200639
7703 1 12.3779688487 7.7423624819 19.9941372317
7704 1 7.7557266359 55.5686171966 61.2635426748
7705 1 41.0164995421 56.3350152767 55.0568493976
7706 1 15.2144697163 8.5749224535 33.3428396415
7707 1 54.8839083823 35.0920744562 24.5301946453
7708 1 45.36084082 21.0265939272 29.7475207113
7709 1 59.1520996379 32.9243060582 30.6948479791
7710 1 5.9348781479 43.7029160626 9.0030593359
7711 1 36.2942069286 23.6696294243 50.4760115728
7712 1 60.3784881664 38.1455970565 37.3994317924
7713 1 21.4905493078 29.076630852 14.4863798786
7714 1 43.0806549312 32.1709689314 52.569145952
7715 1 41.3203999372 48.9693373191 8.2509699966
7716 1 61.2064010042 21.53906142 56.5368186665
7717 1 25.0546735505 6.3314471727 58.5942103476
7718 1 13.9606182012 15.4158649513 45.7850885703
7719 1 17.4212460507 6.0459953741 27.8002725156
7720 1 19.198585238 5.4367427189 60.2881693422
7721 1 3.9664583802 30.9446387106 21.2036164904
7722 1 58.5160195514 20.8551689153 15.0913818932
7723 1 58.4183539409 25.521719246 20.1167585922
7724 1 40.8086904461 31.9140063371 8.721747393
7725 1 49.4643124638 40.04969746 5.6788309865
7726 1 36.5035903359 31.7038066202 33.3350847005
7727 1 12.5632711234 21.7655873285 37.8129509025
7728 1 36.1364842562 20.8764512722 56.3063861335
7729 1 12.7978435121 33.772101865 22.5143764449
7730 1 61.5695421517 61.169025687 7.0283831384
7731 1 25.4305258044 18.2770300298 19.0314750054
7732 1 44.2193484877 31.2966430632 55.1578968621
7733 1 21.8887334595 56.0382284365 33.2617917618
7734 1 43.2241504939 19.6063318733 58.7920488052
7735 1 4.7086528812 12.1664280518 49.738534175
7736 1 11.9906299529 44.416603867 17.0906406707
7737 1 52.3376055704 12.2275346547 25.5312234219
7738 1 55.9484926905 52.6854700672 49.9946221518
7739 1 12.2102755378 33.6310552311 50.4806178912
7740 1 35.2762688822 5.1429062548 40.7744054438
7741 1 53.9948306338 28.6969302816 43.3955171979
7742 1 19.3526345174 53.9389134276 47.7259812129
7743 1 36.4108808908 49.9146821208 39.0433043633
7744 1 12.498316204 52.2765572754 38.4874558471
7745 1 44.4107147765 18.2787792647 32.9827888088
7746 1 57.1370394392 41.8584645662 20.5926087697
7747 1 44.7694245291 44.3733394593 14.5769319342
7748 1 48.8775607992 16.773096244 33.7039983229
7749 1 42.7048609852 14.9322015251 32.0256658261
7750 1 29.9965534411 8.7029139649 11.5882476377
7751 1 49.5507829715 59.5996122113 10.4139279988
7752 1 46.079718021 51.6653746311 41.9042945184
7753 1 7.4509749464 24.1860035416 35.8641283955
7754 1 45.8344752999 13.7344421397 24.7258757132
7755 1 47.124127821 17.5832835023 35.8911249195
7756 1 11.4168809337 48.394538759 34.4534288253
7757 1 57.8036145192 50.9483049728 23.3902766244
7758 1 30.8972344471 30.833853839 32.7353303904
7759 1 42.7310995074 37.2411843495 45.2709884583
7760 1 7.4422404339 24.9495445382 5.3242261049
7761 1 19.3466288112 35.1815769709 44.9711113033
7762 1 53.9966381764 25.555479478 46.937892621
7763 1 9.872423208 8.1408906497 35.1763292664
7764 1 19.3312938526 25.1313483432 41.838290058
7765 1 13.1750951538 4.0274075519 24.0049577383
7766 1 34.27780565 24.706051052 56.8406607538
7767 1 9.2286464884 50.1119958079 11.7893513336
7768 1 24.6822614585 40.4306808027 42.9921436496
7769 1 48.8029850882 53.8940164007 16.4198091193
7770 1 37.4601302404 15.3391901586 34.2661440845
7771 1 26.4189017825 25.4202636268 4.1914857775
7772 1 37.064919788 9.1838660771 16.5996304582
7773 1 50.6755409573 6.2935004388 47.5263935205
7774 1 23.5062508926 58.3461105431 47.7344358478
7775 1 51.9470014363 21.7911844647 27.4681511321
7776 1 42.4996174336 29.6488055599 9.0573322614
7777 1 28.502823525 26.4626326529 53.2947285532
7778 1 7.9483640352 59.4700522193 22.5065048882
7779 1 36.5809648226 8.5806016358 37.7376754977
7780 1 32.6164990386 19.0645938512 37.1505739861
7781 1 38.0289814022 58.310717692 9.4380298957
7782 1 16.8285469876 50.2062212566 38.4402265071
7783 1 52.3718322649 16.7944952166 51.8228640723
7784 1 39.392918095 60.8237267346 60.5767930866
7785 1 61.2665746818 29.6988336756 6.0198734675
7786 1 52.1333532519 61.1206884983 41.6469820771
7787 1 32.8201682789 47.0797555645 52.7009799492
7788 1 5.2447583672 16.8241739006 52.306702422
7789 1 37.9065349651 53.7195593818 12.527994888
7790 1 24.0135872967 18.054993824 47.3353187709
7791 1 17.1824171907 52.1227412273 8.1453045522
7792 1 17.4596126009 14.6692332246 56.6584487939
7793 1 59.8019986793 21.0128915878 43.0994300516
7794 1 42.5054482163 60.1012344483 48.9975583075
7795 1 31.2029423849 44.5285548952 38.2950983253
7796 1 37.3802485172 25.8225876342 9.9318388839
7797 1 28.2951310447 50.7492420509 22.8427078196
7798 1 35.2173779767 6.8305155269 57.9782464616
7799 1 53.7887124648 25.2848728521 55.7099553696
7800 1 4.8455479978 40.2006564246 9.1133136063
7801 1 31.9714978547 14.0142030943 52.0862405275
7802 1 35.7120615823 52.4300817843 6.3474643328
7803 1 49.4436131852 14.6421783928 6.1747565488
7804 1 18.6076937176 48.4575695202 37.2902795399
7805 1 42.6955317329 6.9456385008 58.7645275108
7806 1 33.6216093631 16.3998678424 36.5554259943
7807 1 32.3513733486 59.1516331752 40.9848966998
7808 1 4.4255100726 6.5105046791 39.8935490989
7809 1 28.004233295 10.3926456419 38.9674458802
7810 1 13.1889141088 5.2835622262 37.8952232467
7811 1 26.1563416368 36.7062683431 59.7872467991
7812 1 54.3034539629 33.7750755642 21.8770718941
7813 1 29.7016324513 31.9053184708 20.3842165954
7814 1 12.3686979042 47.5847596555 7.6994887366
7815 1 31.3979237589 13.6739186151 16.6193968116
7816 1 21.1136475131 52.5661722528 4.219916674
7817 1 52.5024417978 35.4478688175 35.8035465631
7818 1 7.2720165633 26.9030316714 17.8353482391
7819 1 46.8903134341 60.2928922762 34.6565149873
7820 1 32.0910289003 19.9568785302 18.5465288069
7821 1 5.6018646547 50.4242925301 59.9702167607
7822 1 26.700411972 43.4652533591 21.9768948941
7823 1 4.0304512205 18.3448420328 46.4671735324
7824 1 5.1709989659 42.9177428622 18.0045575535
7825 1 39.78725393 40.5174428495 48.2878937432
7826 1 45.7445063226 49.4667613926 51.6154631311
7827 1 6.462097521 15.068175378 26.1859037052
7828 1 12.1389067574 31.5544802748 35.7145688189
7829 1 34.4341289346 60.9822657166 39.6659736495
7830 1 29.7215737282 30.3222609636 17.9621677632
7831 1 29.8101433177 29.7305531336 45.0305269791
7832 1 13.3266371965 12.7686895985 4.6067716149
7833 1 43.0733664528 47.2105400208 24.3203447753
7834 1 37.7900942343 53.7859136891 23.8477015284
7835 1 47.5257521344 58.6091954592 13.6178264853
7836 1 42.5604908052 32.1215238939 57.3722532139
7837 1 20.1028813294 55.1229121658 21.0179060609
7838 1 4.343465129 44.7761299293 12.8696787551
7839 1 48.5978581523 40.611726606 37.9545806147
7840 1 20.7831587488 3.632611085 34.9465964274
7841 1 6.7382142365 24.0825071484 17.3344840039
7842 1 26.4727199069 7.1883215082 26.417035932
7843 1 48.8761614113 10.9792806909 56.0570035568
7844 1 6.3256280516 53.8280119403 19.466101549
7845 1 33.5005040061 21.8563726154 36.6785721252
7846 1 40.4408846724 26.5679365887 29.7278709735
7847 1 60.0210028781 6.2500552768 40.075702751
7848 1 30.7515814949 6.1951059805 39.6323300333
7849 1 5.9100390135 19.5530385193 56.3327412714
7850 1 38.6833701463 30.379810789 51.443455041
7851 1 32.6643114569 16.9317518417 41.3960251891
7852 1 11.6384506769 45.1990365996 57.0522598585
7853 1 30.0447157063 23.1432263607 27.7676201324
7854 1 41.755667867 26.4763933001 16.0764343252
7855 1 14.4272557419 49.0864777439 24.4895540897
7856 1 19.2350859378 45.3181594905 42.0753696832
7857 1 6.3305025859 48.5643894595 5.5336911431
7858 1 51.4183243675 9.5870063941 25.5036438196
7859 1 21.0453690475 29.0023466803 41.3655301955
7860 1 27.6967761224 8.8779307388 59.7018258323
7861 1 28.5225315706 30.2803376358 31.5716810838
7862 1 24.3118318326 31.1731470852 60.3864763387
7863 1 4.5538281078 33.3973574599 30.8123382508
7864 1 49.4426219521 37.1571044627 24.3509563846
7865 1 25.986607552 53.3239407746 50.9281304646
7866 1 38.0258910873 40.6285192602 30.554559347
7867 1 42.2906421811 60.1160446364 20.2627030836
7868 1 42.1382255209 53.5715741165 21.3136433603
7869 1 50.3010297835 7.921589081 31.4365818483
7870 1 45.9261935121 36.3628352412 57.4657206609
7871 1 36.4929783114 48.3535483565 48.4603682959
7872 1 32.1429228665 14.8838643364 45.1348396819
7873 1 37.6354035689 37.3008915645 31.9105661753
7874 1 12.605252759 3.5236594115 29.9557962699
7875 1 49.9866339795 38.7559050833 61.4826634893
7876 1 13.5622008182 14.72410089 9.7225720922
7877 1 47.6188114266 32.0038003909 7.0404995048
7878 1 27.1328228182 47.1462847953 46.54693864
7879 1 12.7127140844 32.6081610194 19.9844581324
7880 1 17.1563535919 53.8584486261 44.0343377522
7881 1 53.9023544199 59.8656125188 51.1294090839
7882 1 28.8618831246 51.6501562882 31.1070260092
7883 1 43.5708488341 37.1571627705 49.1339403152
7884 1 48.3212458203 48.77744626 52.8839499108
7885 1 51.4004238645 29.5127150913 38.2174906073
7886 1 49.7448314203 42.0365366704 9.4126659909
7887 1 24.29043286 54.3480594507 39.2076741281
7888 1 44.2392314568 38.7103666703 54.2576823186
7889 1 40.0975681861 54.0393195059 14.5044553051
7890 1 35.172772489 37.9125406713 23.5889896993
7891 1 13.370659606 45.1028286848 25.7635801131
7892 1 35.0818705864 22.9955909424 31.5548884296
7893 1 55.6471578397 32.9751504835 43.2403600698
7894 1 43.4353414438 8.0312719346 14.1713426885
7895 1 50.3849930546 22.3630676334 24.9359588144
7896 1 33.3498365808 23.6945851743 50.250593513
7897 1 23.4927234767 49.4034390923 52.023676229
7898 1 53.7618325565 7.9681653733 23.195411866
7899 1 20.1464372763 27.9221941822 59.048136782
7900 1 8.3721919692 52.8452335136 28.3880737212
7901 1 25.6427662952 56.0566537098 50.7513411326
7902 1 56.2071462117 31.9283500626 58.3236037218
7903 1 23.2360524216 49.8236636026 57.9887418705
7904 1 6.5261661615 57.3130707694 15.6244320491
7905 1 23.6053158909 35.7820892827 18.3131225748
7906 1 28.5595570408 57.9336992816 42.4355954394
7907 1 11.0117581506 37.2175113716 36.1672707889
7908 1 31.7607733673 23.4483512202 33.2226089019
7909 1 4.6161883289 12.857900574 17.8598375265
7910 1 52.5427325063 30.1457631708 14.578681169
7911 1 18.8795248078 11.2357185147 16.3475074136
7912 1 51.5141241275 35.274286416 26.6544070964
7913 1 49.2777274169 45.3748346985 21.1781359699
7914 1 23.5849081514 37.9068848121 29.9600527413
7915 1 43.9661175944 56.2824216166 3.4350606681
7916 1 38.1091546645 58.7859847912 34.0595011451
7917 1 31.6379770833 5.0964115934 51.6935956195
7918 1 42.2515759369 58.7908826486 24.8006263476
7919 1 60.4923633528 50.3653433169 12.235522827
7920 1 37.3425816609 20.4612995429 26.030455038
7921 1 9.9506723121 30.2025549944 26.7890398693
7922 1 48.017403733 14.4429988552 54.9485134548
7923 1 4.1536265053 11.6146610834 60.4374956875
7924 1 20.0715700262 52.9128705931 44.6877935711
7925 1 33.4943233765 39.3729185103 55.4659371129
7926 1 57.2847331654 21.4943976244 46.6568488941
7927 1 18.1029811658 39.1164223786 30.4226087341
7928 1 30.0483307916 49.6111315726 7.6866551838
7929 1 17.5373369345 19.7412561854 15.5703223855
7930 1 12.4042073709 19.3268624578 14.6187969541
7931 1 18.3281659943 9.6572673258 18.6133495769
7932 1 44.8136218621 56.1659808858 29.6415170815
7933 1 24.6549150876 9.5927205612 6.8313784827
7934 1 56.8249176404 32.4951604503 12.6752804594
7935 1 5.9314613092 51.2723215683 5.881474009
7936 1 61.1981796006 44.1349770619 59.1912824977
7937 1 21.2598835436 33.5800941902 9.183224691
7938 1 6.4433282315 14.0936183549 19.8270269991
7939 1 15.3375575395 42.2511677821 54.680588989
7940 1 43.9957379706 26.8402924493 7.4855806419
7941 1 52.1867632215 5.6694142724 23.3926672453
7942 1 12.7391858379 21.0884585318 58.1802830827
7943 1 49.988149983 28.9081795394 49.4222142126
7944 1 30.9964160611 50.7467931221 20.1776902716
7945 1 23.3050305811 18.1235638288 10.1202314734
7946 1 22.8382764247 48.9235656748 15.2077060084
7947 1 55.6267501002 55.1806952225 25.9095829123
7948 1 52.2595896977 48.2342505422 4.4416963254
7949 1 21.041170884 25.539269902 29.3194246443
7950 1 26.9651878151 12.4984328196 14.7683565308
7951 1 9.7843200812 48.0334383855 54.3577968578
7952 1 42.2488937769 47.6842328086 39.7335524212
7953 1 49.5693248605 59.3634655113 26.8793003857
7954 1 8.4235145187 21.4411042704 53.4347256462
7955 1 16.2590544398 28.830396898 50.4897139122
7956 1 58.3066361441 35.9099583477 61.5636530612
7957 1 53.0833626797 48.7944138377 11.3359496696
7958 1 12.4361600602 48.0383945508 59.229649048
7959 1 61.3186435715 30.6749067022 14.970684691
7960 1 7.4025328036 27.6326375125 11.4487753152
7961 1 14.4453894762 51.6025771013 25.8530826278
7962 1 38.3848923791 36.5914019236 49.7049488665
7963 1 41.1827351573 49.129625536 28.5206657201
7964 1 9.9011689668 50.4182285161 33.2532205112
7965 1 3.9763532184 7.1883564929 53.0661618707
7966 1 27.2317712009 34.9121948094 50.1590502244
7967 1 51.2276577727 61.308672933 22.8755934341
7968 1 26.1478870019 51.2057340297 32.1331271515
7969 1 28.9155846334 37.9886906936 47.5436526373
7970 1 59.8714433015 58.1255903408 44.6954318965
7971 1 11.4503496265 21.0242616141 53.1993952558
7972 1 26.99725712 8.662524133 8.3882965911
7973 1 24.8326956526 59.0087789987 38.3949213254
7974 1 6.0572779386 25.4365315106 40.9580167915
7975 1 28.918441717 6.7666393023 7.1122764401
7976 1 14.7695809951 31.2855062682 49.0940577614
7977 1 59.6523807949 28.1995062082 45.6751783162
7978 1 44.4055836877 13.5669237522 11.1900051783
7979 1 24.5402235915 51.2415350355 29.7238477335
7980 1 4.9507061641 9.0385221564 61.2199284201
7981 1 33.1975948441 29.6795337848 12.1194319431
7982 1 14.3660908312 60.6392407695 53.9145407558
7983 1 44.4329300586 59.7531367202 59.6694066804
7984 1 27.213520851 13.9575861942 4.5946202637
7985 1 29.9603442804 7.2119070243 59.5639861289
7986 1 49.2278742247 36.3138566664 27.6475060085
7987 1 31.5332562258 7.4250396249 19.2752017229
7988 1 34.8101561119 60.6995310627 49.1064190208
7989 1 18.1438549526 51.0361165605 46.022692966
7990 1 30.6514669557 23.7531262328 21.1253673864
7991 1 38.5655300276 41.8129261532 28.1623058144
7992 1 36.9600240069 12.6270598863 23.3130770612
7993 1 41.975255144 19.7250466094 27.469200673
7994 1 40.1162266908 37.9213451532 45.9203044215
7995 1 8.2853657838 54.8602354044 25.2438824497
7996 1 51.1238115325 25.3894187862 50.9249818419
7997 1 24.812987607 60.0550546492 20.6137745109
7998 1 54.5121376763 44.3981202858 48.9829813507
7999 1 33.1138648043 36.0745030359 8.8536630212
8000 1 9.5014105038 58.1143369301 29.3677035252
