# LAMMPS data file written by OVITO Basic 3.7.6
8000 atoms
1 atom types
2.4977263344 62.5022736656 xlo xhi
2.4977263344 62.5022736656 ylo yhi
2.4977263344 62.5022736656 zlo zhi

Masses

1 18.0153

Atoms  # atomic

2250 1 11.3816 9.98127 14.4325
5413 1 17.4381 8.88998 14.5707
6822 1 2.89138 15.025 6.55659
3727 1 6.31678 8.47097 16.3183
3457 1 14.0324 5.64896 7.59921
2023 1 3.87583 12.2115 6.05497
6911 1 13.074 8.59053 16.0132
3656 1 8.70097 6.9145 15.9392
1749 1 14.1151 6.93311 13.1375
2812 1 12.2204 9.68703 10.1015
3076 1 16.3432 4.60353 16.0716
2738 1 11.8774 14.8176 9.36347
7826 1 3.49443 12.6887 3.18482
2450 1 11.1803 5.21235 5.83491
4922 1 5.66932 3.7887 8.11225
7097 1 3.97667 4.6437 10.2608
4365 1 16.5914 13.1575 10.4593
7858 1 13.4859 15.4771 14.6708
1739 1 8.46328 6.39763 9.2281
5148 1 15.5343 7.17986 15.6595
6959 1 12.19 7.76534 7.10645
354 1 4.71806 9.67592 5.28341
2190 1 6.67883 12.6695 5.96482
5902 1 14.4695 9.04898 8.50016
3344 1 9.9366 2.85323 5.08828
506 1 5.38531 15.7862 11.3936
221 1 16.2173 3.31136 13.4856
6713 1 2.88742 6.64544 7.28396
3423 1 8.13619 3.66097 3.17033
5372 1 5.61181 15.0866 15.4282
7507 1 3.73755 4.13899 12.8722
334 1 11.1344 3.21454 12.8946
837 1 7.79864 10.1105 12.4387
298 1 14.4591 15.9926 10.121
7473 1 4.17064 16.2878 8.78797
716 1 9.63795 8.06157 13.5874
1990 1 3.95004 2.91556 16.9542
2256 1 5.19883 8.12946 7.58285
2693 1 2.94689 6.94167 13.5925
489 1 9.79062 8.64575 8.75991
6131 1 14.2887 13.9113 12.162
2054 1 4.69089 10.8502 16.2214
4551 1 7.91473 6.27966 12.1444
412 1 16.8183 17.327 14.2112
1351 1 11.8029 7.90251 2.88177
109 1 11.3785 6.37371 16.6121
3872 1 7.28875 10.1911 4.54349
7525 1 11.7427 7.56487 11.8325
1321 1 11.3568 13.7231 12.0527
4172 1 5.66979 6.87894 13.9855
4651 1 10.1617 4.19595 8.53613
4509 1 3.09004 8.41854 3.45088
1562 1 7.60497 2.65864 9.87564
1725 1 8.97896 16.3972 13.8371
7345 1 5.95295 17.4159 5.06532
800 1 16.1914 14.2472 14.4554
1179 1 6.56219 11.7332 14.2454
1570 1 12.7967 11.1991 12.448
1815 1 5.46765 10.2716 9.41775
316 1 3.29868 4.26371 6.19074
7978 1 13.4892 11.13 6.59222
2791 1 15.0112 9.72765 12.8245
7920 1 15.9885 10.4863 10.3603
2260 1 15.9458 5.57037 11.591
7119 1 8.93745 14.4217 9.16853
1955 1 8.40548 3.49254 12.3566
5304 1 5.72215 6.7613 10.1923
1806 1 11.6915 12.09 8.56457
3821 1 16.0413 11.4206 14.8998
4974 1 12.5508 4.80813 14.6368
7442 1 10.0047 13.9451 5.39179
1958 1 6.16744 5.38489 4.17596
6825 1 14.6439 13.5441 3.27536
5897 1 14.406 13.6858 6.05517
48 1 9.35725 9.63859 6.22078
4401 1 6.14897 14.3176 8.25504
4228 1 10.6097 12.1882 15.7871
5858 1 17.2989 12.1892 3.568
7660 1 15.9148 14.9581 8.14305
2985 1 2.7753 10.5412 8.20613
1797 1 12.1951 15.1052 6.53484
5439 1 10.0102 16.4083 11.1038
1098 1 11.1873 12.1603 3.30106
6933 1 4.84135 13.0312 10.449
706 1 7.40029 7.81101 3.19218
6203 1 8.13669 10.8624 9.46168
6331 1 4.35654 15.3161 4.02077
4752 1 6.83562 5.94156 6.87656
12 1 12.3864 5.14789 3.34965
787 1 8.45641 16.201 4.50844
6199 1 8.66257 16.5433 7.32591
990 1 16.0579 3.11801 4.65607
3346 1 9.0859 7.03593 5.44314
2688 1 11.7954 9.87569 4.93706
4358 1 8.75338 12.7464 11.5843
6884 1 4.12145 11.896 12.7987
5140 1 5.36397 8.80616 11.9518
2611 1 5.77892 4.109 15.141
7737 1 14.6857 5.57284 5.05038
125 1 8.07738 12.0633 16.4798
6280 1 7.72453 4.7336 17.0545
1178 1 7.16541 14.3664 13.2591
899 1 11.7079 4.90328 10.8294
6947 1 12.6539 3.13765 7.7917
4562 1 16.159 6.73597 9.0332
7725 1 9.09725 12.3121 7.32924
6058 1 3.49895 5.52413 3.8155
5447 1 15.7867 10.4618 5.50231
3749 1 10.8391 14.739 14.8349
195 1 14.212 4.10301 9.95093
5533 1 3.30529 13.9991 14.2621
554 1 6.81972 14.104 3.68338
5435 1 15.6275 8.03362 4.16846
4498 1 13.6051 14.567 17.3191
6556 1 15.1404 11.2466 17.4847
4609 1 12.9774 17.4781 5.24907
1131 1 14.0058 3.03074 16.4059
4108 1 2.61578 9.54268 12.4887
1373 1 8.32884 11.9382 2.57434
4117 1 16.3105 17.4729 11.5378
2913 1 14.1166 2.91396 2.55609
4381 1 15.2163 2.75695 22.2434
7985 1 7.36993 3.57455 29.645
5882 1 9.8565 14.5652 29.7719
767 1 5.21927 14.8095 27.8492
4344 1 12.2622 9.4086 18.5577
724 1 12.3443 3.31938 22.1141
3056 1 11.3318 7.59232 23.8565
33 1 12.5476 12.102 18.0181
7653 1 17.1799 3.3783 24.077
7938 1 4.70186 16.3119 32.0945
1104 1 10.1494 7.52723 21.2552
5198 1 4.10307 4.05555 27.8255
2843 1 12.0505 4.31477 18.354
2293 1 13.9654 15.9021 28.5265
7299 1 14.0227 3.59473 28.0599
2922 1 12.0242 12.124 26.9499
2358 1 12.5048 5.80272 20.7707
535 1 4.54076 2.98014 19.8628
1261 1 10.0074 10.3643 27.6073
1051 1 17.3998 11.4426 23.1537
6836 1 12.2536 16.5473 22.7459
643 1 13.9458 14.5622 23.9251
5638 1 15.7529 8.68038 18.0599
5166 1 6.08994 7.03743 28.0064
235 1 7.63696 11.2834 28.818
691 1 11.3461 3.90715 26.9506
7263 1 4.90158 10.6107 29.0771
4433 1 15.4761 9.48881 28.6375
6973 1 8.0054 12.7995 31.1451
7262 1 3.06902 14.8906 21.7861
7945 1 15.1223 10.5746 21.3343
3706 1 10.1194 11.169 32.1838
5466 1 14.2155 6.00702 25.3558
319 1 5.56319 14.1701 30.5437
2326 1 3.80758 12.046 18.5775
4418 1 14.1708 8.08744 20.2567
546 1 10.0658 7.18266 30.6018
2651 1 2.72872 16.0597 27.1609
6873 1 5.61994 3.32903 24.1485
4301 1 14.1147 10.2371 26.229
4816 1 4.2964 8.81551 27.0196
2270 1 8.44472 12.0027 20.0164
1677 1 15.3618 5.49128 21.2277
171 1 4.70449 12.898 25.6216
2910 1 3.48694 9.41637 22.81
5319 1 10.7515 13.6631 19.7915
5142 1 2.91546 12.0841 27.7006
5620 1 13.635 9.29302 23.5691
5753 1 3.24828 7.34108 24.8512
291 1 5.65725 6.21695 23.7959
1944 1 12.407 17.0225 18.058
4916 1 15.7225 7.32855 23.3925
2474 1 4.37475 14.5773 17.96
5010 1 7.94617 9.94387 18.1768
5051 1 11.3947 3.76443 31.7233
1721 1 6.12797 5.16187 19.2769
1609 1 16.2458 4.52981 26.5973
7064 1 16.6255 12.3805 19.4934
5060 1 8.61982 2.61433 20.9938
418 1 5.27482 10.2854 24.7388
3138 1 9.90666 4.55856 29.3708
6494 1 8.49612 12.9008 24.1733
5077 1 14.5551 3.35202 19.1948
3030 1 14.4768 6.00075 29.5304
4072 1 8.04381 9.82268 24.1342
4467 1 17.2567 3.65429 18.5059
6162 1 8.74242 15.3998 27.4085
7080 1 12.1386 11.6351 22.9096
2211 1 14.1082 12.925 31.5661
5515 1 13.6867 10.3062 30.324
2344 1 16.2448 15.0272 18.4532
3970 1 7.22093 15.3717 20.5196
45 1 8.17206 5.36456 21.1843
2088 1 9.77583 10.4051 22.0237
5392 1 8.62088 15.6419 23.8495
3596 1 7.53568 6.2226 25.9035
527 1 6.29381 4.89496 31.9201
3510 1 5.99823 8.99955 19.996
548 1 12.5277 6.35986 31.6987
7617 1 13.4481 7.67561 27.4616
6028 1 4.80381 11.3231 21.0224
240 1 8.87969 4.64289 23.9627
5481 1 3.90624 4.31989 22.2672
4513 1 11.4304 13.6139 24.7508
2245 1 7.33651 7.83565 22.16
2721 1 7.67423 8.54664 29.7858
7647 1 9.77438 16.0357 21.3639
5483 1 5.20598 14.624 23.4896
2319 1 16.235 3.33301 31.5185
6184 1 4.4174 5.92761 29.9701
7947 1 9.54144 8.21386 25.7817
3119 1 7.37131 14.3907 17.6775
1625 1 6.85407 3.44784 26.84
5532 1 3.88147 16.6429 19.6927
4658 1 12.483 13.6571 29.3042
901 1 9.9024 8.0049 18.4887
7134 1 6.22075 17.1822 24.088
4379 1 10.9842 9.76389 29.9838
345 1 13.3174 12.7538 20.7626
5492 1 4.32508 8.58981 30.9484
4349 1 16.3587 13.1377 29.6301
972 1 15.7679 12.5088 25.2728
4151 1 11.7582 4.94478 24.4233
984 1 16.2758 14.7367 27.222
3337 1 6.78807 12.9495 21.999
7937 1 7.33376 13.1603 26.6819
3923 1 10.8895 6.78479 27.7668
3154 1 16.058 16.3845 24.9602
2241 1 9.6103 16.5947 31.7307
6406 1 4.63253 7.29466 18.4813
3380 1 15.0737 14.9629 21.2848
5311 1 10.7825 16.4022 25.4604
7598 1 3.45004 12.4412 30.738
6263 1 17.013 7.39252 30.0583
2593 1 6.78368 17.1851 28.1735
932 1 2.78324 4.17501 31.3572
5806 1 7.08712 17.4798 31.0154
3009 1 13.5334 2.50612 30.5828
1282 1 4.68167 2.50596 32.4712
1314 1 14.7373 15.7179 32.3938
5314 1 9.62863 2.84346 17.5362
7224 1 10.0714 15.5918 17.5855
4086 1 11.3284 9.62098 34.2316
2335 1 11.3159 2.69079 47.0798
6878 1 9.6154 4.93492 35.7694
4298 1 14.6035 14.7603 37.1738
5613 1 13.4559 4.07292 43.4326
1868 1 7.69708 10.1286 45.4478
6746 1 11.8543 13.047 33.3434
2062 1 8.58091 3.34797 37.947
1299 1 3.55579 10.1712 34.7511
3519 1 5.99881 13.506 36.7718
2895 1 10.5775 8.06266 46.446
5418 1 15.6681 8.91303 39.0621
563 1 4.98317 5.55657 34.3285
6728 1 3.87334 16.7509 45.7733
4900 1 6.56834 8.59836 32.6317
2357 1 13.2595 6.13883 41.4963
7734 1 9.02317 3.6726 33.3442
6471 1 13.6766 4.49183 47.2378
4420 1 3.44761 8.27746 39.8494
3715 1 6.46605 15.8531 46.5105
3184 1 17.1295 9.73967 41.4653
6071 1 12.8312 3.51364 34.2692
2636 1 17.3709 6.15854 46.9281
7980 1 2.88381 15.1536 35.3916
2587 1 2.89419 3.15655 43.6738
6982 1 14.8339 6.06913 35.7468
3521 1 4.19917 7.20159 37.4023
7023 1 15.8571 4.20341 45.2646
6397 1 7.24895 3.87934 44.0771
2082 1 14.5496 13.0286 39.7108
2606 1 6.86166 8.86402 39.3531
1271 1 4.96144 2.89307 45.4777
6431 1 4.38913 12.4333 46.8778
7802 1 14.0272 8.72377 36.5505
5382 1 8.25988 11.6532 41.8034
358 1 15.6645 2.88702 41.7585
514 1 10.0857 5.15558 46.4636
3381 1 7.43323 9.02214 36.4885
7864 1 13.6404 7.85867 43.6238
4716 1 6.86615 6.1686 42.56
3218 1 4.40834 14.0215 39.2953
4288 1 13.3588 10.6329 43.0571
6194 1 2.63572 12.2581 41.0288
5598 1 5.48049 15.5438 41.5023
2912 1 4.7957 12.3318 33.4628
1218 1 6.42462 17.3299 39.2695
3978 1 3.7646 8.07337 46.6575
2068 1 7.8493 15.0802 38.1737
6025 1 5.55776 15.0258 34.4032
6191 1 9.76393 13.6763 35.2342
5761 1 11.1521 9.85655 39.0261
2615 1 11.9332 15.8093 33.0275
6840 1 10.7967 16.7342 44.9958
1578 1 11.2091 16.7806 38.8755
5847 1 14.7585 16.9051 35.0889
7116 1 13.0425 11.3903 35.4955
5412 1 9.5902 6.90537 42.1355
4394 1 17.2328 12.2415 40.0109
5655 1 9.22642 9.2633 40.7752
626 1 9.5749 7.6507 35.2901
7755 1 3.08978 14.2692 45.0005
5629 1 13.6379 8.91361 32.654
346 1 5.38428 8.4013 41.8357
1954 1 5.13305 10.9783 44.6329
2180 1 4.21385 3.01587 38.7129
7601 1 6.12435 6.01751 38.9705
1009 1 11.9135 14.14 39.9872
5162 1 5.3538 8.10692 35.0755
3137 1 5.31058 11.1984 41.6967
5953 1 4.99605 11.2401 38.6465
2599 1 5.48504 13.6063 43.576
3874 1 8.30019 15.6345 42.1589
7697 1 8.16047 2.5113 41.5546
1469 1 16.7565 14.9607 46.4223
3471 1 12.147 3.58967 39.0776
4915 1 10.9452 6.048 39.8043
502 1 9.72305 16.2419 36.4548
5000 1 5.85998 4.07792 36.8681
7361 1 7.93068 11.7717 36.1298
1862 1 11.4869 7.5915 37.3479
6880 1 16.6334 13.4586 35.746
6394 1 9.42884 12.1183 44.3624
6078 1 9.95912 14.1767 46.5306
4078 1 16.7586 5.36529 42.8713
1860 1 8.42049 4.90055 40.2257
4187 1 10.7892 4.96728 43.6863
4182 1 11.5993 10.6607 45.5813
5767 1 9.10899 13.7908 40.2336
85 1 16.3198 8.02433 43.5498
5212 1 12.7342 13.4328 46.2477
4383 1 13.3066 7.27072 46.3539
4601 1 12.2539 5.01173 36.615
2136 1 4.84841 4.70096 41.0931
5992 1 13.6747 10.5135 40.1672
7732 1 8.48487 7.56236 44.6242
5778 1 7.22025 5.66523 46.6135
2002 1 14.751 4.47689 38.2936
3025 1 12.8386 14.9691 43.8189
3375 1 15.8991 16.8272 38.6837
1556 1 15.8993 6.31018 40.2005
3673 1 9.98225 12.0418 38.1652
6387 1 3.51441 8.71874 43.8952
2801 1 11.9928 13.5412 37.0422
5378 1 14.2408 9.88816 46.863
5567 1 16.0523 9.04036 34.3559
2354 1 15.3618 12.5032 46.2186
3979 1 15.7422 12.0762 43.5516
258 1 15.1527 14.4147 42.0946
87 1 11.7047 12.8388 42.541
5472 1 4.24905 16.4418 37.5586
2349 1 14.7444 5.04643 33.094
4328 1 7.79413 14.4292 44.6607
2568 1 15.3361 11.803 33.9227
6326 1 4.25576 5.28982 46.167
6042 1 16.8803 6.83174 32.8434
5819 1 3.51052 17.1074 42.7862
189 1 13.7592 16.3323 40.3753
3496 1 7.3282 11.1526 33.3274
4838 1 8.13799 14.6336 33.1997
5156 1 8.39868 6.5456 32.8731
4343 1 16.9099 2.81148 39.3034
5005 1 16.9133 8.96329 46.2033
4745 1 17.3402 14.9281 33.5569
2873 1 2.68868 5.89765 43.9271
5698 1 14.4536 17.3452 43.1044
7481 1 17.0142 17.4824 44.8888
4650 1 16.7288 3.75852 54.936
4975 1 6.73197 5.37361 54.6292
6643 1 15.1535 3.79236 59.1882
4638 1 8.4017 5.02471 60.7032
6048 1 14.2826 8.42303 58.7502
3325 1 4.29924 8.49461 56.7474
1322 1 7.92308 8.01325 54.5428
1583 1 13.9889 4.14702 54.9092
3817 1 13.233 11.6757 56.1578
6984 1 5.16388 11.9491 58.9201
3830 1 10.9185 15.1774 54.2842
3120 1 3.8262 10.2396 48.3869
7179 1 3.58117 16.9122 55.2085
1082 1 8.86714 12.6229 48.6202
1679 1 14.333 5.59634 61.33
179 1 3.49749 14.3243 58.7259
3921 1 15.7425 12.2408 60.1686
1432 1 3.22587 5.24836 61.0593
3369 1 12.0767 2.79317 53.2339
3637 1 13.5036 11.2167 61.7301
6192 1 9.54739 13.5558 51.2485
3769 1 9.73553 16.369 62.0298
2275 1 5.83172 5.94173 60.0022
5475 1 10.8947 13.2029 56.2062
5736 1 8.17402 2.76755 55.3596
1567 1 7.11855 12.0925 54.2735
3438 1 17.4901 16.6792 59.2258
2489 1 12.0375 9.29699 50.7003
6602 1 6.88234 4.87543 51.7551
3638 1 10.5356 7.26486 58.5317
3072 1 4.35464 13.3462 50.6799
3179 1 15.9507 11.3988 52.7052
1233 1 9.50765 7.56921 61.2116
4080 1 14.8446 14.1331 55.8166
7186 1 10.2798 9.59326 55.3265
1277 1 10.1709 4.63964 54.8224
2630 1 11.1447 10.6945 52.8071
7456 1 8.37669 10.9376 51.9576
1561 1 15.2416 10.8609 57.8701
3972 1 8.54021 11.6125 56.5502
2271 1 10.966 4.07051 61.0797
719 1 6.31312 16.992 61.2735
983 1 12.6533 15.2899 48.4939
665 1 16.8267 5.97029 50.8165
713 1 8.43707 8.11285 51.7273
6081 1 13.7222 6.51229 56.6663
1525 1 12.1307 13.3375 52.3467
3324 1 8.22768 3.80243 58.1254
3615 1 8.00875 16.7923 55.6855
5076 1 15.1282 6.82484 48.6639
490 1 6.54711 7.73518 58.1449
2463 1 3.63352 9.57907 59.3877
3447 1 5.36852 3.33196 58.6456
525 1 14.7006 14.1483 52.8933
219 1 14.2862 8.56095 61.6694
328 1 9.45214 16.3359 50.4738
5248 1 12.028 6.88797 52.2191
521 1 7.41656 10.1972 58.6192
261 1 8.20211 14.748 53.6297
2645 1 4.74795 13.5908 54.7099
4284 1 6.67182 15.9458 50.2354
2041 1 12.481 5.29839 58.9381
7432 1 9.11916 10.171 60.6737
2311 1 11.1957 11.0845 48.4222
545 1 7.4765 10.214 48.254
7358 1 15.2872 15.098 59.7122
7816 1 7.34296 13.745 58.1217
5693 1 4.34824 3.3283 51.615
327 1 3.75564 17.1914 62.1378
5328 1 10.9806 3.51485 57.4112
27 1 5.77777 7.42598 50.8421
5406 1 15.1033 16.659 54.4783
5654 1 7.8116 4.22848 49.044
380 1 13.0969 12.7325 49.6655
4884 1 3.1291 4.14184 56.9908
911 1 9.67694 8.55415 49.1917
6338 1 5.76984 10.8441 50.3503
4595 1 7.04091 17.2285 58.4956
7425 1 6.16475 7.61424 48.1205
7145 1 4.11579 11.4299 56.36
1342 1 11.9782 9.60004 57.718
5982 1 17.0504 6.0702 61.2914
4521 1 5.22437 8.47131 61.5569
5058 1 15.179 7.91961 54.6628
5181 1 9.43974 15.6853 58.9869
3878 1 14.6186 9.41616 49.5708
172 1 3.42562 5.94536 50.9371
5249 1 10.3177 5.81763 49.1923
1771 1 4.23063 5.93881 55.3472
3335 1 5.47143 15.4868 56.7407
7374 1 5.67001 11.3278 61.7221
662 1 14.1003 15.9627 62.111
6811 1 13.7831 10.2518 53.7777
2379 1 6.31974 13.8942 48.3765
1588 1 15.7182 12.1604 50.0782
6749 1 10.7385 16.7812 56.7207
2182 1 16.7545 9.76869 61.0628
2461 1 9.59047 5.53569 52.0034
5731 1 16.98 14.553 50.9996
5704 1 8.52763 6.27415 56.769
7436 1 5.70528 9.66771 54.6802
386 1 5.54701 15.1326 52.4845
4944 1 11.5089 7.12009 54.9452
6438 1 13.1688 5.41935 50.1283
5590 1 13.2443 15.8789 51.1495
4392 1 11.6109 14.4645 61.6249
4602 1 14.7361 5.77054 52.7279
3778 1 11.598 13.8991 58.7957
1424 1 11.5469 11.3274 59.8406
2937 1 13.4001 15.6805 57.742
6627 1 4.38186 9.27982 52.1874
7794 1 16.7653 8.97706 51.2677
4168 1 7.62466 14.4525 60.9189
560 1 16.4379 5.49922 57.2129
1722 1 17.0664 7.67393 59.0808
4905 1 13.8701 2.84316 51.0333
2957 1 2.68142 16.8272 59.6677
2325 1 16.3762 2.65955 52.3474
7540 1 14.9647 16.8288 47.7425
253 1 17.2911 17.104 52.3821
5388 1 10.3457 16.7376 47.8984
4104 1 11.2796 17.418 52.4013
605 1 9.56309 2.5707 51.9493
1563 1 17.4057 11.3129 47.9727
6297 1 7.07371 26.7248 13.6486
2476 1 4.87489 28.1174 15.9978
4432 1 9.92272 22.7975 8.06401
2980 1 10.3894 18.8839 14.6238
7577 1 12.8587 30.5318 4.57059
5496 1 14.1022 32.4321 17.402
5189 1 7.29227 19.9443 11.9278
5320 1 17.1353 19.559 9.97247
3232 1 13.3858 29.1532 10.4951
5746 1 16.4946 21.1929 5.53471
3224 1 12.1471 31.8195 14.2066
1808 1 9.32718 30.9217 8.53065
6590 1 14.0904 21.6969 2.7811
3960 1 14.0876 29.4078 17.4287
3081 1 13.9856 26.5718 13.9234
1755 1 10.2519 31.1689 12.3922
687 1 6.28878 17.9426 7.87617
4973 1 8.36487 26.7221 8.25049
1118 1 9.03808 18.1542 17.0328
6962 1 9.3494 20.5474 9.70193
6374 1 10.4983 25.8815 10.9299
7917 1 5.2047 26.1993 6.11604
7012 1 11.4599 18.2992 3.18964
3205 1 7.35843 24.0705 8.12264
6805 1 15.6295 30.2159 12.3001
4320 1 4.15966 21.5093 16.7574
103 1 11.3129 19.3624 6.50481
6778 1 15.0624 26.7713 10.8885
5574 1 4.1137 27.727 4.19519
812 1 12.82 27.7479 8.2865
4317 1 8.33216 24.827 12.1474
6804 1 6.61842 28.9714 3.22312
2939 1 11.577 30.0328 7.15984
4250 1 15.2111 27.7822 7.04996
6401 1 5.18223 22.3733 8.90072
2469 1 16.7269 27.5043 13.1133
3007 1 7.49295 32.0586 6.71831
67 1 16.7988 29.0254 3.53676
1035 1 10.9118 28.648 11.6425
903 1 17.1396 26.7676 8.88822
6676 1 4.40028 26.2122 8.89128
1032 1 3.61831 18.9949 8.47865
6580 1 3.45626 20.0147 11.048
1993 1 12.7701 21.8325 6.79221
2497 1 4.72669 28.3341 13.0086
2811 1 10.538 18.2464 8.86514
3678 1 10.524 31.4764 3.27699
1416 1 11.1806 26.0156 16.2551
1305 1 11.2522 21.1481 2.82877
3547 1 2.54134 30.085 13.6758
3249 1 5.8999 24.5497 10.7402
1539 1 13.5336 25.339 4.08023
657 1 15.5739 18.7415 6.48045
445 1 14.3275 27.9972 4.22867
3935 1 16.1107 25.0561 6.84364
6915 1 16.9431 32.012 13.8402
1726 1 7.17011 20.518 7.94468
7372 1 9.08497 19.0551 4.60786
5200 1 8.71978 22.8933 14.1255
7002 1 4.90166 23.0013 14.3314
5839 1 5.82613 29.8433 7.05138
4561 1 13.0198 18.6233 10.3041
7413 1 15.894 23.957 11.3726
7555 1 10.8316 23.3705 15.6473
2395 1 13.6252 31.5305 8.77739
2352 1 6.39567 29.827 11.373
5715 1 3.55639 30.276 5.4563
4882 1 3.60702 23.9702 5.77205
1117 1 15.1783 31.8245 4.93791
7090 1 2.77947 19.4023 3.60487
638 1 16.5411 28.8209 15.7629
2251 1 12.8912 22.7617 14.0221
501 1 14.4783 19.3779 12.7503
4793 1 6.90929 21.475 15.7124
5201 1 5.19189 17.7203 15.1923
3214 1 7.12348 24.2978 5.23469
7701 1 5.83326 25.4597 15.7472
7018 1 8.71241 28.734 9.89854
4748 1 14.6244 23.088 5.14008
1483 1 9.86042 20.9178 12.6068
6455 1 8.7056 28.4051 14.8365
7073 1 7.48165 27.9689 5.81085
1619 1 7.80723 21.4538 5.48127
7521 1 16.0628 21.6326 15.9657
318 1 6.00397 30.4392 16.9589
679 1 13.9246 29.4876 14.4754
1798 1 11.0896 25.3793 5.40317
4046 1 13.0005 24.8178 11.7452
7108 1 9.07682 25.1941 3.22428
5936 1 5.46381 19.9714 4.36673
4495 1 12.6614 23.2312 9.38888
1044 1 5.4268 21.7675 11.8656
4819 1 2.80882 23.7718 8.6746
1471 1 17.3682 29.5914 10.0319
116 1 16.1258 30.3944 7.42467
3839 1 10.5023 22.6674 5.12847
2278 1 11.2706 29.6038 17.0106
5243 1 10.4931 28.7537 2.58255
2117 1 7.52543 18.9598 14.6071
4588 1 12.4417 21.2631 11.4885
5017 1 10.2633 28.1425 5.16266
5039 1 2.81927 25.3587 16.0699
3374 1 4.53269 28.9644 9.33288
2159 1 14.6559 20.2524 8.61649
5690 1 11.413 28.1778 14.5348
7506 1 7.87916 30.5417 13.5005
2200 1 15.4302 23.8863 14.2305
6740 1 11.0174 25.5071 8.2188
2203 1 13.6421 20.2901 15.2865
484 1 3.85418 21.1148 6.56344
3610 1 7.9086 31.3257 3.89632
4031 1 5.01904 23.7647 3.27032
6307 1 3.67278 26.0304 11.91
63 1 15.5126 23.0708 8.74906
1238 1 3.91999 31.771 15.6042
4966 1 17.1237 20.1891 13.8204
7634 1 2.81623 22.2203 2.73357
6584 1 13.8508 26.5904 16.7241
2865 1 2.66727 32.0557 11.6476
3652 1 11.5061 19.6482 17.2234
4005 1 17.3801 23.6681 3.06935
2871 1 14.9251 24.101 17.1947
1259 1 7.44488 32.3025 15.4995
2703 1 14.4991 17.7225 16.0831
7440 1 5.51442 32.4974 11.3075
7699 1 15.4789 17.5933 3.79331
768 1 12.1245 17.5529 12.8944
529 1 7.37125 17.5337 10.4277
3620 1 3.84555 17.6605 12.6639
3397 1 9.34388 25.5955 27.1568
2964 1 7.478 22.0679 18.6211
7730 1 16.1302 25.943 22.5639
4519 1 16.07 23.6219 21.2092
3315 1 7.4357 19.2285 19.1862
3211 1 7.94303 19.5486 27.1404
1250 1 14.0329 27.2476 21.3175
5155 1 4.70462 27.187 25.9155
7301 1 17.1306 18.2577 28.6092
1046 1 6.01685 17.743 21.1412
7581 1 14.4621 32.1701 21.7945
1638 1 3.22121 23.7131 28.5478
5211 1 13.7129 23.0538 22.846
2487 1 10.2641 21.7157 24.9804
1063 1 4.29218 23.253 23.3004
7995 1 5.17918 30.2454 19.5948
7953 1 3.23282 19.8703 28.0148
5452 1 4.14215 30.7591 24.9278
559 1 13.0233 21.885 29.52
718 1 10.5318 22.1664 18.0095
6826 1 17.1582 20.2735 18.3425
3998 1 11.3944 24.7113 31.6035
3033 1 13.8611 23.2935 31.7671
4773 1 2.89753 31.8585 19.2138
5755 1 9.50805 18.6809 20.9328
2542 1 14.6672 29.9374 25.9595
6298 1 5.61884 23.3277 27.2162
5794 1 9.70021 19.0922 25.1117
1858 1 7.00086 25.5829 22.1832
739 1 5.09222 30.7973 32.1069
6716 1 9.54769 31.9525 30.8589
3113 1 9.54499 25.3995 20.8958
7353 1 13.2509 26.6665 29.2447
6812 1 14.9059 17.7564 30.4162
2594 1 7.63542 24.192 28.9684
2745 1 12.3308 24.9508 21.2739
5713 1 17.1128 24.8133 18.8716
1148 1 7.75378 22.1822 22.9426
6505 1 16.866 21.4623 24.7865
2872 1 6.43585 30.1564 28.6611
3611 1 5.56031 20.6939 26.4485
2431 1 17.0582 30.0756 24.1214
3334 1 15.2283 25.8137 25.176
6352 1 12.2455 28.8548 19.801
5324 1 3.51098 22.7033 31.0999
7544 1 12.5771 26.3001 25.5721
517 1 14.8725 21.1511 20.0671
3865 1 9.19137 28.317 26.5713
857 1 11.6539 30.345 23.8479
6783 1 5.64164 22.4165 20.8275
7404 1 13.0315 23.2878 19.0909
4286 1 9.73428 28.2328 20.6146
476 1 3.61904 19.3488 22.1068
2142 1 10.5419 18.2789 29.6843
5783 1 7.8844 28.4034 30.5075
4539 1 7.80937 19.2584 23.0475
5751 1 16.9723 32.2006 27.647
7903 1 4.41174 28.4609 21.7145
2328 1 12.3968 22.2875 26.5516
3977 1 9.19811 20.6716 29.3699
1002 1 4.82686 18.8651 17.8976
2338 1 10.3547 23.1766 29.5522
2946 1 6.86979 28.4826 22.9322
2917 1 14.7936 20.2869 22.8302
2764 1 6.61744 29.3188 25.8838
3488 1 4.30767 27.1965 28.5451
7006 1 16.0762 19.0118 26.0004
2397 1 6.57032 31.2609 22.2224
2921 1 3.72925 23.7892 18.1938
765 1 3.62454 20.6781 19.6437
7446 1 15.5024 22.8445 28.3361
5865 1 3.42961 25.844 22.2899
1686 1 12.1689 19.9219 20.11
976 1 7.49557 20.4181 31.5264
2975 1 3.86256 29.7749 29.4755
7958 1 11.8263 24.6953 27.7288
6072 1 14.8589 26.7197 31.6145
7014 1 8.72442 24.0696 25.0506
4403 1 15.8459 31.0695 19.1929
7811 1 13.5282 31.0348 30.4773
4014 1 11.8121 31.3067 21.1345
3793 1 13.2312 19.6634 26.2654
7629 1 4.87457 20.2417 30.5126
7344 1 15.3303 27.4238 27.5086
3846 1 5.36077 25.1376 20.0903
3507 1 14.6053 23.2263 25.5302
1777 1 5.46928 20.6296 23.782
3244 1 9.54408 22.6717 20.7451
4848 1 12.3999 19.1311 23.7426
1066 1 9.59241 28.2286 23.6242
2744 1 15.8072 27.4332 18.9677
7256 1 9.38489 30.0577 28.7663
3476 1 7.05396 24.8035 17.9578
4978 1 10.5532 25.7198 23.6128
6558 1 6.29565 26.2285 30.0939
7946 1 10.7325 27.4206 30.8162
5796 1 9.25635 26.4016 18.1558
4525 1 7.37549 23.2852 31.6652
4982 1 7.34931 31.76 24.9115
7397 1 16.3908 31.1909 30.253
2261 1 12.7492 19.3915 30.7579
910 1 16.1284 24.3127 30.6502
7490 1 14.2838 29.5636 23.0952
5282 1 12.112 29.1999 29.1078
735 1 11.9526 28.9416 26.2919
2709 1 5.94461 24.8969 24.8317
7639 1 11.4408 21.5119 22.3139
1885 1 8.15504 30.4988 19.8662
5363 1 4.14816 27.5419 18.8697
7800 1 16.3481 19.4808 32.1268
6009 1 2.50744 18.4869 24.4215
3398 1 17.4115 27.7849 32.3604
571 1 15.9616 17.7859 18.3562
7644 1 17.3126 29.4261 26.9591
5321 1 17.3866 26.1474 28.8144
7211 1 2.82588 32.3505 31.5811
7466 1 4.56317 18.0227 26.2885
3705 1 15.8897 17.7594 22.45
2214 1 13.8631 17.5959 20.5114
6190 1 12.1056 17.6228 27.4454
2619 1 4.53067 26.387 32.3844
7398 1 8.42973 29.031 17.5207
1037 1 17.2918 30.2547 38.2789
2899 1 7.05971 31.8243 38.2609
4931 1 9.53557 30.6177 36.996
4593 1 8.53308 23.3396 38.554
2008 1 14.9768 24.2801 35.7975
1003 1 5.41688 22.6884 40.0156
7020 1 10.7365 28.2431 46.6705
6635 1 4.20384 31.6469 44.274
2885 1 16.8816 26.3011 34.8766
2297 1 5.68126 20.0652 38.9844
4473 1 12.4021 31.9681 42.5475
1607 1 6.79736 26.5901 46.4017
5911 1 4.93982 19.1132 44.3117
3037 1 14.5599 23.3929 45.0336
2396 1 15.8802 30.3191 40.8139
1352 1 14.4897 21.4846 42.8558
5275 1 5.66796 29.0248 36.0982
5369 1 8.89523 24.812 41.0536
4472 1 11.3027 28.5134 33.2994
1838 1 11.4412 23.971 41.2857
5430 1 5.68041 28.7048 40.9791
927 1 4.30815 28.1618 46.6061
2228 1 10.8613 22.0547 34.8865
3885 1 9.34243 24.1485 33.6755
6281 1 2.75667 23.0666 40.499
5075 1 2.89902 25.6886 41.5636
3279 1 9.45485 18.2483 42.9491
5289 1 4.94034 23.7743 33.0941
6002 1 11.9094 19.275 37.3988
4496 1 9.35649 19.061 33.2242
3823 1 15.6243 31.0075 44.9855
994 1 9.47767 21.0874 41.9533
6173 1 16.4526 19.487 42.6786
7315 1 15.0286 31.8608 37.6433
2969 1 6.22098 24.9054 38.4521
2898 1 17.3135 24.5449 45.3085
1962 1 9.06203 31.5871 43.7122
5524 1 9.12698 17.8334 40.2122
5529 1 12.0426 19.7689 33.5125
7600 1 9.47114 25.7548 46.2162
5871 1 5.93245 21.1147 33.976
363 1 13.7559 27.3683 42.4862
3416 1 16.0834 28.7301 43.3485
3724 1 12.2482 20.3004 44.3407
2482 1 4.12449 26.9316 35.1111
7362 1 14.9665 30.3703 35.1135
4107 1 13.3359 30.3344 39.468
3268 1 13.3476 17.9951 45.6799
1293 1 5.9415 24.7166 35.6273
2620 1 12.1271 29.93 35.715
1391 1 2.59878 21.0609 42.3758
1645 1 3.79325 26.2968 38.7931
4436 1 16.0033 28.1951 36.6314
6461 1 7.12417 22.8882 42.0725
2083 1 4.27826 19.0417 32.9356
3677 1 8.39505 20.6771 39.3774
696 1 3.60096 21.5562 44.9648
2992 1 13.4149 21.2833 46.7969
3092 1 8.43165 29.8886 47.3566
4672 1 14.7752 25.8172 38.0906
7081 1 10.0626 28.0007 40.3439
557 1 16.6054 22.2212 38.5905
1705 1 10.9544 22.2679 47.1157
7465 1 4.45609 20.5061 36.4523
4477 1 7.91414 26.4923 34.5819
4162 1 10.6506 29.2919 44.2163
4326 1 10.9347 26.4041 34.9739
958 1 13.2531 28.2176 37.6046
684 1 15.6358 19.4714 46.5922
4516 1 6.63222 28.6534 33.152
2911 1 17.1198 21.6998 45.5913
4384 1 15.6697 27.0131 45.6177
6220 1 6.58532 31.0192 42.6546
2477 1 7.65804 19.0107 44.8849
6552 1 7.97375 22.5289 35.6822
1678 1 9.24977 27.1033 42.9316
7427 1 3.24708 29.8956 42.0231
4457 1 12.5772 23.1871 36.7054
6618 1 15.8689 21.4056 35.9712
3509 1 10.855 24.7551 43.9312
551 1 6.58229 27.5805 43.5187
1246 1 4.17108 31.0001 34.7447
1486 1 12.1854 18.6461 41.8169
4535 1 11.1444 24.4395 38.413
3330 1 4.35707 31.6141 39.2405
1487 1 10.7772 26.9888 37.8098
7662 1 8.33233 28.0893 36.9905
4469 1 3.63736 19.1784 40.8534
351 1 5.82876 23.3548 44.5595
348 1 6.36814 29.8742 45.3226
5178 1 13.9966 25.2429 40.6945
2644 1 7.66009 21.6144 45.5222
5230 1 9.9232 22.1821 44.5125
5125 1 14.8007 18.9585 37.0371
6404 1 15.695 23.2301 41.0498
5465 1 14.5861 21.0061 33.4967
2470 1 7.90467 31.8479 34.8064
4813 1 8.27174 30.283 40.3858
7454 1 4.32292 29.0328 38.5212
3193 1 13.9288 21.3145 38.5401
6389 1 4.63647 25.6135 43.7382
3067 1 8.19645 18.3646 35.4514
229 1 9.56195 20.3322 36.8543
6817 1 12.3324 21.2856 40.9655
4627 1 5.46605 17.9158 35.2712
2808 1 7.55906 26.9929 39.5126
6916 1 11.944 29.3864 41.6258
7311 1 13.2722 25.779 44.9386
6251 1 11.1892 32.0047 38.5248
1004 1 13.9215 29.2553 32.6965
4947 1 3.51783 23.083 35.779
4631 1 13.2204 25.4341 33.6517
3014 1 12.6367 31.0732 45.2494
6441 1 5.6044 24.1986 47.3197
969 1 8.99877 30.0747 32.8699
2736 1 7.92314 18.0688 47.4768
3646 1 17.3142 17.8875 34.2035
4863 1 12.0157 17.5685 35.083
3659 1 9.87638 32.4459 41.0919
4134 1 17.3339 26.1465 39.1581
1938 1 5.63683 32.196 57.9814
5128 1 5.1424 21.095 49.2931
6654 1 5.195 29.725 50.0987
3415 1 9.92432 30.5775 56.1366
3902 1 10.6979 21.4972 50.874
6156 1 5.82474 24.5302 57.7701
7173 1 16.4509 29.8416 49.6373
4277 1 2.6407 19.7484 53.3846
819 1 15.0158 22.8553 54.9315
2456 1 13.557 31.8329 61.3428
5915 1 9.34634 26.419 59.1189
167 1 9.16714 23.6662 59.5798
1922 1 12.6496 24.348 54.9179
1042 1 10.0849 20.4695 55.224
6926 1 9.91987 22.6246 56.9214
5049 1 13.3287 18.6569 54.102
2308 1 4.6898 29.8384 61.1696
5841 1 17.3275 20.3419 56.0255
4833 1 3.09965 24.0537 57.7497
7649 1 12.0714 19.0203 48.0123
2516 1 6.32481 21.2586 62.2231
7982 1 9.21295 26.4324 50.3652
7736 1 6.45393 26.5203 59.553
1272 1 4.64981 22.9268 54.3299
5743 1 15.0828 26.1732 51.0784
7933 1 10.3019 28.8401 53.9929
7657 1 3.79009 23.2084 50.8335
738 1 10.7927 31.708 60.5358
6958 1 3.42522 30.133 52.0761
6623 1 13.4804 31.1131 54.2386
2248 1 2.92267 32.0839 61.5332
133 1 14.5693 20.9329 56.9845
4682 1 12.8776 28.9687 58.0638
2962 1 11.7183 22.5817 60.2258
6254 1 7.13586 28.0679 48.8776
5568 1 8.59155 19.6589 58.9775
7515 1 5.055 29.4768 54.0931
6718 1 15.3209 27.474 60.218
7790 1 15.3576 26.4687 54.9516
280 1 7.68514 30.6367 51.3716
3852 1 5.89969 27.0022 53.2697
1709 1 5.69573 29.6938 56.9092
4582 1 3.11679 25.1428 47.8242
1380 1 15.1168 31.7997 47.8102
645 1 11.7588 27.3385 60.2135
3575 1 10.073 26.9714 56.2107
676 1 13.465 29.0238 61.7866
2360 1 12.2657 19.182 56.6477
4673 1 17.2267 24.4832 53.8911
3512 1 6.51057 25.2892 49.7531
4058 1 13.1878 18.4373 60.8461
7150 1 11.3343 19.8626 59.2781
1274 1 5.09886 21.035 59.785
2109 1 12.494 23.6979 50.3467
5792 1 15.3409 25.3479 61.9975
6842 1 12.6664 26.1462 47.6973
6859 1 15.2881 31.2721 56.2693
6107 1 4.56936 18.591 58.6986
6691 1 11.9437 27.4277 50.2087
6706 1 6.35468 24.8717 55.0425
1875 1 4.39852 28.2965 59.0063
6729 1 13.5891 25.6298 58.7646
2269 1 8.2077 18.9891 61.7949
6362 1 17.2107 24.1637 51.0116
2510 1 14.1854 21.1204 52.7752
5323 1 13.1027 29.753 47.7389
3042 1 15.8255 29.1872 58.1742
4262 1 9.2422 19.0238 51.3149
1481 1 5.85836 18.4708 49.1938
6901 1 6.81794 31.5752 60.5597
3918 1 15.7717 24.5544 57.0671
5262 1 9.6802 20.1855 48.5298
2722 1 3.30837 17.8384 48.3029
3655 1 16.246 22.2172 58.8001
1189 1 4.26061 25.8251 51.4747
2690 1 14.5012 18.3128 58.2194
3728 1 11.5392 22.3188 53.531
5326 1 8.15073 27.4129 61.6993
2343 1 10.405 31.0416 52.2494
2185 1 6.33155 31.9269 53.5341
182 1 3.33717 28.422 56.2343
1895 1 11.538 24.9847 61.923
449 1 9.04197 24.6467 55.1734
3989 1 15.5665 28.3967 52.6345
5637 1 14.3964 23.7285 48.0397
2622 1 12.4133 30.2156 50.4182
3828 1 12.6854 25.7735 52.4414
1124 1 16.9189 20.0484 53.2841
6751 1 8.20864 23.1737 50.9265
4967 1 8.21929 28.089 52.2866
7178 1 12.7677 19.4564 50.8226
3835 1 7.7551 19.3987 54.7841
4133 1 9.86083 24.6186 52.5446
1654 1 16.8272 19.4602 59.7463
3077 1 17.1238 31.4791 59.5282
6347 1 5.93567 21.8203 52.0514
2454 1 14.5069 23.2689 60.5185
3266 1 12.7346 26.7019 56.2497
3321 1 12.5868 23.0012 57.5482
4652 1 4.716 26.0293 61.774
4088 1 9.03067 29.7356 60.1274
430 1 3.26385 19.5272 56.1836
6419 1 3.46019 27.6309 49.3385
1169 1 8.69278 22.7057 62.1264
964 1 15.2295 22.3129 50.3226
5879 1 14.985 30.9458 51.7749
374 1 6.64074 19.2618 52.1957
3252 1 5.78182 20.8365 55.9776
7762 1 15.6093 19.6286 62.1636
7772 1 12.9493 28.3212 53.9052
1980 1 7.57254 22.1822 48.2979
3456 1 8.39951 28.7995 57.7405
3897 1 7.29214 21.9528 58.1336
6844 1 14.9963 27.52 48.4008
7866 1 17.2078 24.3984 48.2459
3052 1 10.5239 24.5966 48.5264
5725 1 11.8251 31.5075 57.8644
1090 1 16.2252 31.4564 62.2108
1260 1 8.57845 32.148 49.1625
6497 1 16.5059 19.9071 49.3157
588 1 17.4731 27.8447 56.2937
3541 1 4.70324 32.0984 48.8096
4164 1 17.4073 31.9743 52.8624
5173 1 15.14 17.8438 50.4336
145 1 4.26287 17.5706 52.5544
7130 1 2.98969 32.2549 58.8005
1367 1 14.4204 32.3055 58.7987
992 1 16.7802 17.6097 56.6029
5777 1 2.87816 20.5998 47.543
4281 1 6.69637 38.7937 16.9757
5016 1 13.2381 34.061 3.05466
6768 1 7.59482 34.3224 11.096
5645 1 5.71135 39.9886 3.38932
2589 1 17.4894 38.1462 4.91275
4325 1 16.1505 41.3876 10.1349
5407 1 11.8134 33.8203 8.43045
5455 1 5.66232 43.2806 11.5794
818 1 6.27998 39.5968 6.84753
6010 1 7.81063 36.7088 12.5482
1006 1 14.1882 42.3062 15.8165
6995 1 8.18126 42.7642 9.08666
7693 1 7.20463 43.3251 6.57953
4505 1 7.03387 45.9067 3.68566
46 1 4.79429 41.9945 6.98945
1054 1 11.5236 43.4652 3.04619
5663 1 3.74888 33.5898 9.38737
3331 1 9.40748 40.5872 12.5516
3100 1 14.7401 34.5121 5.4783
4567 1 15.3335 35.8096 13.2672
4180 1 4.48962 45.025 3.26335
4564 1 11.1683 32.6866 16.7613
2006 1 10.2111 37.4224 11.2172
5068 1 3.87555 44.9247 17.1221
6993 1 11.9742 36.6264 7.65625
1493 1 13.4865 41.2202 11.0098
5555 1 7.8084 46.1472 13.5553
4688 1 11.8456 39.2849 12.4558
3798 1 2.88357 40.229 8.20797
6794 1 14.2964 32.5113 11.2846
6936 1 14.444 43.5044 3.37841
4103 1 9.7307 33.8303 6.45142
1480 1 9.16649 42.319 4.77046
7659 1 13.5765 40.6505 6.49246
1957 1 3.26244 36.2493 10.4633
1161 1 16.2845 43.5761 8.49405
1470 1 16.185 34.5544 10.7938
7813 1 11.955 40.7076 8.71552
7181 1 14.6981 34.3243 8.19868
954 1 5.21153 37.7337 11.8004
118 1 5.28045 33.4666 13.9032
2829 1 11.9896 46.3598 2.88401
6300 1 5.64812 33.989 7.46146
2499 1 5.259 46.1515 8.92777
5682 1 9.01388 40.0179 6.48891
4197 1 5.5043 40.4625 11.8656
513 1 3.64577 34.0116 17.3276
3319 1 15.4697 38.808 6.81124
4137 1 15.7549 46.1381 2.60131
6365 1 17.314 39.5292 15.9997
5511 1 14.1498 36.6491 16.5583
5703 1 5.67393 35.9357 16.5283
6650 1 3.73301 46.6848 5.61758
2836 1 10.7382 43.0229 8.25856
7500 1 6.3715 43.175 15.1551
6697 1 10.3745 39.5878 16.3172
4785 1 5.98208 38.1382 9.18078
3658 1 11.7335 45.046 9.946
7017 1 7.84661 35.0009 14.7914
6158 1 4.15276 42.4196 3.99473
1544 1 4.32311 43.4756 9.22785
290 1 14.6587 45.3286 12.5667
3217 1 16.1649 38.8694 11.9385
5160 1 5.637 40.5224 14.8084
7184 1 9.65615 36.736 15.9231
4066 1 17.2918 40.135 2.78717
4746 1 11.4866 39.8834 5.00187
5591 1 9.77581 43.1821 12.8986
3389 1 8.34805 40.2569 2.9389
7979 1 4.01677 32.937 4.10688
6333 1 9.075 36.5148 6.92608
7844 1 13.7469 45.0081 15.1831
136 1 8.18919 44.6069 11.1438
5929 1 17.2787 44.709 12.4825
6451 1 12.4495 43.5273 12.0949
5811 1 9.68331 46.9252 10.4306
3723 1 2.83307 40.7064 10.8618
21 1 6.55809 36.2945 3.30854
7437 1 8.02921 38.9066 14.4648
2839 1 4.5403 38.2288 5.39204
7203 1 11.899 35.2974 15.4712
3774 1 14.6349 37.1286 8.78188
6432 1 5.00837 45.0036 13.5837
2468 1 14.9687 38.5151 3.39285
98 1 11.8107 35.2942 11.0596
2577 1 10.974 44.3781 5.79235
4272 1 11.2031 45.8903 15.1669
7977 1 7.06971 35.6994 8.8224
7675 1 6.56305 46.0592 6.43149
7005 1 8.52959 38.0222 4.53936
1664 1 2.91225 39.8375 15.5221
440 1 9.00647 44.1197 15.3871
5094 1 4.73332 35.4151 5.32959
7695 1 3.30675 37.6072 7.93282
4968 1 13.7628 37.527 11.3415
6339 1 13.512 37.0044 5.35707
7690 1 13.4833 45.5806 5.22841
5085 1 17.1756 32.8784 8.4489
17 1 9.39666 46.5377 6.47009
3790 1 15.2688 33.6061 15.0727
3269 1 10.6868 34.3213 3.84293
6017 1 14.4154 45.4253 9.75027
1445 1 12.8941 40.0628 14.906
2131 1 11.204 37.1486 3.75816
5457 1 10.0899 38.6351 8.76753
620 1 4.44541 36.03 13.9671
4787 1 7.86388 40.2341 10.104
284 1 14.6288 43.0747 6.29863
5185 1 12.9787 34.2169 13.1491
509 1 15.124 38.4497 14.6367
845 1 4.53869 46.9813 15.5467
590 1 16.7577 42.2911 15.0231
7165 1 16.1524 46.896 5.42299
2441 1 16.722 35.3734 16.6714
1025 1 2.58628 42.4547 17.0274
601 1 9.89565 32.9785 10.4007
4018 1 9.3079 42.0082 17.3615
7197 1 5.04968 47.2761 11.7192
6019 1 16.8106 42.2486 4.53544
4622 1 17.2551 37.1384 10.1266
7355 1 6.38227 33.3612 2.64553
807 1 17.3037 35.3495 5.01826
2457 1 17.4289 46.1787 7.9296
6168 1 14.6604 46.5848 17.2509
7613 1 9.63892 47.4166 3.7649
2416 1 2.86471 47.4554 8.27162
3804 1 10.5716 47.4132 17.2915
507 1 17.3513 33.9706 2.51872
1584 1 12.2143 41.4973 23.3316
3362 1 3.5763 34.9601 32.4765
106 1 6.0547 47.2617 21.7294
2063 1 17.0993 36.4149 21.007
7267 1 9.94509 38.5445 22.8496
5312 1 14.6188 32.7637 26.3264
305 1 4.20706 37.9003 18.281
6355 1 5.19053 42.6795 25.2726
4015 1 5.65892 45.4089 29.748
3929 1 8.50979 45.6502 17.9909
3287 1 3.05657 45.7083 26.2357
801 1 13.7244 34.0368 19.6286
1670 1 13.2254 46.9658 25.6119
1642 1 12.6669 47.0748 23.0298
4374 1 16.4609 34.5855 25.1089
2242 1 4.5732 46.5845 24.0631
6468 1 4.14368 40.9792 21.3392
3310 1 6.73399 44.7413 24.2835
2813 1 12.6475 41.9052 29.0855
7113 1 7.73006 45.3404 27.8851
7968 1 10.9039 38.5618 18.9993
4265 1 10.1691 40.7026 27.8052
587 1 12.4654 37.4641 26.3792
3814 1 5.32068 37.7155 24.0913
7276 1 8.52878 37.0887 18.4847
5791 1 8.11269 35.2661 21.7307
2367 1 14.1088 34.8849 29.1395
4222 1 11.1678 38.8465 31.6281
4694 1 12.7225 44.3113 22.7665
4594 1 5.89017 38.9324 28.1018
5499 1 15.9017 39.265 24.3075
6485 1 10.0339 34.4963 29.5908
4951 1 14.1907 45.4072 30.1374
7856 1 11.8835 36.5053 28.99
868 1 10.5678 40.6795 21.0563
6957 1 9.23564 35.179 24.2549
1879 1 4.97236 42.6344 29.4827
4375 1 10.0857 32.5764 24.3097
894 1 7.69924 34.1313 26.4774
2584 1 4.36897 35.8369 30.0265
7586 1 11.1756 45.0192 20.6215
2833 1 4.12288 35.4627 19.8647
6139 1 5.19771 43.4434 20.6171
3314 1 13.8208 42.4835 18.7155
4719 1 15.4263 44.6264 19.384
6613 1 10.5176 36.0476 20.3758
1825 1 16.7012 43.1755 31.8025
3078 1 15.934 38.774 30.7878
2230 1 11.1947 39.7099 25.3732
6219 1 8.2743 40.5345 25.4331
4246 1 6.90052 34.8064 18.9971
603 1 13.9497 39.5878 22.3533
6379 1 6.41051 32.8768 28.5958
5599 1 3.81715 38.2882 26.3164
6351 1 15.1947 43.039 29.1684
6588 1 6.07746 40.4243 23.4749
2806 1 13.0474 33.1352 24.0423
2044 1 14.4706 36.4993 20.5104
1485 1 3.02014 42.4717 23.5322
3139 1 7.62406 37.9632 21.1496
7519 1 5.6073 35.014 23.0454
5606 1 17.2839 36.8943 29.1983
6098 1 14.5321 39.3788 26.8875
6565 1 2.82312 37.238 22.8906
2749 1 12.3197 37.218 22.1347
778 1 16.4515 45.8789 23.2037
4186 1 12.4368 41.5906 31.8521
2915 1 6.31376 43.8235 17.9335
7971 1 3.81845 34.0345 27.9995
838 1 15.096 40.9819 32.1953
2110 1 11.8385 44.7714 28.5072
3650 1 15.6176 43.4871 22.0595
3942 1 13.2354 41.8602 26.1192
1262 1 4.22888 40.7504 18.6294
6695 1 3.68406 46.889 28.8104
7291 1 16.7162 32.8278 23.173
6634 1 8.56509 32.6404 17.9439
777 1 9.6051 38.4639 29.2529
7474 1 8.49958 42.7831 28.8567
2990 1 7.7103 43.563 21.9191
6262 1 7.86224 36.7631 27.6829
1764 1 17.0816 36.8147 23.7346
1882 1 4.33831 38.7439 30.5386
2442 1 12.0693 35.7248 24.3441
4351 1 7.78721 40.8031 21.0833
6885 1 7.22426 38.7543 30.6815
6029 1 9.51149 42.5344 23.9927
6456 1 9.28649 44.7794 25.6284
208 1 14.6265 46.8504 21.1437
4360 1 11.2088 42.5849 19.2438
1653 1 7.14473 41.5086 31.0634
496 1 12.047 44.3955 25.5349
5147 1 6.9373 32.9264 31.4715
5657 1 7.99186 37.7533 25.0065
661 1 13.2243 39.001 29.4661
1446 1 16.3198 40.6038 28.7087
7907 1 15.886 44.0945 26.7445
2391 1 3.21367 44.9308 22.2122
1934 1 4.87063 38.1311 21.0359
3383 1 15.3748 36.4952 27.0538
5772 1 15.51 34.5661 31.6121
1184 1 15.7663 42.2229 24.5252
1758 1 4.91938 33.5364 25.4149
60 1 6.53044 41.5281 27.4054
7271 1 13.5697 38.3149 18.7905
7135 1 8.63327 45.9416 20.8973
4930 1 14.8985 40.3447 19.9525
356 1 7.33871 35.5271 30.039
6272 1 10.0472 44.4083 30.6571
7039 1 6.94191 41.2157 18.5464
1693 1 16.0897 46.8346 25.8906
6111 1 8.7956 46.6833 31.6415
1043 1 3.16384 43.0773 27.3763
3800 1 4.43819 46.2227 19.6939
185 1 4.22814 33.0173 21.5744
2471 1 9.23916 32.5605 21.7095
5408 1 12.5169 46.9451 19.3212
7999 1 10.8512 33.4362 19.5049
317 1 3.01357 41.3961 31.2094
7731 1 2.53811 35.1474 24.5096
5218 1 12.0014 32.6987 32.1817
7759 1 12.5703 44.4171 32.0763
4341 1 8.87268 47.4146 29.0404
5364 1 12.877 32.6625 28.3103
892 1 10.0834 32.5127 27.3271
4449 1 10.364 35.0443 32.4561
707 1 17.4608 33.4428 18.5738
5459 1 6.7853 47.2424 25.9142
5562 1 9.55862 42.0615 32.3399
2789 1 6.34879 47.4402 17.7117
1554 1 11.3354 47.4333 27.6372
1892 1 6.15095 46.216 32.4643
4934 1 16.1033 45.8514 32.4554
5977 1 13.4543 46.7795 40.1335
2151 1 12.864 36.8346 36.1872
5 1 10.2469 34.5887 37.7283
6550 1 11.2222 46.238 35.9622
1737 1 6.74067 42.4886 37.6206
4233 1 13.9348 47.1211 35.8117
1697 1 14.705 38.913 36.9241
6917 1 11.6963 33.4268 46.5859
2783 1 8.78989 39.4259 33.2546
4428 1 7.68332 40.7523 35.7025
194 1 16.7151 38.645 38.5887
2660 1 4.86948 34.093 45.4951
5803 1 8.94332 35.7221 44.2411
3875 1 10.6963 38.7631 35.3068
3848 1 12.398 37.5186 44.4818
3312 1 6.06548 40.2056 46.0108
2967 1 3.78365 35.3247 40.5707
5966 1 16.7028 34.3148 38.0017
3544 1 5.60153 44.9237 45.2097
591 1 14.7206 34.648 39.801
6820 1 16.9869 39.228 43.4782
268 1 16.3557 37.6986 34.9388
1908 1 2.81857 36.9521 44.7559
2988 1 6.68745 37.879 39.2884
1530 1 7.31587 37.938 45.6021
371 1 14.5574 32.8681 33.7251
4152 1 15.2704 35.3104 44.6132
6983 1 15.1651 35.0349 35.651
5497 1 6.18998 37.1587 34.9607
2740 1 8.06958 43.7828 45.6244
2415 1 3.81571 37.7596 33.2108
1256 1 15.7874 45.1927 39.8857
4952 1 9.58715 34.0007 34.891
2040 1 12.6135 34.5105 44.1166
2897 1 11.0246 46.5481 33.1994
1734 1 13.2525 39.4353 41.3219
4412 1 5.56609 47.3299 37.3544
4307 1 7.68045 40.308 40.7883
5652 1 5.57704 44.653 36.5954
3228 1 10.6728 35.0349 42.1352
5939 1 10.9329 36.2299 46.6515
7637 1 14.2088 45.7107 44.439
4372 1 12.8894 42.6887 38.4734
3889 1 9.55231 43.0324 43.4781
4633 1 3.42666 42.3661 41.2781
8 1 9.67666 46.093 46.3268
7758 1 9.02506 43.074 34.6746
5718 1 5.79483 33.3256 41.2577
7066 1 3.40944 33.357 37.4738
5619 1 6.51961 35.528 37.4364
1067 1 17.4013 33.6536 34.3979
333 1 14.0164 38.5166 46.5179
3772 1 4.97069 36.7361 46.638
3223 1 12.1559 37.0252 33.4471
7328 1 14.8227 41.07 34.9468
1668 1 5.92968 46.7719 43.0303
846 1 7.95545 38.2096 42.7928
475 1 5.37601 41.0706 39.5154
6459 1 12.0978 32.7252 35.1928
4888 1 8.03641 36.5741 32.63
1437 1 12.3073 47.1415 42.7267
2579 1 11.1745 43.4468 36.3823
6539 1 8.884 38.9238 37.685
1700 1 3.18615 40.7376 36.673
537 1 12.6766 36.5655 41.0184
5631 1 16.13 43.3344 35.6948
7342 1 10.3941 45.3947 42.1296
741 1 8.86819 36.5639 36.0991
3141 1 15.0272 41.2027 42.6081
764 1 7.13848 42.532 42.2896
6668 1 8.899 45.8509 39.7267
851 1 7.66142 45.5079 34.8372
5733 1 3.82499 38.8529 38.7208
615 1 3.82483 36.1598 37.751
1999 1 14.0839 41.0194 45.3118
3372 1 10.0177 40.9361 39.4008
6277 1 5.14349 39.9263 34.9251
5706 1 6.60189 44.8977 41.0662
7068 1 9.23291 43.4385 38.3663
6744 1 8.11499 34.0947 39.4847
7919 1 11.1289 37.1721 38.6941
6125 1 15.0408 44.0584 42.1871
1294 1 16.6096 37.5969 45.9177
419 1 4.10274 44.8317 39.7832
383 1 6.11976 34.6045 33.5946
3734 1 10.3341 39.2579 44.1907
3962 1 5.42709 37.2736 41.809
7153 1 12.354 43.4825 41.0657
4586 1 4.349 44.7117 33.9625
3368 1 15.0517 32.7512 41.778
6614 1 8.95404 36.6532 40.4967
3518 1 9.01497 33.3552 45.8349
6472 1 14.8345 37.5396 42.7591
5828 1 5.76556 33.1774 35.9172
3071 1 4.92861 41.5582 43.631
2496 1 12.1896 44.999 46.53
7753 1 10.2945 40.2206 46.8229
3662 1 2.88832 32.6785 41.7897
388 1 15.6277 42.8745 38.2484
3827 1 13.0886 34.098 37.4386
5578 1 12.0871 41.2998 34.7931
4488 1 12.4943 39.7167 38.5576
1329 1 3.5383 39.0995 42.8572
4914 1 16.9801 33.3151 43.694
1171 1 6.19852 35.1264 43.3729
4393 1 11.1058 41.0981 42.0884
1346 1 16.4865 40.8568 40.2069
6449 1 14.1462 44.793 34.3092
4825 1 5.04308 41.9668 33.0196
438 1 16.4763 36.7651 40.6518
7399 1 8.65583 46.908 43.843
2219 1 3.24028 43.4435 44.9538
7087 1 16.2761 44.6126 46.0321
5752 1 11.5793 42.4067 45.4678
40 1 3.16921 43.3926 37.4405
3762 1 11.1321 46.8732 38.6585
4414 1 2.71122 44.9749 42.4118
6492 1 14.104 34.7244 47.3417
482 1 6.7282 33.5854 47.4861
6888 1 16.0069 46.8886 37.6505
2485 1 2.74318 46.941 34.9338
11 1 14.8463 37.0611 32.6793
5931 1 16.1227 42.0123 47.0449
4363 1 2.98449 42.2628 47.4876
558 1 15.6726 45.4227 58.2921
3832 1 13.866 40.6969 52.577
2877 1 14.7649 40.9287 60.0212
3150 1 12.0922 46.489 60.0508
38 1 8.62712 34.6291 50.7243
7188 1 15.8317 41.7471 50.9586
7547 1 17.0569 43.4172 52.9638
4093 1 12.3574 38.7436 56.4872
3296 1 13.103 42.7776 58.8994
6377 1 7.97123 40.7644 60.1507
5916 1 7.06211 36.1227 48.6572
4405 1 9.74545 41.4215 51.2576
6739 1 16.9624 35.3199 47.8873
5546 1 7.99871 40.4976 55.9095
915 1 8.16558 38.4147 51.9508
6682 1 6.77168 42.1099 57.9532
4955 1 5.83892 42.2057 61.5232
1703 1 10.6149 41.5832 59.5442
1360 1 5.56661 46.3587 47.5349
1641 1 3.81429 35.5824 57.0366
4101 1 5.74149 37.3107 51.0944
6895 1 16.87 39.3466 50.3004
2207 1 4.96526 39.8872 50.0259
5086 1 6.088 35.4934 58.9243
392 1 16.9118 47.1639 60.1905
2696 1 14.0232 36.5537 61.8012
7959 1 13.7957 35.3209 53.1765
5925 1 8.75313 34.8201 61.8873
6912 1 14.9212 37.995 53.1049
3255 1 13.4074 43.5861 56.2132
391 1 9.83875 34.0862 59.336
4146 1 13.4608 38.7573 59.0154
5334 1 8.90108 46.2521 52.9235
5904 1 5.75088 35.6973 54.6657
6620 1 6.42081 38.5654 56.8864
3299 1 14.3252 33.0917 50.1958
7475 1 7.94185 39.9027 49.5841
1427 1 12.3354 39.7028 48.5926
3264 1 3.9952 33.9948 50.6704
3653 1 9.40854 43.5873 49.4037
6702 1 2.54401 44.288 49.3829
3740 1 7.83296 33.9815 57.3665
184 1 10.2882 36.9838 50.3262
6680 1 14.7643 44.4208 53.8953
4559 1 15.5049 36.8313 59.4256
2138 1 5.32148 41.1428 52.3527
5240 1 6.25936 34.4724 52.197
4636 1 8.45552 32.6415 55.0421
6782 1 9.44148 36.944 60.1162
5380 1 7.42661 44.5028 56.4435
1634 1 3.41298 40.6686 54.4297
5333 1 5.21606 44.9352 50.0017
29 1 11.701 38.1842 61.3056
1727 1 16.6229 40.7532 56.2288
1177 1 5.07682 37.8856 61.5532
1820 1 8.05868 41.9089 47.6149
7199 1 8.05446 36.5108 56.0709
7401 1 7.54455 44.4448 59.3818
3304 1 4.35616 34.5283 61.0631
6141 1 10.0804 33.775 53.0051
2512 1 11.2731 46.9662 51.7573
7206 1 4.166 46.9917 58.121
803 1 12.9212 46.0213 57.376
1635 1 5.55398 42.4452 48.738
6448 1 15.006 37.4222 55.9647
1078 1 5.63023 43.8023 52.5718
6607 1 15.4447 46.6682 47.7371
3034 1 7.87222 40.9627 53.2148
5984 1 4.66208 44.9293 56.0234
2139 1 5.12295 45.5656 60.5409
7015 1 3.59289 42.5904 56.5143
3843 1 10.2012 44.1904 60.6327
1309 1 8.07545 47.3804 48.299
5906 1 3.43826 36.4669 49.1304
7609 1 11.9553 42.5901 52.5168
3770 1 14.4828 35.0891 57.7116
2330 1 10.6417 40.9334 56.7438
790 1 17.0884 43.0166 57.9237
4887 1 4.14809 41.77 59.1358
309 1 7.90234 45.6966 50.3947
19 1 3.68256 45.6625 53.6196
4754 1 13.9867 41.9041 48.7771
5170 1 12.7488 36.8899 48.8623
7385 1 12.201 43.9236 49.0296
4987 1 16.4146 34.3677 53.6312
2919 1 13.1304 45.0387 51.51
5229 1 12.0059 34.7409 51.0408
7949 1 10.4801 37.065 57.5083
5286 1 15.5437 46.1629 50.4736
593 1 3.96658 37.3016 53.2419
4545 1 11.5648 39.2414 51.459
3722 1 8.32559 43.7673 53.9134
614 1 4.60112 33.1905 55.4481
5231 1 3.68738 38.3122 56.0545
7264 1 9.33943 46.7633 59.0374
908 1 16.3801 34.9617 50.7529
4087 1 11.8114 34.4029 57.2209
337 1 9.06234 37.9187 47.7966
6050 1 14.3201 44.54 60.7103
4800 1 13.9435 40.9685 55.4187
730 1 9.54483 36.5109 53.723
3940 1 7.09304 38.1975 59.6408
1716 1 11.1249 40.801 62.2261
2710 1 16.9186 46.6157 56.0654
5817 1 10.8972 43.2881 55.0412
7923 1 10.3183 45.4446 56.6602
1545 1 16.4869 33.7934 56.388
2853 1 12.2338 33.6047 54.6234
2102 1 12.0475 37.6928 53.8183
5522 1 3.01293 39.349 60.2348
7680 1 15.1196 37.3297 50.4613
1107 1 6.98285 47.3376 57.3081
1621 1 2.65821 44.0389 59.8223
4616 1 17.1682 38.3759 57.6001
3566 1 14.9393 47.1574 54.1116
4757 1 2.67572 36.4318 62.0626
7795 1 4.56297 47.2051 51.3811
6429 1 11.394 32.6694 49.2764
196 1 8.02031 43.6864 62.2819
3147 1 17.4939 41.4016 60.2784
4461 1 13.8055 40.8364 62.4434
5732 1 3.9119 39.4943 47.505
6568 1 7.51022 55.9405 12.6589
6195 1 9.00192 49.7031 14.2801
7298 1 16.1843 57.5943 10.6023
6867 1 4.38317 51.3234 10.4828
3259 1 10.0122 52.4198 13.9093
646 1 16.8672 48.4872 14.5823
4913 1 8.49235 59.7151 14.5914
6237 1 11.9835 53.0936 10.739
4273 1 14.192 52.1697 9.3375
4597 1 9.29717 55.3778 9.07256
156 1 10.4999 50.0802 4.31202
5551 1 12.8126 52.0722 13.1789
1102 1 6.18905 61.6774 2.93384
4831 1 5.83755 49.4374 4.36536
1608 1 14.3258 49.6397 10.5577
50 1 10.4706 48.3108 8.14584
2351 1 6.73565 48.8323 7.09137
3990 1 17.192 49.9154 8.1693
3487 1 5.17652 56.1314 3.18377
77 1 9.24965 52.5785 3.69907
5744 1 4.73497 55.3591 13.5855
2342 1 5.81694 54.9592 16.3524
5833 1 2.88299 59.5235 6.35696
6234 1 4.2925 60.7098 15.1712
1887 1 6.64389 57.0224 5.31179
3859 1 10.8614 52.3376 16.6431
7159 1 15.4025 54.1778 11.0333
361 1 4.19251 53.6317 4.37575
7048 1 10.8066 54.5505 4.54726
689 1 13.9311 61.6006 5.77344
4566 1 10.2885 55.273 13.1063
6871 1 17.2462 54.4189 14.379
6795 1 11.6302 58.4802 4.10918
2648 1 7.23334 59.7066 4.65295
4503 1 14.082 52.0968 3.30571
227 1 9.18637 61.7744 7.42993
6202 1 2.89811 51.4388 16.6605
3459 1 16.1175 49.6475 5.5857
1047 1 4.19991 50.0894 7.77611
2670 1 9.17404 50.4257 6.74493
2687 1 5.63565 53.4477 8.77476
6181 1 6.10921 60.6539 11.3159
2229 1 9.98278 59.3889 8.46984
3393 1 12.527 51.9757 7.00702
6437 1 5.77282 59.6123 8.54705
4210 1 14.2763 57.6706 16.43
4542 1 11.9445 56.0371 16.9635
3142 1 12.1709 60.9955 11.5971
519 1 15.0606 61.7494 11.2985
104 1 12.4326 49.3788 13.766
2840 1 4.26132 57.9914 14.6242
1812 1 6.91071 50.244 11.4877
5300 1 7.25978 48.1071 9.76121
2183 1 4.75762 50.9098 14.5064
4904 1 16.9797 60.9821 9.17958
7365 1 15.1699 47.906 8.67773
1216 1 8.3909 55.9113 15.3641
6519 1 15.58 55.5875 8.47639
1375 1 3.70773 59.3154 11.94
909 1 10.6138 57.6999 14.9098
7063 1 8.01052 58.6975 12.0069
3530 1 10.1238 52.5731 8.45546
7654 1 13.1055 56.7367 8.01443
6177 1 15.5998 55.3297 4.66896
6252 1 11.3188 49.324 10.9439
1156 1 12.3512 60.6817 8.94206
2752 1 12.0423 49.8181 16.3376
7829 1 6.54691 51.2292 16.7378
3065 1 8.42799 49.2052 17.1115
5996 1 10.7195 61.5777 15.2298
4709 1 11.7968 56.012 10.551
4772 1 7.61177 53.79 10.8108
7351 1 7.68059 57.5958 9.23129
1903 1 6.45815 61.5425 6.68765
6641 1 14.38 57.8095 3.91619
198 1 8.7914 55.6183 6.16417
5671 1 4.30503 61.6364 5.07005
4526 1 3.11267 60.0742 9.26333
7300 1 15.781 52.1058 13.0739
3305 1 6.60196 57.9857 16.1016
5905 1 15.1287 59.2017 6.13461
5254 1 12.9988 60.1427 15.9543
1502 1 9.40429 51.7035 11.2079
300 1 5.3727 56.0668 9.20831
6059 1 11.9777 61.2976 3.79491
7573 1 16.1768 52.6153 4.97916
4158 1 5.63063 52.9152 12.6517
7594 1 16.4739 51.1574 15.627
2729 1 12.8368 58.7609 13.3246
3206 1 7.68304 53.0523 6.91909
6291 1 12.8619 47.7095 6.99749
2997 1 10.9235 57.5838 6.5824
6900 1 12.8648 54.6982 14.4679
6210 1 3.06089 54.1612 16.1954
2712 1 15.5127 61.0724 15.0508
262 1 15.6469 59.2971 12.8988
107 1 6.51894 52.067 4.36077
750 1 4.68242 57.4593 6.98871
2778 1 7.41168 53.2113 14.8547
1204 1 2.86594 48.8454 11.0131
3399 1 13.2199 50.0379 5.14716
4664 1 10.6393 58.5525 11.2349
1341 1 6.33671 48.5909 13.8271
153 1 16.3934 52.7873 7.69861
4891 1 16.0001 56.9643 14.4443
2300 1 14.0516 56.3063 12.171
2393 1 14.606 59.0634 8.80286
4790 1 15.0787 53.6217 16.251
3680 1 13.1021 54.5205 6.18631
5136 1 3.45169 52.8465 6.93162
2155 1 3.67599 56.6373 11.2956
5662 1 6.73009 61.8389 13.8517
1997 1 13.8903 48.471 2.84618
833 1 14.8244 48.1189 12.9455
7667 1 3.21057 49.367 5.07547
2034 1 14.6301 49.6072 17.358
6610 1 17.2197 59.7127 16.558
2591 1 2.679 55.6198 5.87788
562 1 17.1019 50.7056 10.9066
3029 1 10.3587 47.5688 13.0804
5283 1 9.19261 59.1495 2.75862
3409 1 13.728 51.4819 26.7608
2363 1 7.88894 57.4888 25.4433
6863 1 17.0674 54.2902 32.3957
769 1 9.613 50.8106 18.9123
6586 1 2.86151 48.5188 19.0144
5959 1 6.47774 51.1319 31.0667
150 1 3.30695 48.6967 31.0408
5315 1 10.9612 57.6262 30.7477
1966 1 6.64098 61.0136 19.7038
4131 1 17.1361 50.9272 29.2556
6564 1 3.32801 53.6281 29.8595
2445 1 7.19385 49.7729 28.48
6292 1 10.0602 47.874 22.4229
6902 1 8.27271 58.077 31.2354
2368 1 10.905 58.0238 27.91
5237 1 4.98101 51.6336 28.7068
6418 1 8.02153 54.0665 28.6536
628 1 2.94717 53.3365 26.0899
3087 1 16.0555 58.8848 29.3864
5528 1 4.17424 50.9943 23.1087
3417 1 5.15295 55.4969 23.7664
7250 1 12.9016 49.9178 22.9548
1942 1 5.87773 57.7812 29.5175
1899 1 11.8011 55.2966 32.0482
1792 1 3.41125 54.5982 20.7685
6609 1 7.25311 54.0447 22.75
7384 1 16.1396 56.6267 30.9259
5762 1 4.27048 59.433 19.6961
5974 1 3.37094 49.1015 24.8768
451 1 13.4316 56.952 24.4553
2541 1 13.9927 54.1893 25.2853
678 1 13.6943 51.8065 31.5705
6150 1 15.8074 49.3897 27.1816
6701 1 5.38375 49.854 18.9801
1313 1 17.0114 49.8247 18.8352
3671 1 7.87234 58.8171 21.2312
5425 1 11.0478 61.9998 19.875
3257 1 16.7077 48.7879 21.2601
7240 1 13.2619 61.4484 24.1289
2860 1 12.3141 51.6737 29.0248
6605 1 9.41513 54.7047 17.7465
2954 1 12.7176 59.8332 30.5785
4655 1 14.2814 59.2072 22.6996
6656 1 12.0463 54.325 29.5371
1631 1 9.29005 55.5763 23.8918
4316 1 14.4032 61.1539 26.6324
1883 1 8.76001 50.4001 22.779
6690 1 8.74649 56.4836 19.7975
435 1 11.6109 49.4731 20.3205
1244 1 9.22451 51.4311 32.0227
41 1 3.54207 58.1676 25.5511
1606 1 12.4531 59.6561 18.8545
1273 1 10.0527 58.2044 17.8726
1803 1 10.6719 60.3826 24.283
5040 1 4.73157 49.0089 27.2974
5868 1 17.1358 61.2155 25.769
4382 1 4.03087 52.3456 19.1056
6685 1 17.0764 55.8376 22.2117
7041 1 8.04825 61.9287 23.7923
3528 1 15.1099 48.029 29.5034
3328 1 16.8586 60.5986 31.4051
4333 1 10.2794 61.1063 31.3495
3569 1 14.2932 55.6728 21.9803
6723 1 12.5509 48.9024 29.6445
4753 1 5.59342 60.9087 26.7171
2508 1 7.4653 60.8779 30.7597
3466 1 10.8198 57.6736 25.1571
2009 1 15.8111 49.998 31.4888
4689 1 13.5666 58.9902 27.955
5903 1 15.571 50.5152 22.9668
7754 1 11.0987 52.1221 22.773
2307 1 6.14086 55.4842 20.3788
3806 1 2.58097 60.556 17.6462
4649 1 2.51953 50.6441 20.8501
228 1 3.71271 56.0993 28.6587
359 1 6.7736 53.4371 18.5493
2793 1 12.563 57.7982 21.0299
1140 1 15.0501 52.8152 21.1084
1001 1 10.3908 55.2416 27.668
6428 1 14.8774 56.5574 26.9282
3273 1 4.12517 60.6448 24.1442
7513 1 15.8365 58.5217 18.7154
889 1 14.0758 56.0661 19.0035
3963 1 6.78537 59.3969 23.7664
1687 1 14.9664 60.5728 20.2686
528 1 13.7654 51.0699 19.4049
2266 1 9.36782 51.6332 29.1555
7492 1 9.37621 60.2273 28.7276
3729 1 11.1001 53.7482 25.0896
397 1 5.57639 56.2899 26.3512
4587 1 7.17098 55.4834 30.9603
5023 1 7.83383 49.9611 25.5085
6659 1 10.6145 55.7513 21.5912
3560 1 9.97998 51.4433 26.4099
5887 1 5.8619 53.5784 26.959
6725 1 14.7169 54.9295 29.1236
6453 1 12.0055 49.6744 25.5873
6185 1 16.3173 53.3601 23.7271
956 1 5.23423 57.6974 21.8237
817 1 4.66752 59.8387 31.0094
7627 1 3.10288 53.7585 23.3893
165 1 7.28003 59.0579 27.5124
5917 1 16.6059 54.7423 18.3987
7671 1 10.4523 59.6544 21.6422
321 1 6.28814 52.049 24.6935
791 1 16.8973 59.295 23.722
4448 1 8.09147 52.1808 20.656
7375 1 16.0383 52.9631 27.802
1708 1 12.2862 53.6752 21.044
5025 1 6.17579 50.111 21.5647
2841 1 3.65673 61.3581 28.8248
325 1 9.48884 61.9423 26.5708
3246 1 4.74115 56.9282 18.1989
61 1 9.65081 47.6991 25.2675
6655 1 12.8933 53.4427 18.1604
2893 1 17.3116 49.1881 24.7755
4685 1 4.6287 52.9812 32.179
2244 1 12.1449 48.7039 32.2689
2121 1 4.49372 55.7988 32.2644
20 1 8.09623 60.2903 17.5007
7057 1 7.86268 48.2461 38.6165
3192 1 15.5007 53.053 45.6395
6954 1 3.14899 50.3179 42.76
4404 1 17.0576 57.3382 35.1969
5244 1 12.6239 51.7225 43.0506
4258 1 14.3059 53.7618 37.5144
2581 1 5.52764 62.1214 42.3943
3355 1 9.22483 55.2926 46.3215
1786 1 11.655 49.5996 41.5311
3278 1 12.8695 49.5228 36.8199
263 1 8.43986 48.9411 33.2311
442 1 10.2341 50.3925 35.962
5501 1 11.6929 50.9993 33.5403
3782 1 4.34503 57.3701 44.3464
1354 1 3.45809 47.7724 46.352
3887 1 14.8958 57.0409 33.3793
5121 1 5.10856 49.1264 44.5477
6868 1 9.22997 54.2312 32.5905
5857 1 9.21826 49.3051 42.7725
111 1 4.45884 58.8169 36.1068
6869 1 8.56953 59.6229 40.9331
5441 1 9.2819 59.3103 38.2634
5973 1 5.25578 60.6139 39.9921
7610 1 11.9159 48.8234 44.9499
7280 1 6.10479 59.5163 43.4946
4774 1 11.047 53.4271 44.7793
3127 1 15.4412 61.351 45.8635
425 1 3.0934 50.9015 36.2583
6877 1 12.8492 57.7193 37.0958
4570 1 13.2121 56.771 44.5358
4402 1 17.0379 55.7893 39.2886
516 1 12.1943 57.7874 41.2257
5054 1 6.21916 58.1675 41.1656
5035 1 7.43092 55.7027 41.848
4356 1 6.19324 56.8706 37.3838
5411 1 2.61807 53.7718 42.6949
3958 1 15.9817 49.8497 37.5212
4671 1 7.4629 51.8696 43.5425
1676 1 8.61297 57.6144 36.1184
7918 1 16.7572 53.7565 43.4422
1746 1 17.1511 51.5705 41.8535
4926 1 16.1574 48.8606 41.4603
5012 1 3.12037 59.4871 38.5351
3024 1 10.51 49.7436 38.7193
3699 1 4.05012 50.4073 38.8811
6815 1 6.99877 48.7101 41.1704
7373 1 15.4011 52.0832 39.594
310 1 8.29499 59.2851 45.1517
5467 1 14.3579 61.2338 34.7873
2094 1 16.1361 60.4433 43.2804
5955 1 11.0283 56.9485 38.8842
2309 1 14.854 48.21 33.3185
4130 1 2.55011 51.932 33.7361
4203 1 11.6231 55.4419 42.6775
3905 1 5.61477 53.5997 40.8629
5031 1 4.44808 60.0059 45.6387
540 1 9.321 56.7657 43.8252
4227 1 6.69093 53.9043 45.5311
5867 1 14.5077 59.5763 41.0532
4406 1 4.96807 48.96 35.2123
4468 1 2.97554 62.2839 34.8512
2324 1 7.59251 53.0662 38.7482
7483 1 4.16939 56.9806 39.6175
2303 1 10.6683 62.0817 42.7608
5438 1 5.174 54.9047 43.3386
1326 1 6.63232 59.4482 47.4649
4830 1 6.51405 54.1342 36.4941
5079 1 12.8194 61.7936 44.8843
4128 1 6.91429 53.334 33.9013
970 1 7.06555 61.7009 33.5033
37 1 10.9941 53.1572 36.4494
5414 1 3.81748 53.6614 36.5796
809 1 13.4331 53.7117 41.2763
1368 1 15.3073 56.3562 37.1834
5569 1 5.53002 61.4105 35.739
2116 1 15.3416 57.5603 43.0866
6941 1 3.83151 51.8231 46.8528
384 1 10.6206 61.7302 34.7261
7842 1 10.5046 59.1771 42.9354
1660 1 6.60013 50.6628 37.8189
1512 1 11.8754 59.0641 45.4675
3432 1 6.34328 51.0584 46.0194
1085 1 5.50014 50.9874 41.5372
1430 1 13.3159 54.6743 46.3473
2923 1 11.796 54.3528 38.8213
2807 1 17.3884 61.4405 35.088
3089 1 9.80474 50.7759 45.135
6554 1 9.30802 53.5333 42.294
2725 1 10.9046 61.6433 37.4827
410 1 9.17784 62.1443 45.1521
3015 1 3.24131 54.3883 39.1311
1628 1 2.95988 55.3357 34.5216
343 1 15.657 60.4277 38.8005
3053 1 13.4428 60.2885 37.1683
7669 1 10.0336 52.3393 39.83
7498 1 7.37657 50.9271 35.1386
127 1 10.0665 55.3978 35.0631
1136 1 12.3437 56.9474 34.5078
1732 1 14.2616 54.2472 32.9117
4858 1 15.5929 55.3768 41.4684
6460 1 13.9502 49.6191 39.638
2124 1 3.41728 47.6422 41.9073
2317 1 5.25815 58.3391 33.3203
960 1 14.9438 50.4276 34.9882
7921 1 7.05025 60.8886 37.9401
1115 1 8.02111 59.0735 33.9562
5460 1 8.30598 55.9083 39.107
4876 1 2.77249 56.2256 46.5191
2576 1 13.4295 52.79 34.9767
2500 1 10.8266 59.0953 33.4036
2814 1 14.3424 50.5543 44.8817
6571 1 15.7229 48.2617 44.084
2398 1 9.85421 57.8496 47.1527
6652 1 13.1023 62.0401 41.1037
5168 1 16.9566 52.1121 34.0402
1257 1 8.35399 50.1272 47.3919
3297 1 2.78064 57.5687 41.9465
890 1 8.7972 47.8524 35.8847
7146 1 3.39328 47.5552 39.1222
1946 1 14.577 59.5343 32.6444
5009 1 17.4563 59.5145 37.1063
4846 1 12.7504 47.7838 47.4569
264 1 5.74785 48.9487 32.5313
2883 1 13.7329 59.5305 47.4149
4541 1 3.75267 58.9489 53.2032
7764 1 12.9447 49.287 60.3487
1636 1 6.0148 47.847 61.9842
7449 1 11.4327 58.431 50.7644
4812 1 14.0186 54.7225 62.3088
7470 1 11.8723 49.0353 53.4917
1228 1 9.58951 61.8697 49.3759
2060 1 7.52381 48.1889 54.6575
1696 1 16.9467 57.599 47.596
6642 1 9.43321 52.6955 55.6945
4400 1 8.55232 50.5878 59.9761
1018 1 9.4114 60.35 55.4914
7317 1 4.70769 53.6835 54.7505
5119 1 14.7624 61.1392 60.5528
6608 1 12.7671 60.2586 54.3107
721 1 7.37685 51.8604 49.4943
6925 1 6.46948 49.9055 58.2936
3526 1 11.7618 60.8401 56.9843
378 1 15.7198 48.4955 51.7454
1987 1 17.0239 56.1332 52.8597
6023 1 17.4681 55.1698 60.527
5354 1 10.3471 48.1986 55.8694
4815 1 13.9848 50.4255 52.6297
6662 1 14.7745 54.261 59.7057
3654 1 15.4936 60.1572 53.2996
2111 1 7.10875 57.1418 53.0083
315 1 10.7248 56.646 58.1254
7337 1 7.67084 49.7799 52.3471
5510 1 14.1964 54.4593 55.1809
4560 1 13.7495 50.4059 47.6901
4731 1 4.89435 55.7123 58.8835
323 1 10.8703 55.5323 50.8715
3973 1 15.9347 60.0672 56.2201
933 1 12.4308 58.1487 56.3141
998 1 10.7929 49.3842 58.4593
65 1 13.8343 52.6423 50.9948
6080 1 4.49274 51.2685 49.8051
5595 1 7.87874 57.9554 60.5611
2669 1 7.21457 52.5076 61.5893
3106 1 14.7464 56.3391 51.3063
1453 1 10.1745 50.7962 52.3998
4260 1 6.07608 51.9736 53.2222
7085 1 8.60555 48.1125 61.2104
3031 1 10.334 52.7484 60.1261
6287 1 5.70909 56.9414 48.7283
2164 1 9.62146 55.5155 60.5768
7532 1 4.49904 51.5258 56.6341
7099 1 9.42783 56.1341 54.1078
4415 1 16.0681 59.8246 49.1904
1810 1 10.6527 47.9756 49.3481
4592 1 15.4233 57.0988 59.7982
6319 1 7.70913 53.6882 51.771
416 1 6.3076 48.9378 50.0834
4161 1 15.1561 57.63 57.1052
582 1 8.84443 59.1254 49.534
4750 1 6.7717 55.2497 61.1063
1507 1 8.17548 56.3076 50.4849
3968 1 14.7402 55.8486 48.4567
6517 1 3.61674 50.6764 52.5068
7773 1 9.94487 50.618 49.6755
2963 1 11.3235 52.0001 57.5027
1215 1 16.5886 52.4032 50.2142
1856 1 10.6596 61.3071 61.3574
3095 1 11.9917 52.0841 48.8607
2654 1 10.2551 53.5589 53.1311
1988 1 16.6446 55.7568 55.534
4073 1 8.78949 61.3625 59.2046
173 1 3.67587 53.089 58.6271
3039 1 12.7577 54.4576 57.6698
6435 1 16.0898 52.2371 58.4268
5603 1 5.0441 58.6389 59.5937
630 1 11.5699 56.1733 62.3969
5337 1 16.7728 54.0416 47.8918
6239 1 15.566 49.4753 59.118
7089 1 5.23204 55.1113 52.2953
2506 1 10.145 59.831 52.898
5961 1 4.93343 58.9255 50.6823
5550 1 11.748 57.5581 53.5943
2437 1 8.85698 58.8311 57.9754
7021 1 12.3372 60.0304 59.6262
829 1 3.58593 57.8457 61.8031
292 1 2.90406 57.7222 48.995
1536 1 7.46105 59.5784 51.8232
1201 1 15.7911 49.8656 49.2896
3781 1 2.72993 56.2014 52.8023
5683 1 8.73498 55.2365 56.6926
2022 1 11.3143 54.5604 48.2649
1555 1 15.2399 51.86 54.6778
2167 1 15.8997 50.3641 61.9062
1369 1 6.29905 61.133 60.3662
5351 1 14.0509 50.8695 57.0097
4098 1 6.92942 62.3072 52.9436
6974 1 5.17238 57.6371 55.1121
5701 1 15.8427 58.8661 61.952
4455 1 7.38407 54.3938 48.2941
2257 1 6.05412 55.4345 56.4183
3783 1 5.86457 61.7414 56.4097
4744 1 3.99143 54.0425 50.1881
7524 1 11.7128 51.2344 61.9062
1168 1 7.17272 50.8927 55.6488
7780 1 12.9107 54.8092 52.7064
131 1 12.6687 57.4373 60.072
6299 1 4.51214 61.355 49.6906
6714 1 12.3033 60.9032 49.4362
7775 1 14.2387 59.1312 51.0263
5667 1 4.32759 61.4819 53.9712
1478 1 6.13616 59.2582 57.0693
1913 1 4.67195 51.7065 60.7321
6835 1 13.272 48.3982 55.9471
2127 1 2.99998 49.2254 56.502
2900 1 4.41337 49.0646 60.0741
187 1 4.50844 48.4951 54.1108
942 1 12.4293 57.3128 48.351
3608 1 17.1055 53.3424 52.8218
4499 1 2.79433 58.1246 56.6298
6536 1 2.60059 59.8579 58.9263
7913 1 3.02727 62.3228 60.3931
5489 1 2.65328 49.4989 48.3067
4048 1 6.27291 62.1743 47.843
2614 1 3.43086 60.5946 62.4718
2534 1 14.2344 62.203 57.0499
1451 1 17.2941 61.0936 58.7287
4339 1 15.3874 62.4762 48.6438
1769 1 2.72999 51.9891 62.4948
6538 1 4.61138 54.4922 47.5013
1402 1 31.7766 15.4254 11.9104
6056 1 29.5295 14.5902 9.24906
7213 1 22.574 6.537 15.3377
4175 1 18.0648 7.51676 12.3015
1223 1 21.8791 10.9192 7.81407
6330 1 29.1942 15.2045 6.46855
6013 1 18.5802 13.9146 5.43599
7008 1 30.9983 12.1954 12.9604
7768 1 25.2711 8.07635 5.81209
1285 1 18.6759 9.65596 10.7025
3660 1 27.9792 2.75521 12.6144
5043 1 31.2471 9.74673 14.2615
5564 1 30.2442 9.79933 16.9288
2934 1 23.6437 11.9952 4.18171
1902 1 29.0655 15.4323 12.7467
6180 1 28.0563 9.01253 9.48794
7812 1 23.3505 8.43251 8.14416
3197 1 32.0134 7.98795 12.141
492 1 18.391 13.5676 12.5988
2119 1 31.0011 8.89449 3.653
3159 1 22.1127 15.0885 7.18382
5217 1 31.2498 11.9386 6.94124
2640 1 24.7004 2.7745 4.45745
7677 1 24.6253 6.28843 9.74297
1740 1 25.0907 6.10767 14.2697
7200 1 19.2164 6.71847 6.09517
2830 1 18.1044 4.92053 7.98259
1730 1 27.1256 10.3168 4.92583
1834 1 20.9259 15.0373 13.0438
2080 1 18.7737 16.1011 11.3033
5011 1 19.119 5.12546 15.9555
2575 1 22.2106 4.35494 7.2608
5396 1 19.8017 15.6193 8.6819
6222 1 20.0309 4.0199 11.7827
2527 1 27.5866 16.2359 10.5515
2567 1 25.8095 3.5155 14.2448
2382 1 22.5849 3.78063 15.3419
4523 1 20.1412 6.17388 13.5366
2945 1 30.7946 17.2453 5.54461
4035 1 26.8307 14.7286 4.73933
6182 1 25.6485 12.5304 5.99995
6101 1 28.2125 12.7951 12.9511
3276 1 24.8882 10.2477 13.8259
6800 1 24.1225 5.39687 5.21322
7223 1 20.1661 11.7933 9.75955
5482 1 21.3237 13.0406 15.2942
3739 1 19.1505 10.9005 13.2789
1284 1 24.0721 3.65731 9.29523
3957 1 25.5278 17.2373 5.25382
7854 1 29.6921 7.59123 5.75203
5965 1 24.5581 12.5435 10.4683
2405 1 30.8743 13.8918 15.2545
6032 1 26.8548 7.03522 7.98587
5651 1 18.6303 12.0458 15.7518
6710 1 25.328 16.9477 13.8623
3860 1 21.172 13.6259 4.6781
71 1 28.784 4.90393 11.1359
5593 1 19.1399 7.84347 16.4408
4083 1 25.0403 14.811 15.7062
1151 1 24.2638 16.7033 8.59299
5167 1 24.7652 7.91876 12.0348
5444 1 32.0518 15.8276 9.17374
5727 1 27.7111 10.9008 17.1353
1598 1 30.4154 12.0897 10.2833
1663 1 18.2888 7.26275 3.57061
218 1 20.5257 10.7681 5.21693
2268 1 22.1485 12.6086 11.7841
242 1 28.943 7.85372 14.1469
4613 1 27.1844 6.75719 15.8021
7554 1 27.6507 10.2862 14.5027
1170 1 18.1141 16.6601 4.63888
742 1 25.3631 13.0659 13.3286
6657 1 31.6597 7.63451 7.66788
5137 1 29.3783 11.1808 3.51782
339 1 28.1472 4.54558 8.43643
2283 1 23.6666 12.761 16.8577
7810 1 27.7944 12.8495 7.84919
5199 1 27.1853 5.11322 5.71128
5646 1 25.2167 9.71374 9.97755
2290 1 27.4527 11.6595 10.5016
3323 1 25.0086 10.2079 16.798
6846 1 20.9986 8.05732 9.59375
3215 1 21.9553 10.573 13.6904
2417 1 23.6299 12.9464 7.8486
456 1 19.505 16.6282 15.0325
3645 1 30.3593 3.62075 15.3077
5580 1 25.0626 15.323 11.2108
2100 1 18.2639 13.1293 8.1493
3358 1 23.2117 15.7409 4.53744
2862 1 27.5162 7.41112 11.7848
3559 1 21.9033 8.06449 12.1614
2858 1 20.5447 5.27478 9.17463
3333 1 30.5316 13.408 4.73287
3151 1 21.4447 8.97375 16.0657
3584 1 30.5485 16.7094 15.1167
6661 1 18.4503 8.1926 8.34119
6034 1 31.1498 6.05514 14.1445
7319 1 28.8743 10.2959 6.97728
5206 1 22.9233 16.9422 12.3132
7562 1 21.8993 7.03433 6.15128
2586 1 31.4951 5.21621 11.3827
7452 1 31.0092 9.36159 9.78098
6514 1 32.3798 6.9646 16.3664
5476 1 27.4256 7.41331 3.96345
867 1 27.6571 4.07733 16.3748
1790 1 20.6767 2.88105 3.68848
6282 1 22.9054 9.19827 4.69453
4734 1 30.7378 3.66916 7.65207
1733 1 18.2162 10.5857 6.85992
7111 1 30.1204 4.57195 5.08337
2166 1 18.8511 9.85561 3.09475
2098 1 23.0292 16.2096 17.104
1959 1 29.1976 13.3507 17.1782
2878 1 27.0344 16.9028 7.74245
5844 1 18.1605 14.6086 16.4583
3442 1 20.6369 5.46154 2.61695
3175 1 27.1113 15.0934 17.332
2657 1 17.6518 17.098 7.41826
7314 1 17.7115 3.61947 10.229
2529 1 22.4005 2.5258 11.1134
1633 1 29.0973 5.32555 2.64505
2530 1 24.9696 14.1047 2.67959
5462 1 27.9677 13.8287 29.0766
7050 1 25.7194 7.78326 31.5211
570 1 28.5065 15.5632 26.01
3207 1 26.3561 2.58375 23.0548
4506 1 21.6741 11.0496 22.1211
3567 1 26.0562 15.1244 27.6804
5814 1 29.5479 6.5555 29.821
3748 1 30.2254 13.6904 19.7003
7902 1 30.155 8.44838 31.9089
3919 1 25.6919 11.5118 20.916
1334 1 24.9997 5.33021 22.7837
5272 1 31.746 14.2308 29.0951
880 1 18.8437 2.93814 27.4804
6442 1 28.2997 12.8765 24.7098
3525 1 26.2604 10.7674 31.5477
6516 1 23.6866 13.0472 19.7058
675 1 19.6915 8.99509 28.2227
4036 1 30.4408 7.54146 18.5062
2370 1 24.2008 9.80271 22.3903
7898 1 20.9454 12.0507 19.4447
6700 1 30.04 10.6376 28.2289
6569 1 18.72 16.0609 28.1175
4533 1 32.0189 13.0567 31.6768
6385 1 18.3226 8.38587 19.0419
7083 1 17.8002 11.0568 28.209
1901 1 22.7373 3.93376 21.5269
574 1 26.2319 4.0242 32.2259
282 1 24.2646 4.33155 28.9241
2772 1 23.114 5.98915 18.0356
5995 1 25.371 13.4226 25.494
1406 1 31.4394 15.4213 25.79
2960 1 29.985 11.3098 20.9052
4821 1 27.5161 11.0274 29.0065
5502 1 31.6787 16.9385 28.1756
6839 1 18.1292 6.57669 27.5334
3609 1 28.0197 5.97715 25.8924
2817 1 24.8448 8.05914 18.7942
5720 1 30.2461 4.12739 30.9517
5182 1 19.0322 9.13347 31.002
6905 1 27.9561 16.8205 23.6898
5340 1 21.574 6.15652 22.9182
3974 1 22.3081 8.11666 29.11
7201 1 26.7554 5.66484 29.9894
5675 1 24.0523 3.91 26.1528
7400 1 24.4621 13.9155 29.6265
5376 1 18.359 15.0595 24.1168
1176 1 18.2825 7.39429 24.6738
5353 1 21.8654 15.8623 25.5206
7546 1 22.5276 9.79061 18.4221
5072 1 19.9932 11.406 24.3777
2173 1 22.4274 6.29255 25.636
4630 1 27.8997 4.79495 22.0033
1389 1 26.5551 8.36468 28.9108
2634 1 20.7004 16.3542 23.0727
552 1 30.0949 4.62075 18.081
3672 1 27.9065 3.93012 27.9329
5195 1 20.0745 14.6138 20.7684
5997 1 28.0428 9.99653 25.2787
2356 1 20.1979 3.46 30.9464
7788 1 18.8754 5.32 22.6118
3579 1 29.013 8.21477 27.3705
2388 1 27.6877 10.1033 19.7443
977 1 20.3328 8.5097 22.375
4925 1 26.387 8.5708 23.6729
2199 1 31.8538 7.55838 25.1512
7728 1 29.9487 5.61409 23.9146
4283 1 23.8524 11.4125 28.8373
7956 1 17.9263 5.74296 20.1182
2018 1 22.3696 13.8744 22.3462
7679 1 21.1031 7.70718 19.7125
7528 1 31.4944 10.425 30.5188
7501 1 23.5199 7.39294 21.2736
7411 1 31.2151 6.1165 27.572
4954 1 20.3854 5.20647 18.494
2267 1 18.4878 13.0761 26.1129
1302 1 23.5988 9.59818 31.1087
1754 1 20.699 14.0974 27.5256
6327 1 19.4103 15.718 30.7598
888 1 32.483 3.09892 29.2754
2452 1 25.64 10.9398 26.6262
7022 1 27.1035 13.5968 22.0295
5135 1 20.7866 8.87257 25.4362
4241 1 17.9919 4.62164 29.6092
2596 1 31.2721 15.2517 23.0299
1135 1 21.9692 5.56331 30.2152
7312 1 26.5075 15.4868 20.0054
693 1 25.342 6.40028 25.3354
135 1 18.4192 16.6785 19.5076
709 1 21.1669 11.4344 28.1164
7886 1 24.3588 3.71479 19.081
4 1 20.6598 7.25054 32.0544
893 1 20.5544 11.6025 30.8183
2498 1 29.07 15.609 21.3551
2387 1 30.3735 8.19877 22.8141
6230 1 24.0873 8.29018 27.1114
4976 1 30.6369 3.43809 27.2557
2052 1 26.4702 13.6159 31.597
4327 1 22.1881 15.2968 29.8267
6521 1 23.3596 10.2424 25.1384
5264 1 22.4608 12.9542 25.1478
4160 1 30.1119 10.8863 23.5616
6450 1 27.928 7.57247 21.5507
4869 1 29.7313 15.6622 30.4848
5246 1 20.9212 2.5594 19.7294
324 1 29.9933 13.218 27.1185
6044 1 18.7267 11.0816 18.4272
2961 1 27.2276 4.74303 19.3301
2197 1 20.7154 5.20061 27.5031
946 1 24.8792 14.6316 23.1863
2389 1 27.6298 7.43181 18.5691
7517 1 31.9287 8.22286 20.6119
4826 1 31.4554 3.44114 23.2882
2796 1 18.3443 13.3076 31.426
7624 1 23.7833 16.0062 19.8199
5771 1 20.5619 14.5676 17.8198
139 1 30.0729 3.21783 20.7925
3003 1 17.5239 8.97223 21.7916
952 1 32.4624 11.0743 17.5868
2618 1 17.6693 13.7443 21.7918
3135 1 32.1859 9.95964 26.4526
6802 1 19.3109 2.51748 22.2648
7685 1 25.1801 17.4198 23.4194
2951 1 21.4865 2.61533 26.611
2706 1 18.6495 3.14805 33.1616
4060 1 22.2413 15.4967 36.3085
2560 1 26.8288 9.72776 42.6837
7151 1 31.9368 4.88058 34.5313
5760 1 24.822 12.8316 41.1037
3097 1 30.9038 7.98094 35.8216
6823 1 29.9971 14.804 40.6294
3572 1 18.8155 14.4731 40.3612
862 1 19.1825 3.98822 40.3212
3896 1 23.2392 4.2986 35.2947
7335 1 22.4802 3.33815 45.8981
4964 1 31.0818 2.93234 40.0961
1489 1 19.4322 9.62627 45.0237
4827 1 27.6884 4.90654 34.6007
3736 1 30.4682 11.5966 37.6301
3105 1 31.1889 13.2706 45.5886
4907 1 22.3585 11.4388 32.8587
4771 1 17.929 11.6872 37.4135
5143 1 31.0611 11.4286 43.4187
7479 1 26.4595 16.7619 36.3352
1459 1 29.8562 5.35031 36.5733
5728 1 22.2641 4.2513 43.3007
3703 1 26.5735 8.6005 35.4182
2381 1 19.3943 8.20255 41.057
5470 1 23.2018 7.11053 46.5988
5872 1 24.2891 10.1326 41.6886
5516 1 28.6235 13.5061 46.6623
4064 1 22.5476 16.4171 42.4579
2559 1 27.6996 12.9386 40.5628
2152 1 22.6144 13.599 42.2902
4089 1 24.4682 4.01645 41.2794
2603 1 21.0674 10.005 39.2531
6651 1 32.2657 6.37297 42.0952
5653 1 25.3337 15.906 46.1065
3600 1 23.5588 9.8076 44.406
2490 1 29.3903 4.60048 44.9686
1522 1 32.2046 16.3039 41.5879
3581 1 31.8029 15.8225 44.3772
4322 1 18.2641 3.40498 36.8212
7717 1 23.4679 16.5557 39.7925
1847 1 24.272 14.2501 38.7199
7874 1 26.7292 4.57632 46.0987
4620 1 21.3862 11.0401 46.2574
369 1 27.6824 11.1756 38.2029
1965 1 28.6948 17.0808 39.5659
6208 1 21.016 2.83669 36.4121
6665 1 22.6966 15.0868 46.4523
2302 1 22.7447 7.08504 43.6824
2158 1 20.7551 16.0302 44.6616
5536 1 30.1055 6.80486 43.778
781 1 21.029 5.08549 38.4111
3635 1 26.4363 11.0989 34.3302
7236 1 24.7607 14.1448 35.8899
2492 1 17.6171 15.7858 42.6107
6796 1 19.4275 4.65489 42.9227
2784 1 25.9298 7.42409 40.0713
6245 1 22.2561 8.23027 41.0027
5219 1 32.1334 10.3292 39.5965
5277 1 24.8686 15.3743 33.4317
3592 1 26.7331 14.0863 42.9353
5933 1 23.545 17.4446 34.6873
2979 1 20.1324 13.4269 36.5653
4248 1 27.5075 6.03972 38.2567
1075 1 27.1187 14.9149 38.3752
1817 1 31.9233 3.47559 45.5823
6372 1 28.2008 7.25628 41.7727
6813 1 28.8567 2.84896 42.8138
3856 1 27.854 7.43308 33.1671
3013 1 19.9325 3.58992 47.0893
1914 1 29.3972 14.6223 35.3196
6862 1 32.0203 15.1619 33.9342
3145 1 17.6235 6.14641 36.4289
4889 1 30.7172 14.3344 37.8662
7719 1 18.7088 14.0277 44.5821
1788 1 25.9287 7.30852 45.5428
4063 1 29.135 15.4806 43.3122
3664 1 20.3018 11.1287 34.665
3836 1 25.2231 16.3515 43.2783
4435 1 31.1872 5.9067 39.4474
3692 1 29.6299 2.67738 37.5059
7989 1 21.8532 12.7672 38.5255
2875 1 21.3734 6.37391 35.9922
1227 1 26.2684 10.0604 45.3578
2665 1 29.1379 10.7199 41.4999
692 1 20.5397 12.3789 41.0809
7370 1 20.1733 15.3977 34.2711
4984 1 27.2768 13.0468 36.186
7543 1 23.9304 7.80301 35.7419
1212 1 30.8373 9.10221 45.2015
2134 1 25.3545 9.97385 39.0466
885 1 29.5892 3.20541 33.5319
422 1 24.675 5.62088 37.3199
2350 1 23.9147 11.7824 35.0753
1464 1 23.3551 6.0126 39.6782
3745 1 25.432 6.36555 42.8185
4490 1 30.8438 10.6258 35.003
3912 1 26.2186 3.60764 43.5111
5650 1 18.7062 11.4814 43.1729
5022 1 23.2839 7.29951 33.0151
3163 1 20.594 8.99427 36.5092
2146 1 19.2183 5.87022 34.084
6831 1 28.7231 10.611 46.3479
4611 1 28.7585 4.85017 40.7002
3916 1 23.1736 10.2717 37.2716
1643 1 20.0668 7.2472 43.7338
5597 1 28.2937 16.2426 45.812
5484 1 29.9775 8.39057 39.8625
5331 1 28.6885 8.62062 37.3599
7123 1 25.8686 13.0471 45.4437
2692 1 23.0471 12.7971 44.8581
2050 1 20.2773 6.41373 46.5862
3813 1 18.0582 15.1552 37.7364
6016 1 20.1081 16.8919 40.8874
6592 1 28.976 10.8847 32.9746
78 1 18.6209 6.37473 39.2447
4145 1 21.2179 17.3532 38.1832
3763 1 19.588 12.9766 47.0482
6596 1 26.6258 3.12298 39.9265
7665 1 17.9541 10.8933 33.0748
2769 1 26.7136 3.43613 37.0794
6467 1 18.5264 2.99367 44.7734
5344 1 19.0652 17.2688 36.2065
6498 1 28.6225 17.0882 34.4629
6529 1 32.4685 7.44761 33.5675
113 1 31.9695 12.8113 41.0771
3317 1 31.053 17.0968 37.8595
3027 1 17.6433 9.06484 36.7127
138 1 23.5862 4.53416 32.5193
4835 1 24.2486 4.75133 47.3834
3505 1 22.4143 14.3486 32.614
1093 1 29.2593 13.6372 32.6457
7724 1 30.7909 17.3151 32.7293
4439 1 22.0236 11.6002 57.4846
7369 1 30.6168 7.40851 61.2722
3370 1 23.8031 11.9659 59.6335
5349 1 20.0941 9.34994 54.1501
633 1 29.3451 3.27557 49.3602
1880 1 27.5191 15.4012 62.0102
6541 1 21.3954 15.4945 58.2464
1910 1 23.4165 14.7752 60.3326
101 1 23.6123 16.4774 54.8198
6415 1 30.9344 14.5733 51.8239
1620 1 23.7784 5.75499 62.4515
5988 1 18.3382 11.5945 54.1553
7892 1 22.0637 5.89837 50.8635
2122 1 29.1115 10.2655 55.8305
2831 1 29.862 14.1882 49.1956
6383 1 28.2786 11.5422 60.8445
5394 1 21.0923 4.50249 53.0978
4674 1 22.1073 11.6561 61.906
1392 1 30.7594 13.3123 57.5174
3101 1 26.7616 9.47153 56.9471
775 1 25.8089 3.52206 52.6029
1060 1 20.9046 14.264 61.9563
651 1 21.0646 3.38487 49.6933
6405 1 29.286 12.9208 55.1932
2642 1 25.8201 16.0628 59.0688
1208 1 25.4559 13.1599 56.1759
4661 1 22.1705 8.09138 62.2263
458 1 23.4362 11.8532 53.3537
2549 1 23.9683 5.02126 55.7723
7990 1 22.8606 14.1377 56.2525
3499 1 25.4007 9.91746 48.2787
4988 1 19.8222 7.51447 59.2153
3316 1 28.3397 13.2168 52.4538
789 1 26.789 7.84421 61.2243
733 1 27.397 10.4759 52.4511
5047 1 22.7877 9.51706 48.128
5063 1 20.4123 9.7763 60.7569
5681 1 25.6846 10.5661 54.5604
7462 1 18.6001 16.2834 54.7606
2822 1 31.9068 10.4487 52.3504
7254 1 26.9754 7.54098 48.1751
477 1 28.8386 8.92608 59.7469
4398 1 21.138 12.0984 54.8052
5309 1 27.8665 14.132 59.5422
7338 1 18.9234 14.2903 58.3822
4237 1 21.3726 14.1143 48.8747
7277 1 24.5924 8.5134 58.3154
5709 1 29.2972 9.14944 48.8195
7497 1 29.5207 4.50352 54.2355
1863 1 27.2899 4.8331 58.8543
4832 1 28.3546 6.75138 54.9582
7548 1 25.8234 6.04749 53.8777
3379 1 29.3047 7.32505 51.0983
2144 1 26.4775 11.8434 58.488
5296 1 32.4809 13.211 48.2469
4871 1 28.9516 5.53181 47.6939
1995 1 23.8648 13.3159 50.177
47 1 17.5739 4.04304 48.8896
3441 1 31.8871 2.71372 48.2147
7157 1 24.6619 5.77143 58.2789
3085 1 18.5801 16.0182 61.731
2340 1 23.7653 14.6258 52.667
3251 1 22.1568 8.42533 52.3141
6479 1 20.3206 7.71261 56.5062
6981 1 22.6482 9.1089 56.5773
5557 1 20.4996 11.8649 50.4257
2835 1 31.6405 3.57109 52.4583
3017 1 25.4443 9.30605 50.9868
5233 1 22.9911 4.68918 60.0485
1295 1 25.7397 17.1855 56.5238
7471 1 21.3068 5.33008 55.6855
4700 1 27.2798 2.51709 47.8815
1365 1 26.4065 5.04127 61.4488
5440 1 29.8214 2.63562 61.8809
2386 1 31.344 11.0683 49.7068
4939 1 26.558 6.7084 51.0279
4424 1 25.3688 15.4843 48.932
3757 1 31.1239 6.34717 57.2798
743 1 17.7164 13.8577 55.8853
3060 1 29.1095 15.6354 57.4681
4113 1 17.7077 10.9989 56.8035
7976 1 31.7283 5.98097 50.9563
5366 1 20.1667 4.75438 60.0258
2218 1 18.3784 13.1113 60.963
4936 1 28.4832 11.8526 49.9485
5070 1 28.3722 4.69998 51.7482
7390 1 18.4699 5.09274 52.7871
1612 1 31.9833 5.44422 59.6838
5338 1 26.2078 12.6451 48.4061
2104 1 24.2023 8.28971 54.2387
1073 1 26.4255 15.2082 52.5448
1494 1 20.7016 7.71818 48.9829
2684 1 17.7695 3.41204 60.4314
3410 1 30.7324 13.257 60.4903
6127 1 31.6039 12.7797 53.7164
6427 1 24.5456 4.92906 50.3184
6563 1 20.359 3.34334 57.5098
1024 1 27.8144 15.9934 50.19
7504 1 18.9478 9.74933 49.799
7273 1 20.9378 14.7207 53.7029
2916 1 21.8568 16.0275 51.1254
6170 1 24.4775 9.32333 60.9185
2795 1 22.9975 10.625 50.7894
1577 1 17.9508 7.8076 53.5354
5949 1 19.1189 13.3786 52.1324
2262 1 29.8263 3.80491 59.3557
752 1 18.5227 15.1793 48.6813
5935 1 28.6032 7.07296 57.7054
2701 1 30.7368 10.3601 58.0546
6366 1 19.6089 11.4836 58.7289
987 1 27.3471 15.0892 55.3374
119 1 32.3761 7.57507 53.281
5758 1 29.6103 8.948 53.3807
7141 1 30.8433 16.7911 53.1439
1602 1 32.1721 5.07804 55.0137
5342 1 17.5291 8.20535 56.307
2650 1 25.9904 11.3768 62.4113
4749 1 32.4507 15.6959 59.8665
7822 1 30.1232 15.1805 62.4887
3115 1 22.5279 17.4705 59.9509
56 1 31.0579 7.40497 47.619
6391 1 30.4411 16.7267 47.5817
6329 1 23.6579 31.5268 16.2885
1569 1 27.2489 28.7746 9.70311
642 1 19.554 27.9982 7.78985
874 1 26.5781 25.2423 9.90926
6968 1 23.6606 28.5754 15.8278
2601 1 24.0345 28.8288 6.89012
2258 1 21.2789 27.0706 15.6126
1068 1 18.5143 24.3648 5.65832
6342 1 29.3855 31.7178 16.231
5303 1 23.9293 18.5486 15.8365
7161 1 20.2172 25.6076 13.2473
2192 1 17.9378 26.7609 17.0358
485 1 22.8484 30.5534 5.04769
511 1 23.2557 29.7098 13.2911
5864 1 23.402 18.6568 6.6251
7043 1 26.3951 19.5861 16.8634
7974 1 23.6268 22.8574 9.35518
66 1 24.9118 23.8289 14.9135
1736 1 21.288 28.0333 9.87081
711 1 25.8023 32.0563 7.59921
5605 1 31.862 20.0422 15.2269
1535 1 26.9353 28.9678 6.75878
5998 1 27.4016 26.6599 15.5489
7129 1 30.9071 27.4569 14.7404
7526 1 21.7039 20.0706 8.41332
7763 1 25.6372 20.3634 7.11651
3976 1 28.9559 28.9149 3.58616
1393 1 27.0082 25.5422 4.72436
1498 1 31.3079 22.8306 4.40707
7535 1 18.6171 30.6398 15.4247
4607 1 23.3356 20.5097 3.25339
2585 1 21.8023 31.3553 11.3204
3538 1 26.9518 18.8372 3.54138
4148 1 25.1784 19.0899 9.6907
455 1 21.8175 22.7085 7.18747
1405 1 25.936 21.262 4.30854
6920 1 20.2638 21.431 11.3564
2070 1 24.7981 24.8953 6.31191
5878 1 30.7568 23.7349 12.3067
5967 1 25.4596 32.0618 4.66554
5956 1 24.4648 26.5023 8.54274
5402 1 30.2314 21.2464 13.132
2133 1 19.5854 20.3487 16.8041
6104 1 30.3261 23.7628 9.36215
7024 1 29.4259 29.7591 12.3044
6667 1 31.6182 31.7136 9.50842
5958 1 29.0108 31.0424 9.89684
2305 1 22.9111 26.7253 5.23995
6766 1 29.1461 28.8226 16.3986
5171 1 19.2781 31.6574 10.069
5221 1 21.5258 28.5234 3.59843
3944 1 27.4085 29.2176 14.0437
3927 1 28.3048 19.4267 7.94292
7859 1 28.6337 31.1758 7.12334
873 1 30.1432 27.1485 12.0514
797 1 25.117 30.6861 9.88117
7241 1 24.0686 23.0616 12.2391
3796 1 25.3839 31.2729 14.0327
1108 1 26.15 22.9495 8.02337
1711 1 28.5944 26.1746 2.69529
515 1 19.9178 23.5446 9.45695
6899 1 31.982 31.8621 3.63861
6108 1 20.7856 25.5654 6.77574
5123 1 21.8416 24.5181 16.5408
141 1 22.21 25.3193 9.491
5782 1 26.2768 29.2907 4.07583
7072 1 26.8755 23.1117 11.9265
204 1 18.0464 30.8425 5.38349
64 1 27.4731 20.786 13.3958
5765 1 21.9265 18.1348 4.18733
6465 1 31.3876 30.2141 7.00685
7407 1 31.9001 24.9385 15.5272
1929 1 20.1911 22.7987 13.7212
6953 1 22.9591 25.7364 12.254
5163 1 31.274 28.0409 5.10081
2276 1 32.0063 18.1697 13.0218
132 1 20.0307 30.6725 7.51025
2558 1 30.305 21.4268 17.1951
2289 1 18.0039 22.1412 7.70694
4797 1 29.1199 26.5064 9.44873
3413 1 29.7373 19.1096 3.95041
3260 1 26.5737 27.1939 12.0452
5263 1 19.3107 28.0932 11.8131
810 1 23.9895 28.1204 11.0558
1931 1 19.0326 19.5578 7.792
3741 1 19.1822 28.3067 4.97864
2782 1 18.3626 25.2632 10.9189
6551 1 21.7978 17.53 9.76246
3587 1 19.6463 18.7225 11.3468
2235 1 27.8201 23.0918 5.67211
7160 1 29.7714 20.9162 6.08123
7047 1 24.9433 26.5453 14.2339
2375 1 28.4289 25.156 13.2476
6317 1 26.9676 22.1503 15.8309
7349 1 22.4304 19.5465 13.6586
6948 1 31.0703 18.2896 8.27841
1074 1 20.2073 21.9337 4.93732
6719 1 19.4058 19.1264 5.04452
4583 1 20.522 29.2778 13.9063
4668 1 27.9248 17.9347 13.7922
6874 1 28.2259 21.8282 9.66363
3167 1 22.9762 20.5375 11.0036
3073 1 30.9779 31.0866 14.0896
4573 1 23.4744 22.9563 4.78761
2443 1 30.571 19.4912 11.0022
4963 1 28.8754 26.8484 6.62414
2655 1 21.6926 24.9042 3.36066
4056 1 30.1775 24.4224 6.55412
4419 1 22.7195 22.2551 14.8448
6747 1 20.6207 32.1828 13.7281
834 1 29.4567 23.6338 15.6296
3352 1 27.7769 19.1123 10.9174
3892 1 22.5426 30.2891 8.80213
1581 1 29.2695 31.7208 4.32338
1167 1 17.7151 25.3725 14.8004
4369 1 19.1692 25.9992 3.31908
5116 1 18.6359 22.9537 16.0078
2810 1 25.0201 26.871 3.16797
355 1 19.6947 19.2889 14.2413
3122 1 32.3876 21.4713 9.81859
5360 1 17.9876 20.841 3.32281
2993 1 32.3312 26.9564 2.56749
1644 1 22.3752 20.662 17.219
577 1 28.256 17.5394 16.62
4847 1 32.3608 20.4982 7.05735
4100 1 17.5108 21.7472 11.5944
3533 1 28.1081 31.2608 27.9499
1007 1 20.1048 29.6428 26.2666
5626 1 27.8213 24.6619 31.6008
5666 1 26.8116 28.7697 20.4825
1125 1 23.4412 20.564 22.9253
7329 1 21.9114 19.1587 19.5297
698 1 28.5505 25.2043 17.7605
3527 1 23.2262 17.9077 29.8001
3248 1 31.8306 30.7595 19.4747
6626 1 28.9633 31.2825 19.1273
1683 1 25.3492 27.1746 17.7421
3114 1 28.5212 25.8449 29.192
1106 1 24.6765 28.2251 25.7954
4232 1 20.2764 26.7676 26.5477
6286 1 27.2489 28.7385 26.9997
2555 1 19.6436 30.8007 23.5361
5391 1 30.9113 23.0804 20.5907
427 1 26.4861 20.0277 26.7718
944 1 30.8446 28.8753 25.53
7396 1 30.4184 29.5173 31.3522
6070 1 22.3557 24.7385 26.079
728 1 21.4545 19.5695 28.0705
3552 1 29.45 19.2436 23.8956
1833 1 30.567 21.2977 28.4252
2318 1 21.3229 26.1069 19.7537
1387 1 18.6533 18.053 22.1248
3534 1 25.9309 22.9876 23.45
522 1 26.0048 24.797 27.984
4347 1 22.0931 29.8707 18.0695
1232 1 22.1254 24.9739 23.3424
4294 1 22.7139 18.75 32.424
1455 1 26.2396 26.9081 32.0796
5623 1 21.7432 28.9528 22.7445
2553 1 26.1469 27.1254 23.5755
4305 1 32.1329 17.9586 19.4788
296 1 28.1757 30.8932 30.6123
1409 1 22.1335 30.9866 20.607
123 1 28.9327 20.4471 30.5281
4743 1 19.0301 20.2576 28.9764
3932 1 29.9135 24.034 27.6636
2574 1 29.1938 17.8186 19.3452
2165 1 18.2213 22.3898 22.4256
6748 1 18.2258 32.2264 32.0886
7058 1 32.0637 19.5656 22.8568
2237 1 18.5758 24.8067 23.6486
2856 1 28.191 20.6369 18.8056
5330 1 21.0952 22.3814 22.6518
2658 1 24.5148 29.1973 29.7073
3437 1 19.2768 31.3379 20.8252
6894 1 22.828 22.9546 31.7672
4189 1 22.4582 27.2056 29.6906
6546 1 30.9542 28.2986 18.4583
4850 1 20.3604 21.5883 25.3118
6996 1 23.8896 26.457 27.54
3301 1 25.971 20.1164 24.0894
7761 1 25.2848 22.0694 28.1886
2940 1 24.4667 29.126 32.3765
6196 1 26.4061 18.1832 20.8355
6955 1 22.6689 17.8985 21.9513
6979 1 30.8373 25.5648 19.1473
1770 1 24.6583 19.513 19.1659
7512 1 24.0004 17.5111 25.9089
1423 1 26.7406 29.7612 17.7865
1515 1 31.7213 31.3542 29.5511
900 1 30.7229 26.285 24.0023
3688 1 29.0409 26.5227 26.3756
7296 1 17.8572 28.7842 29.6266
6106 1 27.1487 24.6904 25.2797
2105 1 29.3823 22.8342 25.1131
4474 1 27.0647 28.3755 29.7867
6848 1 20.2501 26.6556 22.243
4902 1 23.2506 23.8396 19.9705
6420 1 23.3657 27.8576 19.4383
4702 1 22.706 21.9933 29.1681
592 1 30.7361 31.3263 26.9963
5255 1 26.7357 22.0688 30.8003
3649 1 24.2156 22.7636 25.7103
5434 1 18.7444 19.2982 24.725
2994 1 25.2734 21.7394 20.9109
5297 1 24.425 28.999 21.9588
6247 1 19.8577 31.8294 17.8239
6445 1 18.0632 22.2847 27.1594
7619 1 31.9812 23.8094 24.9291
3290 1 31.4344 31.6062 22.1123
3294 1 18.1892 23.1108 32.16
1016 1 28.5144 26.0051 22.2811
7828 1 20.0674 28.0143 18.099
7172 1 22.8776 20.23 25.6573
3934 1 21.1308 21.8634 19.653
5341 1 17.8051 28.0814 22.2831
424 1 23.7855 25.658 31.6297
2483 1 24.59 25.1669 22.1004
6322 1 28.054 29.2613 24.2818
5332 1 26.4404 17.5665 32.4925
51 1 20.1851 25.6007 29.1579
2361 1 23.562 31.718 28.9399
437 1 19.7787 24.0103 18.3722
536 1 27.808 20.4311 21.8776
3291 1 20.4987 28.9359 30.3017
3946 1 32.0741 22.7668 32.3319
7076 1 28.5784 23.0995 22.2755
1841 1 20.7482 23.1596 27.7031
4945 1 26.6341 25.9647 20.0996
2424 1 18.8685 20.476 20.6195
5612 1 29.1477 17.7654 27.6132
7911 1 22.8353 30.1849 25.1307
4933 1 29.1099 20.3425 26.332
338 1 20.7449 31.1085 28.6814
4313 1 26.6133 23.2954 18.8794
4376 1 29.1626 29.7475 21.7229
4409 1 30.4737 20.1659 20.6353
5656 1 30.6822 27.4646 21.2994
7419 1 31.1208 27.1433 29.9173
4007 1 20.4852 24.3465 31.6387
3180 1 18.9411 20.4281 31.5392
2282 1 24.966 31.6677 22.7919
122 1 27.7561 17.8597 30.0324
6759 1 25.734 32.273 17.9506
3306 1 17.9752 25.092 26.3025
2691 1 17.8308 29.1857 19.7798
1681 1 20.1566 17.7201 26.6015
2768 1 25.5706 17.8035 28.2745
230 1 32.4655 27.5773 27.6595
4860 1 27.2937 31.9829 24.2524
7316 1 20.3902 17.6026 17.6528
2315 1 20.8521 31.9899 32.3857
5513 1 25.3377 20.1899 32.3838
1781 1 24.4451 24.6316 17.6025
2978 1 28.4771 28.7233 35.3614
7207 1 24.3956 26.3772 44.1081
7797 1 18.3752 19.9552 36.129
7643 1 28.9435 22.4415 42.7594
3407 1 26.1459 30.3221 35.2765
7209 1 23.0992 29.5722 44.7338
6480 1 28.5243 28.0693 44.9127
178 1 27.0119 25.5315 44.4783
350 1 21.8368 25.1754 41.9308
5234 1 19.7507 26.0369 45.9543
3928 1 31.4979 18.4465 45.4641
2779 1 25.7609 28.8263 44.7565
1033 1 31.6672 30.4871 33.6255
203 1 17.9204 27.1105 41.7528
4425 1 28.8355 31.0824 41.6478
2012 1 28.7333 18.0378 42.3562
341 1 31.2755 21.1225 36.4067
4026 1 22.7958 24.932 45.8075
7925 1 25.3179 23.3808 39.1085
1404 1 21.9206 29.5776 35.6779
2123 1 22.5863 32.0638 36.87
5576 1 22.0183 30.2374 40.6619
4537 1 17.5118 30.1066 33.8659
6969 1 20.7432 21.1428 45.6932
5716 1 24.7575 19.0886 36.5636
4961 1 31.6624 30.3764 39.1407
6398 1 17.5348 29.9195 46.8445
7124 1 23.4485 24.967 37.7718
5875 1 19.0674 23.7827 38.9939
4979 1 20.5661 19.4734 41.9547
4167 1 31.3145 29.3728 41.8441
2673 1 22.0732 22.937 43.729
2781 1 31.2688 26.3328 33.9303
5288 1 28.5943 22.9346 47.3643
3099 1 30.4008 22.3255 45.2166
7661 1 27.8343 19.6422 38.6327
6814 1 20.9184 21.3432 35.4523
1398 1 29.0843 27.5958 42.1443
2894 1 17.548 18.0525 40.7424
4040 1 24.6764 27.5601 37.7845
7286 1 24.8739 27.4702 40.5749
7727 1 22.0748 27.7142 46.715
4892 1 19.3236 27.8057 37.9287
6699 1 30.5431 30.1623 36.3218
3181 1 21.3429 20.974 32.9139
1850 1 31.4995 31.3571 45.8468
6937 1 24.2907 21.9201 42.4614
3000 1 27.7349 30.5662 45.9577
4220 1 18.8134 21.0379 43.479
732 1 18.2796 20.0054 38.9714
3238 1 26.6035 21.0846 43.7339
3006 1 25.9261 18.7107 42.1085
6856 1 19.793 23.8257 36.3785
1030 1 19.7336 26.4331 35.4141
1848 1 30.4409 20.2355 32.7924
6502 1 19.3493 30.0954 35.9488
2048 1 21.0101 31.142 43.0118
1023 1 18.3155 31.3915 42.0285
7252 1 24.4314 28.0867 35.0197
5453 1 26.1898 25.8165 34.5699
3975 1 22.5887 28.0189 42.3076
2770 1 25.6597 18.4931 46.7162
1457 1 21.8148 29.4223 32.8532
304 1 29.4203 18.987 36.4124
1986 1 24.8354 24.7671 41.766
4814 1 27.9408 24.7258 39.2412
6268 1 18.7954 29.5495 44.358
639 1 24.8985 31.1809 40.5019
4710 1 21.4833 32.4903 46.8809
3833 1 26.344 23.0809 45.6482
757 1 20.139 27.2246 43.4601
5428 1 26.0861 21.1089 35.0746
2735 1 22.1795 28.4714 38.3688
3210 1 26.613 29.2618 41.9589
6447 1 31.2216 24.8261 36.4223
1655 1 31.7366 26.5849 38.6058
916 1 31.0655 23.5633 41.3149
4680 1 31.1454 25.9816 42.9285
5478 1 22.4726 23.8173 35.5915
712 1 28.5812 25.8493 46.8012
1337 1 27.8011 24.9985 41.9564
7084 1 29.6078 20.4074 40.7732
3001 1 28.9485 27.4319 39.2797
811 1 28.822 30.1722 38.7521
6289 1 26.0937 30.0543 38.1251
5625 1 22.2115 20.1254 37.5762
6914 1 30.2788 23.054 38.4833
3707 1 22.5003 26.2294 34.0807
1158 1 28.8558 21.5463 34.7562
2944 1 19.37 29.2709 40.3765
7975 1 28.4737 24.2941 35.8058
2700 1 25.199 18.8049 39.3668
1344 1 20.6753 21.4015 39.7514
4981 1 19.5313 18.3807 45.6015
6866 1 32.1374 20.7647 39.227
1000 1 24.6747 23.2096 34.0897
2535 1 27.301 26.7903 37.1737
6178 1 23.1316 19.6497 45.8748
7414 1 31.1347 25.0513 45.4127
4114 1 19.7833 23.1851 41.7877
1173 1 27.9157 18.8819 45.129
3880 1 21.26 25.8311 39.2286
4899 1 29.5588 20.1848 46.9189
7027 1 27.3431 22.1986 37.5804
935 1 29.7541 23.8833 33.3196
7339 1 28.8882 27.7286 32.8998
4548 1 23.1876 19.1783 43.0743
7805 1 31.462 18.8644 42.6798
4894 1 23.6279 21.2265 39.8718
1590 1 31.1867 28.893 44.6771
7220 1 20.3514 30.0682 46.9879
1258 1 25.7244 32.4374 47.0227
3104 1 17.5609 24.4944 42.2982
7388 1 17.5415 23.5553 34.8206
2582 1 26.1883 31.4488 32.658
5426 1 23.5789 32.5 45.123
395 1 19.8904 17.7529 32.5862
3271 1 20.195 27.081 32.5573
7137 1 27.5209 25.5547 60.2237
5203 1 27.7102 23.4261 55.3288
1266 1 23.8697 17.8209 50.0079
1776 1 28.5467 26.8334 53.2183
891 1 26.5772 27.2817 56.9792
1316 1 21.9706 27.2074 49.6117
5883 1 24.2536 18.3163 52.801
2233 1 17.8603 27.5599 61.3779
7325 1 26.1767 22.2385 61.682
3118 1 28.328 20.7049 52.6656
461 1 26.473 21.9327 49.2815
3377 1 26.9705 17.9332 60.9186
2892 1 30.5523 22.9183 49.2909
3871 1 30.3649 28.0974 55.0413
921 1 31.2357 24.2513 55.8005
5256 1 30.0459 21.8738 54.6217
6909 1 31.6788 29.4715 50.0139
2904 1 29.3424 29.1081 51.8097
5132 1 27.0796 25.4622 51.3579
7516 1 32.2079 30.1198 57.9573
2313 1 25.6929 27.553 60.5372
3364 1 20.739 29.6894 52.8158
5002 1 28.811 23.0866 61.0612
991 1 29.1324 21.3694 58.6675
7709 1 21.6465 19.5812 53.0077
2748 1 21.1226 30.494 58.0376
4138 1 22.2738 20.1346 50.1776
1417 1 19.2749 20.3088 49.6203
5545 1 20.221 22.9113 58.0275
2172 1 24.8119 28.153 47.5254
5429 1 23.3267 28.7073 51.8048
5816 1 32.3844 20.9272 53.3029
3691 1 21.4224 28.0673 55.1274
7281 1 29.0114 25.865 56.2172
5347 1 19.6647 25.9976 54.2703
375 1 23.3083 32.0883 62.4771
3292 1 23.0189 31.4 50.6718
2436 1 31.4405 22.6426 58.0052
5106 1 21.3298 18.3601 57.5486
962 1 23.6784 24.7792 56.0863
3128 1 29.2415 18.4146 49.378
4823 1 25.5671 20.8947 53.4631
5702 1 26.07 27.4988 54.2744
4387 1 23.6712 25.3792 59.9226
6186 1 24.6806 21.4734 59.3577
3486 1 30.6008 19.2517 51.8284
2785 1 29.1193 31.8528 52.5914
2888 1 19.6402 17.7641 48.3745
688 1 19.2711 20.3927 60.9267
5105 1 20.9512 24.1598 47.9512
1100 1 21.7146 24.8149 52.4313
5987 1 24.4524 19.174 60.9539
6515 1 24.8779 30.2125 53.781
5102 1 25.4029 30.2573 61.4067
1857 1 29.757 30.665 48.1431
7930 1 24.4746 21.997 51.1285
4679 1 18.5445 31.6656 50.2284
671 1 25.2593 23.5405 54.1454
3811 1 22.3988 21.6967 47.9729
1652 1 19.9053 27.8918 57.7875
1845 1 30.9036 27.1598 48.1825
1673 1 29.5699 31.0363 57.6777
2020 1 24.4881 24.7727 51.7931
1907 1 27.1654 26.8688 48.879
1049 1 24.3139 25.814 49.1674
7366 1 20.7768 30.6936 61.893
6266 1 18.3832 27.9269 50.4405
5641 1 31.0567 32.2923 54.6643
2803 1 25.084 30.4907 48.8552
3109 1 28.9478 19.8961 56.1996
2085 1 25.7282 24.87 58.0521
1785 1 22.2073 22.485 56.1884
3047 1 26.0318 19.8846 56.0113
2757 1 18.4531 23.1294 60.4124
251 1 19.4246 25.8579 59.7749
4054 1 18.8492 22.6477 55.4032
5990 1 23.1411 30.2362 56.141
220 1 18.2856 28.2456 53.3831
3479 1 31.5487 20.2938 49.2856
5535 1 25.9803 31.225 58.5775
4563 1 27.8024 28.956 59.0203
6944 1 18.7367 25.2478 56.9
4386 1 31.5147 32.1975 51.0353
2198 1 22.749 29.4608 60.2226
2113 1 32.1821 25.1892 49.4103
6309 1 28.5038 22.9338 51.1449
4844 1 22.574 26.7611 57.478
3452 1 20.9488 22.3623 53.5639
2711 1 22.3737 22.8399 59.8134
2147 1 29.6317 26.8355 58.7023
7648 1 26.6463 22.2072 57.5877
6154 1 31.9187 28.0846 52.6007
7258 1 23.4515 20.2407 57.1584
3245 1 19.2253 20.138 58.1785
1975 1 31.7258 24.795 59.6324
5377 1 19.8847 25.318 50.3846
5901 1 18.9876 29.5562 59.9828
6011 1 20.5291 18.0073 61.6822
4942 1 20.6709 29.7864 49.8887
7386 1 21.7751 26.9566 61.1508
1704 1 30.2145 24.372 52.9723
1103 1 23.4745 26.5854 53.6759
4331 1 30.392 18.0736 57.9283
3767 1 28.7891 30.3628 54.9084
5268 1 26.5849 19.1981 49.4804
3523 1 27.6291 29.5303 49.5601
6036 1 27.0173 18.096 52.131
5749 1 29.2475 19.101 60.4769
4701 1 24.4436 28.6602 58.0731
1720 1 19.7778 18.0375 51.2986
402 1 29.614 29.7972 61.0189
3412 1 26.3536 31.6652 55.8415
1120 1 26.3648 31.2771 51.5201
97 1 31.7916 28.2741 60.1479
7458 1 21.2744 22.1269 62.2823
4728 1 17.6941 30.4554 55.1073
6426 1 18.6062 21.828 51.9941
6269 1 19.8084 32.1275 56.1288
1717 1 28.6287 17.6733 54.4972
4150 1 30.3878 20.9889 62.2023
7777 1 30.7744 24.6316 62.3444
3764 1 17.7359 27.2423 47.6766
6679 1 21.1114 17.6171 54.9418
89 1 31.3615 17.5721 61.8167
5840 1 24.5831 24.3054 62.4375
6818 1 18.9334 22.2581 47.7489
3894 1 24.5099 23.4917 47.627
3639 1 30.5738 32.3627 61.1534
7045 1 20.2514 32.4221 53.4274
5474 1 22.2641 17.6323 47.6432
4032 1 27.2026 32.3382 62.3694
4817 1 23.8219 44.468 10.0029
3516 1 30.1321 37.7193 5.58906
7321 1 25.0389 38.9053 15.205
1202 1 19.5675 32.6065 3.53898
3136 1 28.5817 42.7855 14.6686
3233 1 32.2327 37.9761 7.55385
6328 1 20.0313 43.5501 5.45999
7463 1 22.6357 33.7709 15.0766
2455 1 28.9134 40.2975 8.51494
5829 1 21.0738 47.3473 2.5289
1397 1 26.8184 43.207 7.03399
1916 1 31.2904 45.6158 3.6461
2998 1 27.4895 40.5233 4.04867
4740 1 21.1746 45.9337 9.73073
3701 1 21.1454 34.9555 2.74175
3166 1 23.5653 41.049 4.93261
7189 1 20.4838 42.0621 11.0521
3116 1 31.0502 45.4544 14.6982
3311 1 20.5441 43.2615 8.45735
6227 1 19.7612 36.0133 8.65834
6834 1 31.1975 40.1794 12.6989
7895 1 25.5061 32.9393 11.7665
7308 1 27.0299 39.626 11.8347
7638 1 23.4361 35.746 6.89476
6593 1 26.7477 45.2627 14.6278
7771 1 18.4895 46.5924 10.5787
3792 1 27.1769 42.3093 9.6824
4239 1 20.2487 46.1832 6.94714
7282 1 21.4667 37.43 4.11814
6040 1 17.5013 46.7884 16.6413
3565 1 29.4441 44.4663 7.87456
4261 1 24.6498 43.8539 4.24826
439 1 31.3333 35.3351 4.55766
1639 1 26.7689 41.8965 16.9439
7674 1 30.7122 46.894 7.72448
4478 1 30.0867 35.3544 9.94261
2019 1 30.3176 43.2226 5.44639
4555 1 27.2403 33.1209 15.1143
5101 1 31.5397 33.9593 7.90936
7843 1 29.0163 41.6967 11.8342
3396 1 22.7281 41.8225 7.47216
4999 1 25.6683 37.1244 5.55232
2823 1 24.4393 41.7166 10.0426
205 1 19.4436 39.589 6.1562
3955 1 29.9799 40.3906 15.2771
2322 1 21.8242 44.1947 12.1092
6100 1 28.8847 34.4644 13.1288
864 1 29.1944 38.1585 10.2996
1056 1 20.8611 41.1286 4.28638
5573 1 23.2433 33.8421 10.5873
5928 1 18.6909 44.6225 14.8466
589 1 23.9988 38.3794 3.793
5468 1 31.6631 36.5298 16.0531
1889 1 31.635 33.9325 13.8394
3195 1 23.2854 34.3034 4.47539
2771 1 20.7559 35.0988 10.9643
1762 1 28.7576 47.2019 13.9619
5292 1 26.0558 40.776 6.28359
7867 1 18.6124 33.6415 12.1468
3808 1 30.9425 37.4328 13.4683
6674 1 29.7945 40.5261 5.89073
4143 1 30.5746 42.4947 9.67013
7533 1 21.0658 45.8609 14.2752
4531 1 18.2688 37.5872 17.4954
6119 1 18.9572 47.022 4.55716
1235 1 27.9551 33.5551 10.6275
1357 1 22.8531 44.0683 15.7746
4938 1 26.5317 38.5873 7.82884
7502 1 18.0455 35.8059 14.0885
2999 1 29.5994 44.5354 12.3456
3455 1 25.0267 35.1754 14.9721
1364 1 17.8605 42.0743 12.3506
7992 1 20.4191 42.7276 16.0091
279 1 20.3653 36.4635 15.8648
2678 1 28.1888 37.186 12.9324
1699 1 18.6361 39.6849 13.5731
6087 1 28.726 36.5767 7.70438
5822 1 18.0679 44.5718 3.45729
1077 1 24.3281 46.5205 15.7877
6240 1 30.1171 43.8246 16.8353
1647 1 27.6279 44.4458 4.75801
5150 1 26.0762 41.3001 14.1336
749 1 21.3162 37.5138 6.85025
7579 1 26.6907 46.6968 6.09328
7036 1 24.0265 43.0017 13.4209
6160 1 27.7464 37.7879 3.58532
7074 1 31.3628 42.8551 2.68417
7585 1 20.2474 39.3686 10.1401
6589 1 21.838 36.2555 13.5071
4192 1 24.0941 44.3037 7.1691
7849 1 25.5193 44.93 12.0849
2632 1 19.5456 37.39 12.1165
664 1 26.9335 34.5661 5.32827
556 1 24.5749 36.1662 9.58857
1690 1 21.0615 40.6292 14.4089
5712 1 23.8697 38.0604 12.681
7605 1 25.667 35.8181 12.4471
1579 1 18.9854 34.2517 6.83252
4820 1 31.7469 39.1407 10.2278
2056 1 24.8626 38.8327 10.0573
6653 1 22.4295 39.2157 8.67729
4692 1 23.2757 33.0735 7.87082
2478 1 22.0771 45.0951 3.80509
4378 1 27.9361 38.5894 15.3686
6336 1 26.5079 34.7321 8.32828
7167 1 18.3341 42.1889 7.17566
6436 1 22.8766 46.5895 6.12811
968 1 29.3637 33.9943 6.15741
1243 1 27.757 45.0532 10.2128
7678 1 31.9735 44.8728 10.6422
7862 1 22.7986 40.7225 12.2854
3982 1 31.2772 33.7607 16.8336
7143 1 24.5983 47.3975 12.8548
360 1 22.6378 39.6853 16.532
6923 1 25.7304 46.2208 8.73379
6038 1 31.3557 38.6898 3.07921
396 1 17.8291 39.5567 8.62682
1410 1 25.446 36.7238 17.2974
3818 1 21.2456 32.7267 5.83315
7588 1 25.9836 44.7835 17.4067
667 1 29.1 36.9101 17.359
6134 1 18.2741 41.8624 17.4549
5692 1 27.4521 35.0628 2.52515
4456 1 20.0568 37.2118 25.9121
762 1 28.2501 39.7771 22.524
6301 1 23.3492 43.8322 18.525
5165 1 26.4353 38.404 20.7636
2243 1 18.8277 47.1166 21.942
5403 1 19.3656 33.625 28.5712
4178 1 23.8775 43.1391 29.0966
7214 1 26.2502 43.6319 27.4936
4084 1 23.4614 39.698 27.3557
6400 1 19.5136 47.465 24.6921
6504 1 25.2659 33.5137 20.7086
3717 1 20.116 40.6434 22.6292
6484 1 19.8696 38.0827 28.5126
1558 1 21.6465 41.6261 26.6305
2909 1 30.6261 37.3367 19.6188
467 1 23.6986 39.1095 23.3089
6625 1 27.9362 42.3816 23.4978
466 1 31.0876 39.783 29.335
2399 1 30.4922 38.838 24.0683
457 1 27.7508 46.0885 27.4965
793 1 21.9533 46.3764 19.1625
4856 1 32.0422 42.3295 28.3882
5471 1 29.559 36.0941 23.7584
1603 1 29.3141 46.1797 18.1378
3868 1 26.3973 38.8486 24.5189
2832 1 24.7057 36.1858 21.5442
5581 1 28.0205 33.8579 20.1084
5258 1 25.3453 36.732 29.7909
6253 1 21.8248 44.1635 22.632
5926 1 32.2785 37.7581 21.9605
7711 1 28.4995 36.3832 21.1752
7806 1 21.4447 35.5542 29.3501
3236 1 27.9554 37.5813 27.5221
4935 1 30.319 46.1241 20.6481
6148 1 29.2907 33.3789 22.7438
543 1 21.3614 46.4376 28.022
3969 1 18.5612 39.3216 31.8064
6136 1 19.8917 41.3858 30.4766
4780 1 18.9102 40.8851 27.764
365 1 22.4526 41.6149 24.0821
6296 1 25.7368 44.0855 31.0199
3281 1 20.6091 33.3784 24.1729
5157 1 31.4828 47.3138 32.2199
6639 1 28.6058 44.0022 21.1187
2947 1 27.0704 36.091 25.3444
2246 1 18.212 34.8415 30.8313
2156 1 28.2065 40.2582 29.9391
7364 1 24.4192 33.5043 27.0675
6161 1 27.0791 39.0969 18.1096
3842 1 18.6944 43.6786 27.1886
36 1 21.5434 40.0669 20.1444
1707 1 19.8928 44.7937 20.5163
842 1 31.454 40.156 17.6315
2870 1 27.9792 42.9469 29.819
3614 1 18.4993 46.6463 27.3211
7191 1 25.1195 38.2744 32.2312
4635 1 20.8125 42.4986 18.9112
5252 1 27.1861 34.4384 29.6235
5266 1 28.4813 47.2977 24.919
6116 1 25.5439 46.68 30.1324
5004 1 24.4075 40.664 30.6867
6883 1 25.8947 40.9077 26.3987
4485 1 29.8271 39.5531 26.8074
1801 1 22.5505 44.2808 26.7675
3430 1 25.2315 33.6894 31.6287
3849 1 29.4741 43.7123 32.2364
5572 1 23.6386 36.1099 27.8095
5747 1 18.8096 44.0748 30.0063
6784 1 24.2815 41.2079 18.0997
7403 1 32.401 35.3073 23.5517
7243 1 22.8972 37.5938 25.4698
6616 1 30.279 45.544 30.2966
7439 1 21.8836 39.5943 29.8971
7531 1 22.8199 45.5228 30.2716
6970 1 31.9474 41.2954 23.9243
4557 1 18.8176 39.6644 25.1447
4690 1 19.0389 34.5582 26.011
3824 1 22.2358 37.4378 21.4595
2092 1 29.4756 39.922 19.7015
898 1 28.8462 42.459 18.9207
5748 1 20.0435 36.9432 31.3277
2051 1 26.0018 39.1587 28.6658
7889 1 24.8629 45.4251 25.4538
3347 1 20.6485 34.9858 22.0197
1994 1 18.9707 38.3435 20.2045
2191 1 28.465 41.917 26.3475
5080 1 21.3226 43.7059 31.6323
923 1 23.1941 36.2574 18.868
5710 1 20.3433 44.8277 25.0162
4629 1 22.4969 33.7544 20.3288
7704 1 31.4641 35.6144 27.1623
613 1 29.85 43.9167 27.7554
6440 1 29.6432 35.9708 29.2119
2025 1 29.7184 33.3494 30.5011
7748 1 18.2375 33.916 21.1854
6211 1 18.5876 42.4391 24.464
257 1 29.8466 33.9367 25.7583
151 1 24.2592 43.338 21.3687
7683 1 30.5722 43.6587 23.1889
4801 1 30.3334 45.3313 25.3745
617 1 26.1171 45.4695 21.2854
2035 1 18.3234 42.7227 21.5889
4371 1 23.187 46.5244 23.3118
6354 1 25.2188 42.8484 24.2028
54 1 26.0951 47.3335 23.5827
3019 1 27.2138 33.4986 26.8901
4789 1 19.7835 37.6531 22.9617
5594 1 24.5827 35.6037 24.1574
866 1 24.2987 40.4496 20.8154
6475 1 30.9539 37.4491 31.1629
3881 1 31.1054 40.2229 32.2595
853 1 30.8307 34.4708 19.5913
1353 1 22.7365 33.4217 30.9207
1667 1 27.789 39.0334 32.3962
7071 1 23.304 32.911 24.6962
631 1 26.782 46.9876 18.9757
1888 1 17.5831 40.7154 19.9208
5888 1 17.9649 44.4617 18.4038
5488 1 21.1533 38.0313 18.1376
1744 1 21.3966 34.2113 17.6004
2704 1 23.9822 47.2082 20.7706
3809 1 32.2373 32.5774 24.7328
5805 1 17.5078 46.5717 30.0381
1906 1 22.3759 38.4471 32.475
2273 1 32.3766 38.1238 26.2096
5129 1 27.3165 34.6812 17.6574
7445 1 19.1079 41.2425 41.353
217 1 18.5732 40.3504 37.3476
4486 1 26.735 37.873 36.6137
7681 1 18.7812 47.4512 38.1255
5983 1 28.2707 47.2381 44.6321
4195 1 18.08 40.0394 46.6933
823 1 23.9063 34.542 35.7143
1752 1 19.3769 33.8405 45.3769
1048 1 27.1535 41.5911 37.7624
1229 1 31.9401 43.6488 33.4395
659 1 25.6208 40.1679 39.8808
6672 1 18.0474 42.2847 33.8749
3850 1 30.6079 34.3222 32.8739
2188 1 30.4134 45.9991 41.0831
299 1 24.9019 35.7565 33.3893
4336 1 27.5464 41.721 45.9728
4943 1 31.5895 41.911 39.8952
7149 1 19.151 32.9302 36.6107
3939 1 31.2488 40.6916 45.4961
4413 1 26.5905 45.3969 37.7661
2292 1 20.7381 39.109 45.8973
6598 1 27.9041 39.9714 43.9272
6138 1 25.4234 36.0404 43.4687
780 1 24.13 38.7299 37.8119
7720 1 26.6655 41.7096 35.15
130 1 20.4281 36.2908 35.3845
1255 1 21.4959 41.6364 44.9783
4329 1 28.2451 45.3065 33.9768
1014 1 25.0246 43.2684 38.6103
669 1 27.2702 36.0923 34.7193
4584 1 21.5492 32.6457 39.463
3169 1 30.5978 37.0327 37.6412
5301 1 26.0849 44.4971 43.2263
760 1 23.4712 45.2814 39.8046
429 1 20.9668 45.8362 33.4733
5305 1 19.6626 45.5859 44.5693
2125 1 25.1192 46.309 35.5598
6560 1 26.4095 36.3777 39.063
1748 1 21.3354 43.9665 46.3839
4807 1 24.5387 38.7866 45.7035
3353 1 31.4277 38.0668 35.22
4853 1 18.7393 41.4183 44.1272
2571 1 20.9571 44.4624 37.1753
1281 1 17.6431 43.9327 43.5419
1940 1 18.3375 46.4148 34.1092
1617 1 28.8826 41.2262 33.6169
3780 1 28.7984 39.263 38.0595
5448 1 20.9526 34.9383 37.9161
3788 1 21.6167 41.0811 40.1509
3002 1 18.7394 32.6463 39.3737
2112 1 31.7214 37.3717 40.1564
3613 1 30.9497 46.9955 43.7907
1175 1 21.4013 39.5185 37.719
6757 1 24.3105 46.4635 43.9609
4139 1 31.395 35.1302 41.8301
5632 1 20.3778 36.2785 42.6994
7676 1 18.1221 34.763 41.5011
174 1 28.8276 35.0707 38.1408
57 1 18.8731 38.4387 41.3494
3926 1 28.1477 44.2519 40.0771
3117 1 29.5032 37.0973 33.4113
7421 1 29.3681 33.6717 40.3674
1832 1 27.6563 46.6371 41.8485
5669 1 17.9558 46.7476 40.7105
4120 1 22.4912 42.2466 37.5353
192 1 27.3532 38.0393 46.0803
822 1 19.1811 36.7845 45.2981
3861 1 18.5682 43.1164 38.4525
1501 1 29.0529 36.7418 42.5548
6274 1 23.6103 40.957 47.025
7242 1 23.1715 34.3015 41.2271
5024 1 30.4026 32.6549 35.1229
2414 1 18.1315 45.1306 36.5335
3191 1 23.5042 42.1443 42.9657
4315 1 30.5517 38.9788 43.4696
2047 1 21.5502 33.8293 43.4074
3670 1 25.3159 33.7532 39.3946
568 1 32.1584 33.0771 39.6614
5827 1 23.4166 39.5516 41.7109
4809 1 28.4043 41.8713 41.9517
4009 1 27.9391 32.5321 43.9721
3797 1 19.027 44.0862 41.0157
1723 1 20.6656 43.0652 34.4417
1828 1 30.494 35.6751 45.6014
7434 1 30.3273 40.6973 36.0891
4556 1 23.9558 45.0627 46.4977
4067 1 29.1736 45.2902 36.5792
206 1 25.8199 44.0988 33.9496
6198 1 23.6586 35.9756 38.2339
3668 1 20.2401 37.4151 39.1073
5944 1 22.4741 37.9488 43.9811
3227 1 25.7353 38.6259 42.9766
5940 1 21.8363 43.8351 41.4307
4866 1 23.3436 35.4536 45.0545
6323 1 27.0806 34.7967 41.4762
6750 1 25.2308 33.056 42.7689
3055 1 31.7968 43.9599 36.1993
6356 1 18.4829 39.6561 34.5591
5985 1 28.1124 44.3741 45.2257
3845 1 22.4341 36.9053 40.676
2204 1 30.3712 43.1287 43.9277
4868 1 27.6341 38.3151 40.6207
4140 1 21.2356 33.4886 34.7696
6380 1 29.6956 42.7762 38.0465
1694 1 25.6099 32.6493 36.7965
6791 1 25.7651 42.709 41.2338
5571 1 25.0723 39.4961 34.9144
2486 1 24.9229 42.7551 45.2877
2481 1 22.4739 46.502 35.8797
6209 1 30.1181 39.7953 40.6578
6677 1 27.8365 35.3823 44.8269
166 1 21.1803 38.9536 35.0454
5717 1 22.8507 41.1934 34.8965
5548 1 27.9784 33.6935 35.8466
1796 1 18.1907 36.1758 33.4441
896 1 31.9933 43.8494 41.7973
1415 1 21.7765 45.9961 42.9399
2426 1 18.0045 36.6936 37.1757
1566 1 30.6493 33.2894 43.9006
6074 1 21.7204 46.9955 38.5993
4667 1 22.1269 35.5972 32.8712
2522 1 24.9278 47.204 41.2673
1253 1 32.2659 44.9698 45.3917
6043 1 32.2342 33.4633 36.9195
4712 1 32.008 33.8721 47.3823
7595 1 18.8143 44.8307 47.3911
6256 1 23.7214 42.6377 32.6163
214 1 21.5491 40.4436 60.4571
523 1 19.6452 36.4531 48.307
5046 1 28.7212 44.1536 57.2769
7682 1 27.8358 35.6735 59.6515
5367 1 29.8696 43.4855 49.2002
7991 1 29.9945 33.9048 56.6482
4176 1 31.3718 37.3376 50.1062
3265 1 29.5078 40.7981 61.9847
1022 1 25.9086 35.9143 57.6367
4422 1 27.7923 38.5416 51.8813
6830 1 20.273 41.7573 49.8704
3536 1 30.0827 40.7908 54.7129
143 1 22.7586 32.947 56.0095
3631 1 18.2397 36.5084 54.2675
3756 1 24.3582 33.6502 58.1491
6302 1 29.3411 37.4027 54.0501
808 1 20.6254 42.0247 52.5145
7848 1 21.7638 45.9918 60.2942
1640 1 21.417 35.5559 55.4813
1058 1 20.2188 37.8797 51.6338
6035 1 28.0018 45.1233 47.9948
4798 1 28.9035 44.7634 51.5823
5842 1 23.9931 39.2317 61.0921
7969 1 22.7268 47.4425 47.7944
5579 1 28.1931 46.3984 55.6099
2130 1 18.6721 45.1428 54.4919
2637 1 18.7967 43.7855 60.9943
2013 1 32.058 45.3305 59.8652
6004 1 30.2128 34.8616 62.1603
1586 1 20.2328 41.3507 56.4671
2215 1 31.6897 45.5129 48.041
7834 1 24.414 42.8541 59.1395
1306 1 28.434 38.3466 60.7755
6012 1 23.8259 36.8478 59.5982
1523 1 21.1587 37.6063 58.4627
278 1 23.5066 38.497 57.1801
6989 1 31.2791 34.9479 51.7495
7628 1 22.6319 41.0091 57.9168
2952 1 19.4868 46.884 49.3073
7622 1 18.5189 33.7352 58.1982
420 1 23.0841 41.4468 55.1797
3235 1 31.3446 35.3502 54.4799
126 1 18.4131 41.2271 54.1303
4998 1 28.2167 40.9949 50.2881
6197 1 26.2364 38.7293 56.955
5537 1 31.7072 38.5078 52.6345
93 1 27.5518 42.6808 61.1664
1596 1 29.9264 36.651 58.0057
744 1 23.146 35.5364 52.2891
606 1 24.0994 46.5568 50.9223
3494 1 21.9666 33.6986 49.3134
1220 1 19.3569 39.7744 58.6365
7204 1 26.2659 39.7495 59.6002
3924 1 23.5111 43.9885 61.5152
5169 1 19.6403 44.0333 57.0141
2310 1 27.0965 35.6216 53.6737
441 1 30.7537 47.0765 54.818
6353 1 25.7499 41.3079 56.0179
3121 1 26.2123 44.175 55.5922
7275 1 25.3821 46.244 61.7498
6971 1 17.7908 42.9006 49.1818
3840 1 19.9336 36.8745 60.9444
5216 1 25.5158 34.0562 51.7789
7448 1 29.03 38.9095 56.5497
7783 1 25.9253 38.1827 54.1919
7268 1 19.1989 36.3472 56.9644
1052 1 28.5238 34.5095 51.4086
446 1 29.5356 47.3552 48.4133
6724 1 17.7958 32.7727 47.6709
4003 1 24.4343 45.1985 57.591
7534 1 29.466 40.5098 58.9193
3853 1 32.2465 34.7393 58.4438
5508 1 30.6229 40.9483 51.7998
6712 1 32.0669 41.2951 58.0903
147 1 22.5419 43.9896 53.8029
5205 1 31.0964 37.0817 60.6936
7870 1 21.83 45.3752 49.6996
5371 1 22.4115 42.8671 48.7258
2331 1 19.3024 45.7883 59.1647
3303 1 22.2062 38.9189 48.3582
4645 1 22.126 36.4519 49.8696
7743 1 20.3786 35.3173 52.9008
7182 1 30.9718 43.1722 56.0235
6595 1 23.2077 32.6434 53.1302
4217 1 22.9456 34.2129 60.6637
1130 1 25.0458 44.7531 52.9151
6752 1 26.22 37.8663 48.7211
5370 1 32.0525 40.2461 49.4049
1745 1 29.6981 33.2245 49.0056
7163 1 27.2268 40.7745 53.6877
1129 1 27.296 34.1938 55.8793
7402 1 26.7602 42.8953 51.8888
7455 1 29.2696 45.5923 59.7099
5891 1 27.1486 42.3046 58.4216
748 1 25.1095 37.6782 51.4089
1370 1 25.5197 45.1563 48.8797
3495 1 23.5768 39.979 50.8108
6067 1 23.1574 37.4888 54.4925
1039 1 24.0066 36.6229 47.5538
1818 1 28.1036 32.8121 59.6035
3869 1 28.5259 36.7187 49.6961
3084 1 17.9575 44.9599 50.9079
1021 1 24.9444 42.464 49.9558
6496 1 27.9565 45.1468 62.0316
5705 1 19.3783 34.3742 50.4176
2380 1 21.9502 39.629 53.1557
163 1 29.7 40.8723 47.7166
4191 1 24.9439 34.4653 48.9082
1793 1 26.6069 47.0048 53.4625
5067 1 22.0181 45.3998 56.2729
7756 1 20.4977 44.9811 52.1958
6030 1 30.9495 44.5478 53.4974
1450 1 19.3832 39.1304 49.1754
1510 1 21.1236 42.72 62.0588
3391 1 26.1921 40.5766 48.277
9 1 17.8231 38.8742 52.9543
6022 1 17.713 35.4752 60.3112
243 1 24.6993 35.8365 62.3812
7503 1 20.7387 32.8234 59.8261
3933 1 27.7026 34.7123 47.6443
2074 1 32.2716 37.2434 56.6619
6527 1 25.1753 41.4672 62.377
2970 1 19.8961 39.2488 62.5006
2422 1 29.9449 37.7805 47.5012
1152 1 17.8287 62.1826 6.89063
1061 1 26.4765 48.9574 14.2744
3991 1 21.697 47.6156 16.6535
1909 1 30.9717 59.7301 12.4928
6924 1 26.307 62.3637 8.3158
7107 1 30.3554 51.2831 15.9281
1787 1 18.2045 55.441 3.18557
1571 1 32.377 57.647 7.85792
1782 1 20.3382 59.692 7.40959
2995 1 20.5705 53.0872 6.09835
1884 1 25.6756 48.6317 10.388
1873 1 18.7881 52.7255 3.67262
580 1 22.8118 58.7978 3.93062
5345 1 27.7984 50.6853 17.3025
5071 1 28.5157 47.7267 11.0501
2561 1 29.3317 58.7496 4.43336
5948 1 22.146 56.564 17.3514
3427 1 27.9284 61.2436 10.2202
381 1 27.0609 59.4959 14.1588
3730 1 22.651 53.5481 4.29382
1923 1 25.7134 55.4555 12.1875
301 1 18.7207 62.041 13.2634
2223 1 27.8014 52.5431 15.2139
7304 1 27.8849 51.5927 4.60802
4070 1 22.2057 60.2539 15.0829
7070 1 30.9214 53.1988 11.8382
4836 1 25.7668 48.7373 17.0183
1912 1 25.0822 53.261 15.5608
875 1 24.3288 50.9035 11.3465
7723 1 29.1907 54.8969 7.9514
4839 1 19.1443 56.1994 9.08317
3172 1 31.0341 48.3421 10.0019
4788 1 24.3415 50.9115 14.1644
5139 1 20.6488 50.2633 5.39547
2065 1 27.3237 58.7451 10.725
4251 1 30.3998 50.8847 13.2273
1775 1 20.1523 62.424 15.5504
1088 1 26.7597 59.779 4.21949
7468 1 28.8936 48.3713 6.11643
7274 1 24.3439 55.6703 5.38899
555 1 30.5773 55.4564 10.3316
6105 1 18.0392 62.4477 3.00656
7069 1 18.7659 55.284 16.6216
7632 1 22.1055 57.4931 6.3628
7093 1 24.7122 50.7611 6.6111
2169 1 18.7132 57.8514 15.141
6808 1 21.8192 48.8495 9.60534
1731 1 26.7806 54.0356 5.29091
4408 1 22.8176 52.443 7.72028
6858 1 31.002 54.3078 4.92268
4851 1 23.7667 57.4623 13.2711
3953 1 27.3524 50.6924 7.30199
4494 1 29.7634 48.4353 16.4579
624 1 28.9449 55.9956 5.14289
2038 1 21.9313 47.6598 12.1898
417 1 23.3581 54.6202 13.4548
5721 1 25.5187 56.5534 9.73111
1543 1 30.0082 58.8483 7.42708
4290 1 27.6536 56.7295 13.8159
274 1 19.6375 52.661 13.9674
5194 1 23.7936 61.8566 13.3187
3599 1 19.2756 52.8157 11.0116
2623 1 29.4515 61.0874 14.2529
2968 1 21.1999 58.8041 12.751
2205 1 30.6732 51.2618 9.5874
5030 1 30.4345 50.7208 5.30853
5506 1 29.4399 57.4946 11.9126
6797 1 19.7239 48.945 7.70663
3956 1 26.8827 53.3418 8.09746
2754 1 20.1286 55.6691 5.46395
4550 1 32.026 60.075 3.79705
3043 1 29.3883 54.5716 13.7603
7716 1 25.9634 55.9908 16.2535
6772 1 30.5052 59.8274 16.7022
1948 1 21.9272 50.3191 15.4103
6085 1 27.6056 51.0219 12.7917
2440 1 18.7179 58.9539 9.83709
7901 1 23.6186 58.7783 9.81225
3069 1 24.808 59.9794 7.64686
3284 1 26.2661 52.8263 10.9003
2202 1 23.9379 58.161 16.0297
4558 1 24.8054 51.5081 3.90543
4335 1 26.0278 57.948 6.25204
4165 1 24.0014 61.8151 16.8427
7127 1 31.3013 56.1461 15.2909
2664 1 24.3255 54.6666 7.92956
5586 1 17.7962 59.2293 6.02374
5843 1 17.9135 55.3926 11.5219
5779 1 22.0643 56.3375 9.13199
7359 1 20.7879 50.239 12.7982
4736 1 27.0652 62.2909 5.57993
751 1 21.7185 54.4877 11.2924
4829 1 28.0468 50.5301 10.0852
1237 1 26.0841 60.0045 16.5287
2727 1 21.3309 54.6472 15.2991
2249 1 17.9878 59.7575 3.32548
2128 1 25.0178 59.6425 12.1747
6396 1 24.0323 48.5279 7.92964
7560 1 23.1154 60.9111 5.70873
4125 1 20.1779 56.1374 13.0515
5117 1 22.5268 52.6273 17.0317
835 1 30.4451 61.0603 8.85306
7672 1 32.2446 62.0042 5.9017
1576 1 18.5 48.7798 12.2515
7428 1 21.2938 60.225 10.2166
5914 1 27.8271 57.3409 8.16848
795 1 19.2525 51.1561 16.453
4698 1 18.2369 49.8216 3.54736
2538 1 30.9879 52.6207 7.22845
2224 1 21.8232 51.6442 10.3523
342 1 18.8784 53.5449 8.33283
926 1 22.7024 49.5108 3.75456
4297 1 18.5138 59.3203 12.6604
2014 1 20.6528 62.2178 6.31326
3443 1 29.679 61.834 4.53505
7511 1 20.8429 56.6793 2.92519
1969 1 30.8266 51.259 2.58748
3612 1 28.3355 54.5622 17.2734
3497 1 26.7479 49.2004 3.30517
3666 1 20.575 58.925 17.0983
1616 1 25.0632 57.9775 2.53315
2420 1 17.5619 56.4157 6.61508
1835 1 24.7119 47.5522 4.19583
3103 1 29.0425 47.5061 3.32756
6284 1 23.6097 55.6016 2.53864
175 1 27.4357 56.2545 2.683
6785 1 17.6129 56.4911 26.8241
4109 1 24.9745 48.2866 32.2984
142 1 26.9309 51.328 23.0145
7144 1 19.6949 57.4485 31.5088
6231 1 19.0508 51.189 25.7492
2533 1 25.3497 57.4756 26.3938
7746 1 19.1972 49.3843 27.9001
971 1 17.7101 56.7725 19.8785
2734 1 24.6228 52.749 21.9894
1821 1 18.2159 59.2153 27.7486
255 1 31.8356 59.0458 22.2617
3751 1 25.6361 57.1189 20.4613
7392 1 24.7266 49.79 23.8886
7861 1 24.1343 52.0499 27.3727
6417 1 31.3142 60.8256 30.2485
4441 1 20.1699 52.5753 18.7459
3667 1 29.1497 59.2176 27.1021
4864 1 28.2457 55.8474 21.0318
680 1 24.8817 60.3088 26.4675
2891 1 30.1428 57.9156 20.2914
4898 1 29.8762 54.2303 31.5165
1864 1 31.3163 50.8715 19.7676
3961 1 30.3508 53.6851 24.9077
433 1 18.6047 55.8988 29.4821
200 1 22.6896 48.6725 27.1473
4366 1 17.6708 60.4585 21.327
7851 1 19.5113 48.3689 30.6119
7578 1 26.9573 50.1264 29.3046
5089 1 19.356 59.0135 19.6394
1310 1 24.4413 59.6031 23.5413
7872 1 22.9068 53.431 19.8283
2049 1 20.8859 58.6833 26.7649
3050 1 20.2476 53.183 27.4823
7062 1 22.0435 47.8243 31.8092
3937 1 31.5941 54.3537 27.3061
1240 1 26.226 50.0677 26.5393
2518 1 29.5136 48.2038 22.3128
3376 1 27.3644 55.5511 31.7582
2193 1 20.579 52.3435 32.0434
7651 1 30.5239 53.0919 18.2154
4758 1 22.0888 48.7175 24.4398
4644 1 29.8433 60.7326 19.3433
3574 1 30.769 54.4499 20.6556
6097 1 26.7491 60.3006 28.5073
6735 1 25.9903 52.8235 18.1993
1476 1 21.6788 50.8856 28.4121
2373 1 22.6126 55.4069 30.2355
7827 1 28.0702 52.1987 25.6176
5775 1 31.4307 50.871 25.2253
6617 1 22.6017 60.4701 27.9661
2163 1 22.4799 50.4855 31.0274
2903 1 31.6549 58.577 32.1215
779 1 18.6628 52.7122 22.3212
4249 1 28.6665 62.0427 30.0458
881 1 26.6072 61.2483 31.8623
4874 1 25.7242 61.5878 20.4701
3765 1 26.2241 54.0097 24.1643
1320 1 21.492 58.1963 21.3257
7656 1 21.0218 61.2757 23.9955
4958 1 23.2614 57.1345 24.5036
882 1 20.0234 54.7562 23.6995
146 1 31.8441 50.7148 29.9137
1143 1 29.8971 61.0479 22.8849
1514 1 25.146 50.7744 31.1978
5577 1 26.4671 55.0033 28.9648
5730 1 30.5714 48.6379 28.6773
5942 1 24.9984 54.733 26.5278
3480 1 31.5573 50.0766 22.5618
2855 1 21.6802 55.3999 21.4287
4453 1 30.9025 55.8318 29.5093
6255 1 19.049 61.0618 29.5856
2907 1 29.877 58.4313 29.6252
5374 1 28.511 50.794 19.9154
6424 1 20.9152 58.4991 24.0614
2792 1 23.1845 52.2595 24.713
6998 1 22.4767 60.5598 18.7014
2938 1 31.1597 56.8455 23.7466
3993 1 32.2903 53.1641 22.7824
6537 1 23.5858 62.4251 23.7233
6 1 20.2952 48.4851 20.1408
7673 1 27.35 59.8275 23.2344
5570 1 22.1907 54.7832 25.7196
6310 1 24.5441 61.7587 29.753
2565 1 28.6326 55.6719 23.7817
4893 1 23.9599 59.3621 20.7431
6990 1 23.6851 57.827 31.0068
844 1 24.0988 50.6145 18.2352
5431 1 32.3165 56.2656 19.0386
5800 1 27.1285 53.1483 20.7371
526 1 19.1265 61.4261 17.9961
5881 1 21.5837 59.4133 30.3954
7993 1 18.1299 53.9371 25.9444
6854 1 21.4568 51.0674 20.7369
249 1 24.5007 55.3332 18.5508
314 1 27.7828 57.8677 25.293
4808 1 20.1388 55.4933 19.076
4617 1 29.2034 49.5405 26.3655
2539 1 26.9205 48.9423 21.3133
4940 1 20.9188 51.2414 23.5039
3 1 24.3272 55.5829 22.4497
649 1 20.8967 55.1242 32.4204
5714 1 27.5469 59.197 20.6174
7482 1 21.0791 56.103 28.0567
4528 1 18.4729 57.178 24.158
1359 1 27.185 57.9097 18.0302
3239 1 28.7253 53.5493 28.0279
772 1 29.1974 51.7725 30.1632
3911 1 25.8313 57.769 29.1695
3237 1 29.2623 61.4572 25.6342
5661 1 18.7352 53.1424 30.1108
5560 1 24.1876 50.0316 21.0903
3247 1 24.4152 53.3592 29.8226
5409 1 27.733 58.5099 31.3079
4802 1 27.3716 61.9863 18.1975
2170 1 31.6788 58.1355 26.2676
3986 1 22.4701 61.7953 31.7111
7395 1 32.3339 48.758 17.9812
3449 1 17.5645 52.491 19.76
5177 1 25.2051 47.5921 27.4769
7464 1 19.2556 48.6693 17.5473
6583 1 26.5793 62.4579 25.8112
3463 1 28.2832 47.5551 29.8132
2679 1 29.9776 57.1081 17.5878
3517 1 29.3752 58.3336 33.6263
3327 1 26.251 51.4608 33.7159
241 1 21.7658 59.0237 35.0939
2880 1 32.1949 49.377 44.5018
4438 1 31.6799 51.9545 38.4081
746 1 18.7379 55.3184 34.6185
6774 1 28.2767 48.6688 39.8666
5037 1 27.2542 54.1743 42.0186
7962 1 31.0513 59.6625 41.8535
7705 1 20.937 50.8714 38.461
4471 1 24.3093 61.7758 36.15
6174 1 31.9703 58.8087 39.2303
4569 1 23.5605 57.1706 39.8195
673 1 31.6579 56.8213 37.0542
3216 1 30.7242 50.0043 40.2277
3253 1 27.856 53.1941 35.3291
7967 1 19.2144 57.9512 42.6951
7255 1 31.5677 47.6693 39.1548
5454 1 23.1856 54.2556 42.1899
7906 1 27.9303 49.3612 37.1253
1656 1 29.1783 53.6905 38.7276
4927 1 31.5687 62.0627 35.3916
1811 1 30.962 51.2986 34.5629
1807 1 22.1984 53.3074 38.0515
2746 1 28.147 56.0726 34.6548
5807 1 31.6766 56.1047 44.2615
2767 1 30.0868 47.7441 36.8025
5780 1 26.6763 48.6701 34.5666
5399 1 17.9301 59.6668 45.7137
7916 1 28.5584 47.9557 32.7024
2626 1 19.6802 59.4893 38.8628
6520 1 27.5241 50.0277 43.8763
4039 1 25.2035 59.3838 46.1746
3350 1 26.9991 52.8134 44.2913
1361 1 23.5034 54.8627 46.5922
1482 1 31.0549 53.2934 43.768
641 1 20.2137 61.564 40.7242
1403 1 26.379 60.0778 39.4873
2093 1 26.7975 60.4904 36.6309
5786 1 29.4507 59.9352 38.1676
7244 1 24.3494 60.8364 33.4787
2184 1 24.1281 53.018 44.389
377 1 25.8572 53.8098 37.2915
1767 1 24.1006 56.9317 42.6184
1207 1 22.0885 49.0226 34.6268
7489 1 21.1981 51.8532 34.605
3475 1 29.2031 53.8082 45.7616
3422 1 28.0343 57.6086 39.295
6875 1 27.6469 56.1661 45.7025
2629 1 24.3442 50.3475 35.5262
1419 1 21.0895 56.4152 35.7815
7640 1 28.8255 61.1332 40.618
814 1 25.0669 61.0365 43.7261
6753 1 26.6068 50.3845 41.072
4388 1 30.8788 59.1074 35.6891
3434 1 25.9835 57.7887 35.698
7658 1 18.6336 50.093 36.9944
4699 1 25.6722 56.4492 38.0639
7936 1 23.1557 55.3592 34.0257
4990 1 22.2044 60.4603 37.4
3275 1 23.9571 58.1388 33.7358
5093 1 17.8241 53.198 38.6148
5138 1 22.4668 52.1933 46.6814
5290 1 29.9707 54.2954 41.2582
7028 1 21.6579 57.5051 43.8467
6890 1 22.6037 60.5979 46.6821
1927 1 23.6664 59.8496 39.7085
3601 1 20.5021 54.5387 41.837
925 1 31.6543 48.4356 34.7475
2546 1 21.1172 50.162 42.0808
1019 1 29.3875 51.5397 36.7711
2099 1 19.5983 52.2562 40.5753
685 1 23.3374 49.1443 38.086
5588 1 26.9622 59.8337 42.253
4126 1 24.903 56.8462 45.335
2406 1 18.462 48.0127 45.0156
7804 1 19.3855 56.8559 40.1818
3477 1 18.3936 59.3299 33.3291
3550 1 31.7036 62.4164 42.7552
3586 1 29.1466 56.1303 37.2963
2086 1 31.3074 55.2428 47.1375
1741 1 18.9346 60.7011 43.084
871 1 28.0732 49.2225 46.7523
1773 1 21.2344 56.1336 46.1586
4194 1 18.9706 52.8143 36.021
3448 1 22.5966 50.6407 44.4851
7318 1 22.8926 61.6563 41.9201
1497 1 29.1747 60.1211 44.2118
2046 1 19.5626 52.4168 46.005
7052 1 29.1073 57.3547 43.5928
409 1 28.1691 60.8375 34.1688
7409 1 21.3825 55.8648 38.4801
2412 1 31.8305 60.5292 45.2419
598 1 19.3145 54.763 44.3107
7932 1 23.8471 49.9341 40.8711
6226 1 18.9528 50.5661 43.9022
6567 1 30.3004 54.2424 34.2331
1224 1 21.0615 48.8613 46.1924
5834 1 27.8657 60.0592 46.793
1982 1 26.7821 52.788 39.7747
2828 1 30.4135 56.9918 40.998
7767 1 20.6086 61.2261 33.8578
7934 1 19.2017 48.8883 34.6582
3406 1 24.9769 49.001 44.7778
2031 1 24.0547 52.6724 40.114
6628 1 23.6608 53.0778 35.6598
934 1 25.773 47.8369 38.6728
839 1 26.9269 56.8727 41.9439
3295 1 21.5749 60.2881 43.9708
6007 1 30.2755 50.6002 42.9621
3401 1 28.8422 50.698 32.7416
6033 1 25.235 54.0061 32.5988
5647 1 17.6092 56.9433 44.8221
847 1 20.7346 47.6437 41.1473
5700 1 31.7871 49.1635 47.3437
1516 1 18.615 50.488 32.5124
6935 1 27.551 60.8597 61.751
5279 1 24.5846 48.9568 54.0695
7589 1 19.3126 57.2329 49.1443
5520 1 27.9851 57.3815 48.2341
694 1 31.1566 48.4084 57.3479
1553 1 22.4397 61.4747 57.5459
4578 1 17.863 53.3085 56.483
5130 1 31.8078 59.3571 52.0654
1301 1 30.3936 48.8572 52.6619
5225 1 24.0609 55.0473 49.1759
6754 1 32.3306 49.3805 50.8287
6089 1 25.9688 58.0941 52.5586
3261 1 26.6527 55.4136 57.8752
1407 1 20.4789 53.6037 50.1662
783 1 23.8519 61.6365 53.4249
7106 1 29.4229 59.1699 50.0371
4155 1 18.8081 59.7048 50.4133
7894 1 29.3651 55.9663 58.4113
2255 1 23.9293 52.6213 54.885
4910 1 22.4744 48.4976 52.3489
6736 1 17.8005 58.7671 52.7243
704 1 25.9793 48.483 50.2456
3429 1 21.8625 58.234 59.4736
3624 1 27.6258 58.7197 54.7397
7460 1 29.0546 51.6705 47.5379
5824 1 20.1718 47.5273 53.6803
2773 1 21.463 51.1178 52.454
4132 1 26.079 51.2169 53.5448
4877 1 22.7791 53.9395 58.0114
2932 1 22.5578 48.5591 59.2742
7035 1 23.1223 52.9079 50.8769
7295 1 19.8888 58.6624 61.3917
1520 1 25.9507 57.9359 56.9049
4653 1 24.7981 54.7058 59.9427
5514 1 26.7846 55.5115 52.1647
4997 1 18.2887 61.9155 56.121
3485 1 22.8307 55.1011 55.5952
1728 1 27.1973 48.6399 56.9878
14 1 21.7179 55.3492 60.31
878 1 25.4941 58.6368 48.9299
5531 1 20.4547 55.5323 54.448
4368 1 18.0748 58.3635 59.0599
6439 1 26.7855 55.2388 49.4026
802 1 19.6166 59.9155 54.5201
5299 1 28.4401 47.5407 51.1182
4928 1 23.3961 50.7596 48.8038
2472 1 23.12 61.77 60.302
1531 1 27.407 52.9102 57.234
510 1 19.9674 51.0653 59.8009
5909 1 29.957 61.5714 51.66
1198 1 21.6863 51.1097 55.3776
7729 1 28.881 56.3993 53.7692
1918 1 27.7597 52.6131 49.6818
5410 1 18.2693 49.4121 52.6408
3093 1 28.821 58.4099 61.7063
6939 1 23.1123 57.5618 49.7876
6499 1 28.482 52.3747 61.813
5957 1 22.1743 56.4888 52.0969
884 1 19.2007 51.1861 50.6487
4989 1 30.4428 51.5565 53.9311
7306 1 19.6583 60.7213 47.6175
1791 1 26.6669 59.8304 59.0172
5127 1 29.2886 54.9681 60.9458
7966 1 30.3905 56.3923 49.646
295 1 21.0549 53.0835 62.0822
5566 1 31.4669 51.0267 58.6218
5036 1 32.3653 59.1326 55.6796
5090 1 31.5539 60.1631 59.2949
2475 1 19.1238 48.7198 61.1088
6792 1 17.7817 50.7241 55.0066
3258 1 25.5934 51.2319 50.6947
5543 1 22.5641 50.5873 61.2102
1802 1 20.4916 52.4323 57.542
2936 1 30.6905 48.7011 61.5282
4043 1 21.7249 59.8138 50.9791
7332 1 30.2497 53.75 50.5111
1069 1 24.8869 51.7999 60.3976
6373 1 23.5174 58.9339 53.1795
4417 1 19.6452 52.7567 54.1819
7350 1 26.5098 49.5382 60.5957
6760 1 27.7096 61.1838 53.2714
4357 1 21.5483 48.217 55.939
6756 1 24.2137 59.2174 60.1486
2580 1 29.2878 58.7295 58.7839
4657 1 19.0828 57.0311 56.6791
5245 1 31.4233 55.0167 56.783
2160 1 32.2354 50.5965 55.9208
4463 1 29.6275 59.7532 56.3541
2598 1 17.6425 48.4196 47.7673
6244 1 30.6725 60.1864 47.7446
6201 1 21.2878 48.9516 49.7791
5951 1 28.19 53.0146 52.552
2150 1 19.362 54.8146 58.5294
4300 1 31.4526 51.389 49.2083
1466 1 24.2063 54.6576 52.8471
843 1 31.3222 56.615 52.3971
5971 1 21.1884 58.9871 56.8314
6640 1 17.6098 52.3016 60.8174
5729 1 29.3442 54.0389 55.2724
4411 1 25.4312 62.1766 49.9047
7741 1 19.5919 50.3327 47.9637
2154 1 24.8091 51.8981 57.5793
5107 1 20.0098 48.3967 58.1992
5521 1 24.3488 62.4395 56.0702
1428 1 23.3149 57.7399 55.6424
3795 1 19.5434 55.7002 51.6699
6236 1 21.0849 61.6309 52.9985
6312 1 28.6577 51.3402 59.3373
3194 1 28.0787 50.7828 55.4932
421 1 26.8302 59.9808 50.8516
6810 1 28.9207 48.3902 59.2451
7347 1 22.8486 61.5378 49.191
7896 1 19.4354 54.7844 47.8218
1454 1 31.6391 58.4063 61.5189
5307 1 24.2794 49.2433 57.0035
3200 1 30.8551 62.1226 57.3046
1139 1 21.4793 60.7092 62.2811
5908 1 31.9881 55.6782 61.416
982 1 21.3062 58.2898 47.7219
7290 1 26.7209 62.2505 57.6604
7583 1 28.5625 62.3279 55.6515
1390 1 25.2402 47.5018 59.0871
7287 1 17.5463 48.891 57.011
7019 1 32.4187 57.8113 48.0818
7855 1 18.8714 62.4812 51.0983
1213 1 25.3468 62.361 61.7815
2024 1 25.9004 53.6984 62.4972
2045 1 25.3137 48.9544 47.6039
6464 1 42.322 9.47083 14.5366
4634 1 41.6969 12.0788 13.7838
313 1 40.0678 7.59113 9.31563
7187 1 40.0167 6.95812 16.6434
1876 1 36.844 5.02939 14.3987
6765 1 38.1542 9.60049 9.30104
5184 1 46.0416 10.3735 3.44812
7102 1 39.7243 11.7386 3.66074
6940 1 33.0862 13.2224 3.66183
3571 1 42.6152 16.992 3.26476
4362 1 39.3937 13.2254 10.8923
3524 1 45.0264 3.34 14.1386
1163 1 47.3501 13.3739 9.53784
6344 1 33.3358 13.3288 16.1722
4166 1 44.4997 9.89099 8.1181
7169 1 44.654 3.95885 11.5612
7096 1 41.6284 17.1353 8.08786
79 1 34.6585 17.0736 9.39831
1592 1 37.1467 4.72533 5.79455
265 1 44.0199 5.22966 16.0109
7803 1 37.3895 7.60922 15.296
3721 1 46.7334 13.5666 13.0853
701 1 43.1532 7.28412 11.3118
4502 1 33.423 16.5554 5.24905
2930 1 33.713 9.39652 15.7902
6881 1 38.7736 5.19587 3.69048
5644 1 36.9722 10.7058 11.5705
1027 1 36.934 14.9348 5.00087
3208 1 33.2038 13.4164 8.47973
2430 1 37.6166 11.4203 7.14527
5980 1 45.7295 12.2244 15.4737
2633 1 35.1247 16.8109 16.0053
5640 1 34.4796 3.67026 5.64505
4727 1 44.5591 13.7408 4.98954
5097 1 43.5556 11.816 3.06179
7838 1 34.4453 14.0052 6.02762
5855 1 32.7717 5.38382 4.43415
3446 1 44.6314 11.2297 10.4694
5192 1 42.9945 13.4565 7.49494
5398 1 45.8815 6.42852 10.8363
7557 1 44.7947 6.40657 4.88413
2058 1 38.8408 11.7164 13.2526
4147 1 37.1099 13.3423 9.13305
5849 1 38.767 5.34853 7.97454
7247 1 47.0684 8.61195 7.51888
2439 1 35.2952 3.59134 16.2185
3754 1 33.6887 8.08261 4.71058
920 1 33.1954 10.0188 6.65895
1886 1 38.5802 4.62878 12.0836
2501 1 40.6305 11.0434 9.91338
7739 1 34.9468 12.2247 10.3836
3414 1 35.4697 9.8454 3.18183
5041 1 34.9721 11.7841 14.4518
2834 1 44.5751 17.169 7.13376
3708 1 38.6571 16.7314 8.39194
4538 1 34.674 7.92369 11.6142
2157 1 42.1108 3.53335 6.64706
3062 1 39.8729 12.8098 6.29046
7381 1 42.8047 7.71588 8.45594
3995 1 38.4056 9.26173 2.71721
3183 1 46.7928 5.63258 16.151
4791 1 41.5367 5.93792 14.6428
170 1 40.2472 3.21471 9.00462
5278 1 44.403 9.10922 5.30539
5187 1 33.9009 9.80856 9.46905
2600 1 40.623 14.5105 8.63467
5153 1 37.946 15.273 12.3001
4397 1 35.3093 15.7711 11.7799
5668 1 44.0649 14.9994 13.5131
1279 1 35.3411 11.4187 5.73988
6559 1 40.3233 6.84026 12.0195
480 1 35.9313 7.86162 8.9497
7915 1 39.6647 8.97032 13.7582
4207 1 36.113 7.32982 6.23546
7382 1 45.8207 15.4471 11.0028
7284 1 36.8485 12.5048 3.33391
4289 1 42.6546 6.15103 3.02838
353 1 42.016 16.9084 10.8682
7630 1 45.8306 12.2974 7.18011
3418 1 43.3827 15.9437 17.3009
7801 1 45.1999 9.69139 15.2183
6966 1 35.1106 5.29276 12.1203
6525 1 33.6849 13.5046 12.5739
4355 1 40.0868 15.5908 14.173
7447 1 37.3113 15.2617 15.1254
3178 1 46.9396 15.977 8.24046
4615 1 38.173 9.04704 5.5074
6392 1 42.4523 15.6637 5.73912
1145 1 43.7344 13.8683 10.1847
6594 1 44.0163 7.2077 14.0359
3079 1 38.8672 3.24148 15.2632
1702 1 41.8405 10.0336 4.50378
459 1 35.65 16.646 3.23641
6063 1 41.7365 10.9004 7.39445
5689 1 36.306 15.5401 7.78379
6927 1 46.97 3.6472 5.11541
7529 1 36.767 5.37371 9.9149
5624 1 46.5029 4.6854 8.61152
6671 1 35.8552 9.25751 13.6697
6225 1 41.9686 4.61079 10.8645
6159 1 42.5046 10.0246 11.7466
6166 1 40.6286 8.16111 6.51686
5493 1 40.9479 3.55573 13.3198
406 1 36.0067 8.76244 17.4253
6789 1 41.9714 8.81648 17.2401
4786 1 40.9993 5.69612 5.20844
7198 1 37.585 12.5329 15.3877
986 1 47.4673 8.79457 10.1462
4530 1 39.6172 15.5375 5.06881
550 1 34.8785 3.99877 8.47334
4619 1 40.2703 13.5226 16.1495
7376 1 46.8551 6.64132 13.5363
1496 1 43.295 13.5139 15.8857
4678 1 44.0595 5.52303 7.49774
4141 1 41.7907 14.3467 12.1724
5609 1 33.4348 3.08722 12.1773
1146 1 47.3916 6.13454 6.33268
6684 1 45.7768 16.4671 4.6142
6469 1 32.9035 10.7654 2.68088
7884 1 44.1958 3.39813 4.57596
883 1 33.098 2.60341 14.8643
725 1 47.2431 11.1225 11.5902
7476 1 45.7748 17.3638 17.3206
3340 1 47.4261 13.2213 4.30428
5253 1 43.9755 17.4628 14.8318
1377 1 32.5153 5.31181 8.95935
2011 1 39.5799 2.82957 2.5943
2225 1 46.3115 7.68384 2.70463
225 1 39.158 15.8429 27.1993
4514 1 38.3892 12.9443 22.7696
460 1 40.9724 3.12301 22.4577
2621 1 42.3428 13.4014 29.9735
7604 1 47.3088 14.253 26.811
7431 1 46.9379 13.685 22.4581
5385 1 35.6605 13.9588 22.0505
4267 1 33.5175 4.0557 21.6668
4443 1 36.3726 5.81986 25.09
3088 1 35.8324 16.5446 21.2778
3444 1 45.0652 3.71466 21.9681
5900 1 37.4275 11.0397 17.7588
6965 1 34.0 5.36005 17.7674
6845 1 37.7394 12.7975 25.5939
7698 1 41.576 16.1514 22.0646
216 1 41.7036 16.1286 26.1225
6416 1 34.3453 7.50626 23.8246
1947 1 39.0553 14.0377 20.2819
3144 1 43.1002 14.0493 27.2512
448 1 38.8425 8.60113 25.892
6175 1 37.9957 4.98129 19.5823
7536 1 45.3913 5.1379 19.4653
2118 1 45.9844 9.16561 17.8265
2641 1 41.6906 9.23705 30.5297
398 1 34.7988 9.76576 27.6084
6591 1 44.5767 11.9969 30.8806
285 1 33.9908 6.67796 21.2531
4795 1 41.5013 6.44535 29.5557
2597 1 45.8566 15.7147 30.1348
963 1 42.36 12.7655 22.7766
5343 1 47.4775 3.68549 18.0366
922 1 42.4892 3.76987 17.7928
2277 1 45.0159 3.71665 31.5641
5737 1 40.7634 12.5254 26.3061
7424 1 38.4418 4.30675 22.251
5893 1 47.2455 10.8343 22.6486
650 1 44.2266 9.13289 21.3954
7001 1 38.0704 7.73187 28.7397
4361 1 44.2504 4.57674 24.5126
25 1 37.8714 4.05932 26.7044
332 1 46.293 7.00203 21.3402
3363 1 47.047 8.84003 28.4775
7847 1 46.9606 16.4906 22.2226
271 1 38.1131 7.11293 23.3938
1557 1 42.9109 16.2351 29.9381
1087 1 42.2121 11.6601 17.831
7441 1 36.3682 16.3622 27.8766
1263 1 34.6597 14.2538 28.5831
3351 1 39.5521 7.31638 19.4537
3201 1 45.1477 12.2198 26.2218
5880 1 40.184 16.7112 29.6621
5763 1 35.5659 10.5485 20.9818
826 1 38.4016 14.6692 30.7894
1050 1 44.6181 13.9584 23.9512
3709 1 35.0299 10.1228 23.5977
2081 1 45.291 16.086 27.2958
1026 1 33.5774 13.5501 25.8811
4295 1 43.2484 4.12492 29.2289
754 1 47.4115 5.34329 30.9942
3460 1 41.6612 13.3866 19.9094
5028 1 45.3227 3.94794 27.1255
2804 1 38.2891 10.17 29.7246
4302 1 40.4835 14.4269 23.9234
212 1 35.9201 14.7837 24.7641
4909 1 36.2545 11.9202 29.0854
7593 1 45.6683 13.5509 19.9336
3651 1 38.6488 13.4066 28.2365
6095 1 36.535 16.8303 18.6407
112 1 37.619 8.52063 21.1295
2411 1 41.3139 2.61689 28.1737
4695 1 43.9839 7.14962 18.2822
6692 1 42.1968 7.19253 20.5849
2971 1 40.7706 11.4243 28.9757
5678 1 44.0926 6.93307 28.6535
4665 1 40.9151 7.25383 23.1488
3302 1 38.5845 16.4193 21.7582
6929 1 39.9206 6.11501 27.0599
3048 1 36.7094 16.5281 32.2343
1231 1 35.6706 3.04949 31.3807
4662 1 36.7116 10.3421 25.6467
2635 1 44.752 10.4004 24.0097
7563 1 44.4495 10.9601 19.473
5074 1 42.6835 4.47332 20.4515
4624 1 42.0474 5.95757 25.2356
4993 1 39.4426 10.5534 21.7745
3395 1 35.9785 6.91928 19.2788
6096 1 45.2482 16.5096 24.4541
2053 1 36.5891 12.7946 19.6429
3983 1 36.2586 13.0751 31.6359
1388 1 34.9234 14.4678 18.1291
190 1 41.1361 9.90712 25.6499
5830 1 33.045 13.2808 21.9003
1097 1 34.944 3.61741 24.066
4431 1 39.9038 10.0792 18.8698
2624 1 34.0349 6.51689 31.3022
82 1 44.573 9.43376 29.7977
1230 1 35.7169 7.11996 27.5626
2766 1 33.0211 4.02569 31.9606
3855 1 46.4238 6.2834 24.0013
6205 1 46.1491 8.56522 25.7247
5832 1 33.8492 5.56657 28.7357
3858 1 43.1754 10.6377 27.676
3219 1 43.5877 15.3726 20.1811
6135 1 41.0372 3.114 25.203
4946 1 33.9976 9.03262 30.2758
6506 1 35.9541 3.6486 28.7333
254 1 38.7783 5.50387 30.3283
2672 1 43.4518 8.13859 26.3713
5355 1 41.9439 9.88492 23.0586
7823 1 34.3467 14.9377 31.2455
210 1 33.1344 17.1071 22.0256
2466 1 40.9134 17.2443 17.8374
3619 1 40.8609 6.07515 32.2781
5801 1 38.3739 16.1633 24.599
7818 1 32.7209 11.4979 24.2003
5008 1 46.6658 5.91073 28.4335
2732 1 46.8419 13.1523 29.5002
1827 1 32.7824 10.9194 20.3174
6997 1 38.8429 2.90008 29.3153
2353 1 36.65 5.51713 32.1853
3010 1 45.0884 8.17285 32.3018
6221 1 40.6527 13.8262 32.2854
6574 1 33.055 17.3578 30.6709
5954 1 32.6673 15.2408 19.7688
6952 1 32.5405 3.36878 19.1931
7522 1 36.6218 2.68153 18.593
3627 1 35.2415 10.4469 32.367
7541 1 37.9455 9.86046 32.2915
2605 1 38.7921 15.4283 17.7916
1128 1 47.2248 13.3495 17.6244
260 1 39.8411 4.33868 17.5262
3744 1 37.4025 7.77316 42.873
5634 1 43.7167 5.84608 32.9286
2523 1 43.9764 17.0608 35.3052
677 1 36.7541 16.2103 43.2946
7140 1 34.5466 16.7324 34.1935
5179 1 34.0695 12.3944 45.8658
6978 1 43.578 14.3432 36.2543
2874 1 33.3924 13.9302 37.6842
2848 1 40.6613 10.7465 44.7779
4726 1 43.3825 5.55855 45.9479
4489 1 42.5351 11.5315 41.2771
2935 1 34.5649 11.7549 38.807
4442 1 41.2701 10.2088 37.5055
2299 1 33.3197 11.7884 33.9858
2942 1 40.108 7.8334 38.9449
2588 1 43.2831 5.18867 35.5764
7587 1 38.002 9.64153 38.8042
3123 1 45.0859 14.3926 32.5537
1872 1 44.0787 3.03726 42.5377
1347 1 45.0057 2.97192 36.3659
5108 1 36.8811 8.6764 45.4765
6408 1 36.7379 11.5777 36.7677
1330 1 33.2689 9.02254 41.7808
2208 1 33.9857 5.27319 45.5305
4027 1 34.9634 16.6262 46.5332
7530 1 32.91 8.39932 37.7173
2176 1 45.4625 16.6188 39.8313
533 1 36.393 7.22744 38.5951
5133 1 44.6353 10.1002 42.3442
42 1 34.8293 8.4669 34.4204
6359 1 39.9554 11.1492 40.1129
6183 1 47.2416 14.5857 34.4132
1814 1 45.6 3.85583 46.5595
4603 1 38.9437 9.78975 35.8664
2298 1 46.8017 14.937 45.8738
518 1 40.6785 16.5766 33.3235
4296 1 33.4336 10.0712 44.2972
4016 1 39.5184 9.59285 42.5047
6932 1 39.4118 14.8915 36.8023
1867 1 41.7259 14.8089 43.4108
283 1 41.4699 7.59424 41.4528
5950 1 41.9818 4.31981 43.6453
177 1 39.0535 14.6874 42.7917
7868 1 40.5981 4.93004 41.1064
6622 1 38.384 7.38945 33.3321
3812 1 44.4282 5.99074 38.9801
6708 1 43.7897 8.39677 40.2393
3971 1 46.632 12.0472 45.5855
1408 1 34.3959 3.82013 40.167
1900 1 46.762 16.2986 43.4481
3625 1 35.8574 2.99357 46.0051
2750 1 41.5653 7.06328 44.3374
2550 1 42.8714 13.1025 33.8458
623 1 40.9735 6.24205 36.756
1376 1 44.5819 11.5226 36.3625
488 1 39.0737 4.26034 36.1628
1573 1 44.1178 11.1548 46.5033
2196 1 46.8105 17.2709 34.7783
6578 1 38.2153 16.0736 34.6032
202 1 37.0259 13.4877 34.3858
6288 1 46.9837 7.55622 44.0479
7552 1 42.0306 4.58455 38.732
6631 1 45.9413 3.47708 38.9167
3561 1 35.9857 9.09876 40.8953
3952 1 33.966 4.25779 42.8244
1460 1 34.2657 10.4767 36.2069
7878 1 47.0798 11.7017 33.7444
5449 1 39.403 16.8309 41.0199
3504 1 36.1353 11.2021 43.9771
3465 1 34.343 14.384 41.4814
3996 1 42.2119 13.1084 45.4897
5310 1 44.5653 10.6541 33.5263
5787 1 46.0248 14.3487 41.6394
7860 1 45.5619 5.05143 41.4223
7225 1 43.2428 14.1363 41.2907
1500 1 38.5047 12.5011 44.6679
7964 1 45.3482 6.88089 36.3087
1718 1 43.1632 9.382 44.5867
2526 1 43.3512 9.02581 35.7699
3229 1 46.7588 11.753 42.9461
6187 1 47.3257 5.65253 34.7239
6967 1 37.0364 3.7573 39.6784
1431 1 35.9601 11.9575 41.3245
432 1 40.876 8.00988 34.6277
3917 1 35.1176 15.7404 39.0576
7873 1 37.0702 14.0924 38.1046
660 1 45.1789 7.80566 46.1543
2928 1 33.9855 5.91708 38.4734
1029 1 38.3444 4.41312 45.3811
7245 1 40.1463 3.58052 33.7095
6857 1 34.5431 14.9074 44.3076
4948 1 36.9332 4.91962 43.0121
1441 1 38.6514 2.77292 41.7331
6285 1 38.2566 13.151 40.5441
7770 1 36.6495 4.69879 34.798
4497 1 43.7616 10.7236 38.8335
7164 1 41.6868 10.3688 33.2299
5673 1 44.2449 14.5858 46.8677
4254 1 37.0741 7.49624 35.8867
2707 1 41.0625 12.7607 36.0281
4751 1 43.019 15.5454 38.832
2115 1 39.2573 7.0017 46.144
52 1 34.4844 13.9627 35.2955
6024 1 34.2335 8.04294 46.1101
5260 1 46.6073 9.56935 37.0517
3203 1 34.2476 4.54672 36.2317
7176 1 38.106 6.15668 40.5776
7378 1 46.3575 13.7052 37.0668
7117 1 46.2984 7.96313 41.4738
1936 1 40.3392 16.7053 38.5403
7307 1 45.7814 12.4178 39.6202
3021 1 39.3109 11.7757 33.868
5685 1 46.5085 3.1378 33.9418
4011 1 42.285 2.59995 35.2708
6152 1 43.4381 16.6452 32.656
6233 1 47.416 10.0831 39.7892
7486 1 36.6477 17.481 40.8533
4263 1 39.1677 16.7398 47.3925
6006 1 40.5812 9.46687 47.2884
5946 1 47.3816 15.92 38.1686
2036 1 40.758 14.389 47.4639
5937 1 42.1296 17.4435 44.186
7469 1 41.2886 8.49882 61.9811
4111 1 40.4206 12.5855 49.7319
3356 1 35.2058 6.86638 56.5604
4208 1 41.5191 14.8061 53.8494
169 1 33.3049 4.4448 61.8724
6717 1 37.0281 7.34983 52.6363
6693 1 40.2966 6.60573 59.9977
2175 1 37.3595 9.73742 51.0371
91 1 46.7046 12.8548 60.5845
4057 1 43.0183 13.9042 59.7198
648 1 39.4712 5.69737 50.1112
1217 1 40.2971 9.55051 54.1902
2106 1 42.198 4.56197 50.9486
1345 1 47.3976 11.3497 52.0099
2557 1 42.8346 7.12073 58.9912
1630 1 41.2965 12.6228 55.9578
1689 1 47.2015 16.8225 51.123
4527 1 35.6842 8.24089 60.8351
596 1 37.908 6.92139 55.2812
3752 1 42.0593 3.023 57.9192
4129 1 37.7509 15.0424 59.4032
340 1 34.5918 5.04822 58.5191
5862 1 41.5308 6.36699 53.008
6279 1 40.7944 12.1343 53.1567
443 1 45.935 3.83575 50.1496
4950 1 46.9026 5.71892 51.8053
5250 1 45.84 16.3327 54.5862
6249 1 41.2944 9.85327 50.1179
4917 1 44.6233 6.06025 60.8964
5759 1 34.3794 2.72165 51.8237
985 1 39.6009 8.05649 51.7267
3657 1 34.7815 10.4916 51.9311
2236 1 42.2863 3.85329 48.0941
4169 1 39.7113 4.82268 54.6613
4256 1 42.7686 16.0475 48.8079
7472 1 43.5163 6.23873 54.8475
4918 1 45.6313 12.3593 55.7644
4992 1 44.2966 3.37749 59.7826
2974 1 38.34 12.478 51.8369
5281 1 37.7842 9.92381 48.1004
6761 1 43.9986 6.71943 49.9065
3425 1 37.8913 3.09591 59.2385
3157 1 36.0906 4.62139 61.0456
5223 1 43.0263 8.76846 53.444
7668 1 38.7927 3.77066 52.2553
2238 1 37.1646 8.36069 58.3158
34 1 43.5686 13.7406 57.0131
5109 1 35.1744 15.2628 53.6452
6847 1 42.9576 13.7475 50.4125
3985 1 44.2936 11.4356 60.1887
3980 1 39.2477 3.70662 48.0427
6454 1 39.8765 11.6415 59.9719
7611 1 43.2801 9.01036 48.318
5261 1 37.6411 9.79416 55.053
1890 1 45.2724 7.89675 52.0118
4479 1 40.7476 15.1544 58.6749
2984 1 44.2287 15.9801 61.0528
2876 1 45.3325 10.159 50.2528
5161 1 45.8214 9.61208 58.4378
575 1 42.0296 9.87235 59.5222
5851 1 37.9281 6.65168 61.6147
2737 1 44.0594 15.2128 52.7018
1926 1 36.4093 12.0717 53.7848
7313 1 37.7214 15.3782 52.0697
2965 1 33.9699 13.1693 55.0481
4324 1 32.537 11.0372 60.1503
15 1 32.9262 16.0148 48.216
5073 1 33.3309 2.60904 55.9239
3044 1 44.2886 9.74701 55.8642
4959 1 34.2601 7.68605 51.0145
5021 1 34.6695 12.4869 50.0903
1932 1 37.4555 14.258 55.3771
2613 1 38.889 12.9859 57.515
3582 1 41.6159 9.72299 56.8335
7234 1 41.3636 16.3405 56.2965
2680 1 44.955 3.79436 55.0525
710 1 35.9895 15.6991 57.4667
3435 1 43.2419 11.1124 51.8318
86 1 45.1605 12.6142 48.8443
161 1 36.7936 11.0992 57.3952
1434 1 33.1492 8.29769 59.87
7180 1 33.5963 14.8313 51.3567
7944 1 36.1286 13.1706 60.5677
6363 1 45.9705 4.40058 57.7536
6462 1 32.9281 8.51115 57.161
10 1 41.5213 5.62741 56.7572
7830 1 46.7634 15.0867 62.2784
5336 1 35.4777 5.79912 49.3254
1492 1 47.3696 5.02096 54.3596
1418 1 36.629 16.6374 48.7586
4020 1 34.4321 12.3998 58.5554
2953 1 36.1604 4.90715 52.069
7645 1 34.2232 14.7062 61.8506
7065 1 38.4333 12.7352 47.6025
786 1 36.9713 13.8884 49.8235
2334 1 46.0336 16.3016 58.7283
566 1 41.2606 13.1837 61.8962
7496 1 40.4309 15.2034 51.2369
7941 1 37.5915 7.1312 48.4227
4174 1 36.6424 3.45573 48.7063
4654 1 33.3137 14.7727 57.1888
5099 1 39.7377 7.63564 57.3015
7122 1 39.1662 16.2728 54.4231
6142 1 40.4896 3.90931 60.0878
6052 1 35.1893 4.67407 54.8142
176 1 37.3358 10.6259 60.2238
7493 1 46.4842 9.35815 54.0408
7077 1 35.0294 8.67132 54.1856
7478 1 45.276 12.8249 53.0524
5124 1 42.5209 3.28992 62.2871
110 1 37.7198 16.9995 61.49
1286 1 34.3102 17.4177 50.2851
584 1 34.3102 10.6686 56.1263
5894 1 45.923 6.03525 48.2708
7112 1 44.9991 7.15594 57.0638
3057 1 44.0763 16.5295 56.8815
3746 1 44.2846 3.05742 52.2648
1813 1 33.3122 8.98688 48.6642
7051 1 41.4622 6.60134 47.9025
2321 1 32.9255 5.49288 48.2956
1968 1 47.269 16.4533 48.2572
4818 1 47.4457 7.35416 55.7689
5294 1 35.1962 10.9395 47.8871
919 1 47.0558 8.8822 48.0749
7217 1 44.3364 17.4206 50.7722
1925 1 33.0355 16.8122 54.9971
5500 1 40.3028 15.8538 62.3447
31 1 47.4321 6.00136 59.6572
7148 1 45.2378 23.7437 14.3629
4487 1 41.8787 29.0657 17.0205
5810 1 39.2796 22.4631 5.8433
5874 1 34.3552 24.79 4.91791
2717 1 34.4847 31.5121 8.79269
6473 1 34.9063 23.1753 16.6871
2108 1 45.7422 28.6708 2.6388
6129 1 36.8762 25.8197 11.7035
7702 1 42.0727 22.7938 8.73728
3718 1 44.8877 21.9992 12.0571
6764 1 37.4273 24.7443 3.17374
7726 1 41.9909 21.8279 15.3626
2920 1 37.1152 22.8843 11.337
3931 1 36.4385 28.0528 13.4503
387 1 38.8349 20.5486 7.83561
7551 1 42.4257 20.8397 6.08259
4781 1 34.223 25.4581 11.1392
2253 1 41.3787 31.736 6.2633
4841 1 32.7801 31.984 11.9805
2564 1 39.8498 28.2958 9.91768
289 1 42.2229 21.6915 12.5579
4648 1 39.1046 26.8534 3.00746
1684 1 41.8948 26.6307 3.47022
4995 1 34.2661 29.6388 12.4125
76 1 45.2735 23.7936 4.15305
3439 1 41.4872 23.9538 17.0508
3597 1 46.8897 31.567 10.0411
1759 1 35.2173 20.5482 3.28432
59 1 39.5467 26.4069 12.113
7881 1 41.2517 18.139 14.0661
3801 1 38.3941 17.8068 10.9434
5401 1 34.5625 21.6747 11.6931
3949 1 43.2444 28.6365 12.8236
7336 1 35.9385 19.1852 11.0221
3189 1 35.2706 22.7807 7.70324
7484 1 36.0284 19.5843 15.4514
4074 1 39.3305 29.5871 15.635
7924 1 45.2804 19.6481 13.4264
1448 1 33.083 32.3229 6.24662
849 1 36.9578 29.6178 17.1275
7105 1 42.856 24.9309 10.7876
2857 1 42.3463 27.1127 9.04533
6975 1 45.5808 23.9001 10.1706
5141 1 33.2777 29.4591 3.63743
2140 1 42.929 22.498 3.71736
373 1 40.967 30.1053 11.8009
3690 1 38.5363 30.5345 8.76819
1851 1 36.5217 27.0866 6.34024
2161 1 33.1253 24.2678 8.96291
3696 1 38.3157 20.5021 12.2562
4177 1 44.4557 19.4745 8.95915
1339 1 44.2847 31.7126 9.25863
1685 1 44.9581 30.6669 6.67463
3390 1 38.3007 20.9411 15.0941
2001 1 35.1382 28.9373 7.85251
1698 1 38.0084 30.5505 6.00008
1475 1 43.4648 28.0842 6.50042
6597 1 39.2162 22.8834 9.37156
859 1 46.1746 27.5275 15.6303
3606 1 36.3127 29.9637 10.3965
7744 1 33.89 22.1197 5.24328
4306 1 41.9377 23.664 6.10207
4464 1 34.8126 18.0391 13.3291
5222 1 46.9986 19.8817 16.4788
4941 1 41.5314 19.8103 8.76423
3938 1 34.4708 18.6167 6.96888
1658 1 44.8352 26.535 4.20862
3591 1 45.3248 32.2295 13.4836
5808 1 37.2241 27.3209 9.13605
5825 1 36.1576 20.3547 8.53547
5770 1 41.374 31.4475 9.13012
5113 1 40.9301 19.4058 11.5277
83 1 40.5267 19.6761 16.2865
4142 1 45.9667 27.6057 12.9522
2301 1 45.1563 19.8797 6.18338
1094 1 44.8134 18.9726 3.60496
6172 1 41.5751 29.3009 4.59012
2562 1 39.1278 28.1271 5.44301
6334 1 40.9961 19.1279 4.40715
3110 1 34.1062 21.466 14.6187
497 1 35.8359 28.3262 3.88784
367 1 32.6338 27.792 11.0488
3545 1 38.3915 23.4881 13.8641
2901 1 44.5331 17.992 11.3132
4845 1 38.896 25.0065 16.2954
2758 1 37.3516 32.319 12.0178
1504 1 42.3888 26.3339 15.9422
763 1 36.0665 27.1028 16.1594
939 1 39.9287 27.0563 14.7489
4822 1 40.9552 26.3864 6.51939
804 1 43.4211 30.5292 14.9427
3558 1 45.8648 26.4388 6.93815
3098 1 44.1998 28.9719 10.0605
6530 1 40.5434 23.7853 11.8766
7185 1 32.6103 28.0187 8.39988
6130 1 35.8958 24.781 14.4978
7883 1 46.7352 20.5337 10.3409
6841 1 45.577 25.0761 16.9219
4201 1 46.8065 30.2098 12.4219
2177 1 33.4577 23.8684 13.279
2572 1 44.4914 23.9891 7.65406
5420 1 34.9401 31.2162 16.1268
6443 1 37.0263 24.2375 5.9823
6483 1 38.4314 29.9107 13.1061
7333 1 46.5642 22.4903 6.25146
3742 1 38.9267 25.1286 7.88267
3454 1 33.158 29.4988 14.9306
1325 1 36.3119 18.8187 5.06454
6931 1 44.689 21.2961 15.704
830 1 38.7687 18.3942 5.86683
705 1 43.6374 25.727 13.3998
6434 1 35.2857 30.5635 5.49524
4205 1 43.5817 32.161 4.598
5033 1 32.6576 25.8027 6.73402
247 1 47.2229 25.8973 11.2402
5487 1 47.2826 30.9772 3.60626
1157 1 39.3763 22.634 3.08093
6421 1 46.5462 27.6956 9.25682
306 1 40.1557 32.0939 16.0703
3222 1 45.4345 30.1603 17.0054
3198 1 37.5719 22.7416 17.1655
1794 1 41.5423 32.2318 13.7841
1657 1 32.5926 17.6999 16.7349
579 1 33.5703 27.9074 17.3167
5270 1 34.8606 26.021 2.5142
6624 1 47.4847 22.6507 2.68043
1977 1 41.7697 21.2247 30.7158
5062 1 41.2414 26.7656 31.152
1241 1 37.9819 19.8183 29.5424
3308 1 42.0839 29.4294 19.8327
947 1 43.5434 29.5508 26.1032
4714 1 37.2241 22.3461 30.3483
7722 1 41.3527 23.337 27.3826
6179 1 44.0436 26.448 29.9938
3074 1 47.1333 22.771 31.7488
572 1 34.873 23.8688 25.5866
7499 1 33.1179 17.5938 25.0244
6082 1 35.7183 31.5042 27.5103
4585 1 34.3518 29.3572 19.4561
5877 1 33.2905 25.1304 17.9435
4924 1 46.7166 29.0199 22.3266
4767 1 46.5182 20.1989 19.2669
538 1 37.5362 26.2663 18.4203
5001 1 36.4181 22.6995 21.0638
5556 1 43.0528 25.8284 22.5685
1300 1 38.5209 25.9779 25.9774
1105 1 39.028 31.1566 31.2822
937 1 35.3393 25.0728 19.7547
5740 1 35.9142 26.1623 24.8063
3134 1 45.976 18.6163 30.1387
2383 1 38.8461 18.1111 31.5969
4796 1 44.2592 23.53 24.3324
1436 1 45.5196 25.339 20.9112
2032 1 34.7765 25.8651 22.2247
7831 1 45.1928 28.8974 29.8141
7205 1 35.2702 25.4206 28.7993
799 1 38.9921 19.3512 21.7068
6781 1 38.5901 23.1131 26.1527
140 1 40.156 25.7638 28.4751
245 1 35.3449 31.251 23.3399
6726 1 46.6917 31.1707 20.4396
2762 1 42.7454 17.8568 24.0518
4837 1 39.4187 31.0998 23.1665
4484 1 43.7363 19.2963 31.7746
5236 1 42.9598 30.448 30.3085
3590 1 35.1153 20.51 31.6398
6113 1 38.3749 32.2795 27.6972
1626 1 40.9499 29.3329 24.9296
6945 1 36.8293 29.0718 26.8365
3616 1 39.9378 25.5593 19.8393
565 1 46.9891 31.1926 25.7053
128 1 40.831 19.3497 28.8308
4012 1 33.3005 28.1188 21.7818
5945 1 35.8741 17.6822 25.4168
394 1 37.9527 23.2608 23.2727
4842 1 35.8249 21.5038 24.3565
3403 1 39.9015 18.5045 24.2634
2458 1 37.554 27.0444 28.5859
4426 1 46.1828 29.017 27.2587
7257 1 42.389 27.7454 27.9527
4770 1 40.581 29.2402 29.733
7195 1 37.1246 28.723 19.9042
7576 1 41.7744 21.9565 24.9551
7626 1 43.6068 22.4494 28.7516
734 1 39.9065 23.3299 30.0845
1495 1 39.4158 29.8191 27.1031
2815 1 34.4088 28.1473 25.8042
3884 1 32.9828 23.5897 22.3357
3016 1 41.4013 18.4593 20.3741
7951 1 41.6234 20.5405 18.7433
1593 1 40.8659 26.6631 24.6078
2695 1 45.6341 26.5469 25.778
3628 1 37.0935 27.3735 22.4034
6361 1 34.0499 29.593 28.9198
1970 1 34.3846 21.0654 21.8726
815 1 40.4108 22.8239 19.4351
4879 1 35.6872 18.1667 29.9248
5014 1 35.3182 28.9953 31.3146
3162 1 34.9513 32.0366 20.5154
7235 1 34.5321 20.7003 28.75
5267 1 42.9712 25.522 26.1459
6054 1 38.0763 28.5564 30.9779
3948 1 46.818 22.8068 20.6227
3909 1 36.2612 22.8333 27.7931
7216 1 32.7122 24.7122 27.5239
3129 1 46.5921 27.8007 19.7788
6980 1 33.9448 20.1364 19.2304
1750 1 44.8114 21.6342 22.0686
1538 1 45.2047 24.683 27.9281
5151 1 36.1798 31.8691 31.2633
2137 1 42.6266 23.2217 21.3475
6238 1 32.7563 21.1051 25.0358
4350 1 39.2077 25.6285 22.489
4522 1 39.4299 30.2694 20.5474
4157 1 44.1045 21.479 18.3817
3204 1 44.4538 28.2211 23.6515
3794 1 43.6659 19.0958 21.7681
616 1 46.8742 29.4703 31.9281
1505 1 36.2856 19.548 18.163
5649 1 36.8239 20.0913 26.8861
5869 1 38.0988 21.2454 19.47
2972 1 43.7434 24.1754 18.8883
447 1 37.2964 29.4859 24.027
7713 1 46.0933 20.3676 24.2313
1333 1 44.0794 31.3209 19.3464
1328 1 45.0077 20.2951 28.1307
3761 1 42.5651 30.0376 22.7345
6663 1 46.5781 25.0208 23.5849
7740 1 33.0452 29.8834 23.9864
4047 1 43.099 18.0436 27.8296
3326 1 43.5158 20.0682 25.512
7067 1 35.2831 26.1072 31.5488
980 1 36.2651 18.9312 22.78
7599 1 44.9519 31.5899 23.4685
5271 1 42.4709 26.625 19.9414
5393 1 44.6257 23.927 31.1627
3607 1 40.4147 21.7657 22.4732
7893 1 39.5404 20.3339 26.3918
5534 1 46.1014 22.4767 26.1744
1915 1 44.2387 27.4466 17.8408
6350 1 47.0522 18.0924 25.9343
1978 1 43.5236 32.3893 25.8697
3387 1 39.4807 32.2546 18.694
1209 1 32.6594 22.6953 29.6565
5831 1 32.6455 19.4328 27.1737
4085 1 32.5312 22.4777 18.4635
6876 1 45.3556 17.6683 20.2225
3420 1 32.6245 25.5734 31.7326
4872 1 39.1115 26.8332 41.4119
1064 1 32.708 28.3244 35.1534
94 1 43.0043 31.2151 36.0195
4962 1 38.681 31.1247 39.1684
1236 1 39.2561 27.134 37.1325
5723 1 38.5435 20.4246 42.3085
4006 1 40.8114 23.7959 37.5327
4051 1 36.0843 29.4527 45.2024
5963 1 40.1792 18.7323 45.6456
4849 1 39.4295 21.3856 44.7063
7960 1 39.4999 21.2269 38.5632
5852 1 35.2877 28.5307 39.922
400 1 46.786 25.0066 35.5183
7904 1 37.3797 18.7317 35.8557
2077 1 34.3237 19.0925 41.8264
6872 1 46.3625 29.2731 38.7649
6547 1 33.1295 19.1002 33.0556
6543 1 36.777 23.8094 41.9471
3436 1 43.5526 26.025 43.8267
4511 1 33.3989 27.2451 41.7738
5964 1 43.3719 21.315 46.1941
1332 1 46.0811 25.1451 44.5601
928 1 39.9786 18.9407 37.0721
4859 1 33.9029 20.1694 35.4325
4840 1 45.9193 31.6867 36.1199
2607 1 34.7174 17.6798 36.8452
6742 1 46.0441 29.1143 45.6251
6636 1 37.2442 19.9558 39.6793
152 1 43.7111 26.4708 37.0328
4410 1 32.8141 21.4242 42.1091
238 1 38.7615 29.0532 46.38
3563 1 41.7817 18.8445 34.9045
3501 1 36.9242 31.4449 43.2399
7025 1 43.2848 22.6657 42.3134
3008 1 35.922 32.034 38.9057
4391 1 42.5794 27.5551 47.1062
3714 1 42.8864 31.1019 40.1257
629 1 41.7489 22.8055 44.5311
5433 1 41.152 30.3721 37.953
1420 1 43.9837 28.7882 43.6603
2547 1 35.4116 21.7081 40.8345
7269 1 38.887 22.5251 34.0846
4278 1 35.9952 22.647 44.4392
6961 1 33.7838 23.9101 36.2448
1973 1 34.0864 19.2953 46.0386
3190 1 38.5892 29.887 36.3242
6474 1 46.3943 19.7688 38.4524
3555 1 38.8172 26.3754 45.9018
599 1 35.1278 29.1125 33.9827
5968 1 33.601 28.7228 37.893
2030 1 33.3639 24.8878 40.154
1165 1 47.2377 31.8493 33.5967
5373 1 33.152 21.8106 44.9247
7371 1 41.2466 25.6857 35.3555
2488 1 45.8224 22.6058 43.5098
5126 1 37.7122 22.4652 46.6185
7303 1 45.2404 22.3247 38.2069
4062 1 42.783 20.3435 40.8768
7272 1 34.8964 26.5534 36.1332
5694 1 44.93 28.8983 36.1497
1440 1 37.3676 27.4698 34.8959
6790 1 43.2248 25.341 41.181
115 1 43.5598 31.3303 42.8687
2345 1 39.4288 31.1678 41.7996
7715 1 34.4403 22.527 33.859
1399 1 47.4007 30.9034 42.2609
2323 1 39.1314 22.7726 40.8467
4932 1 34.0559 22.666 38.6537
3807 1 40.2734 24.6679 32.7394
7162 1 36.1103 20.9387 37.3138
2521 1 34.0817 24.5292 45.5453
6446 1 34.9671 27.1317 44.1395
7584 1 38.103 22.9072 36.7108
5618 1 37.1266 25.2389 37.4517
4346 1 41.644 32.0185 44.9533
1924 1 44.9324 24.9952 39.1402
2227 1 38.7643 31.9341 45.3065
487 1 41.579 27.6113 38.5262
7038 1 47.251 26.2283 42.3451
5812 1 41.2923 25.4913 45.5966
7302 1 35.098 30.8675 41.2615
6638 1 37.9562 26.4072 32.5536
5103 1 45.4548 32.013 39.1016
7745 1 38.0746 28.5101 39.4894
1303 1 44.1169 24.7016 34.7986
4407 1 34.1224 31.6419 33.318
3300 1 44.9138 18.8226 41.6458
2433 1 43.1323 22.3857 36.4371
6147 1 40.1057 30.5447 33.8708
4747 1 40.7258 25.1849 40.043
856 1 45.9215 28.6415 41.4844
4708 1 41.474 28.0998 33.6005
3174 1 37.4023 17.8687 45.4779
7016 1 40.8775 18.8713 42.1145
7814 1 43.6769 20.8229 34.2616
7887 1 36.0297 25.6063 39.965
3349 1 41.3529 29.3218 45.0425
6582 1 46.009 31.7522 44.6222
1809 1 42.2124 20.2329 38.1971
7158 1 33.1237 17.9507 39.4304
5463 1 37.4403 19.9569 33.3072
5679 1 34.4456 31.3506 46.4899
2366 1 37.5052 25.9797 43.5369
2849 1 45.8957 20.687 45.2261
6540 1 40.3274 20.3699 32.9086
6091 1 35.6624 30.3958 36.5119
5176 1 40.6902 28.7567 42.4524
6345 1 42.7649 31.5455 33.0607
1394 1 47.3713 27.6924 35.6753
6325 1 43.0201 28.3142 40.933
858 1 36.192 19.8472 43.9833
1930 1 44.2717 28.8968 33.3769
231 1 44.8696 18.1538 44.4832
1444 1 44.114 18.1946 37.9702
7377 1 46.4725 20.8126 33.6842
7270 1 44.9879 26.3953 32.647
1461 1 32.9112 27.3145 46.1123
6206 1 42.7465 22.9557 32.913
2663 1 32.5674 31.7793 42.2352
5919 1 45.239 32.1828 47.3513
3293 1 36.7434 19.9304 47.4332
281 1 36.6269 23.7556 32.6494
3540 1 44.8254 17.5761 47.4195
5055 1 47.4835 19.8755 41.1183
336 1 44.9465 25.8349 47.1572
7423 1 39.7024 25.5467 54.3875
4897 1 43.511 32.1371 51.0027
3419 1 35.6898 27.6221 60.2755
5208 1 46.8648 26.0855 56.2695
4571 1 46.3704 20.1779 57.3742
191 1 38.5292 24.5199 50.2987
2528 1 43.0828 18.2659 59.8274
1706 1 45.8246 27.9132 58.1285
5427 1 37.5446 25.7896 52.5615
6678 1 44.2395 25.1449 55.8538
3212 1 43.663 19.3643 57.194
4591 1 36.9443 18.0372 52.2235
3022 1 34.364 29.3987 52.3408
213 1 37.8236 31.3552 48.1086
1010 1 38.1055 28.4439 58.964
4861 1 40.5221 17.6613 49.5608
7721 1 40.3686 30.2645 59.2984
148 1 34.0724 18.4288 52.9053
385 1 35.01 26.8063 51.4152
5247 1 37.1694 32.194 51.82
2453 1 41.5934 23.9363 47.841
7733 1 43.5078 29.6602 54.3944
4610 1 32.6703 25.3088 52.2346
5986 1 36.1251 26.6702 54.854
2590 1 45.1358 26.5666 60.4795
3450 1 41.9686 18.694 51.7024
390 1 42.2874 25.5815 57.7141
4050 1 36.3141 23.3677 53.5669
2844 1 42.5833 23.1153 52.0338
1646 1 43.0461 22.039 58.127
3354 1 45.4599 28.6316 52.6761
1659 1 46.0686 23.7122 60.4786
1618 1 43.8712 29.4299 50.734
5348 1 46.8764 21.0757 51.2495
7292 1 44.6647 29.2575 48.0384
6146 1 45.1149 21.2293 59.7796
6215 1 36.1861 31.5289 61.7227
1414 1 33.0845 28.1051 56.1728
5232 1 46.8607 21.5658 47.6978
5614 1 43.5245 19.1706 54.1892
7602 1 43.3633 24.3449 59.9751
1172 1 35.6572 30.5374 49.9546
512 1 38.7113 28.1584 51.8225
6232 1 42.5868 27.6985 60.8824
5719 1 35.3624 29.4342 55.0126
5114 1 43.3241 25.5233 53.4005
2078 1 39.1018 19.4375 58.0703
2837 1 38.0103 21.2894 53.5597
1831 1 35.2774 22.1859 49.9612
3202 1 41.6205 31.5149 48.9935
2759 1 33.5134 31.5272 55.8561
869 1 42.6945 32.1937 53.7972
4895 1 46.0723 18.7939 52.9229
7125 1 40.3245 20.2464 61.901
1153 1 33.9679 18.4803 61.7355
4769 1 39.8598 26.7301 60.3354
7596 1 43.9669 21.7754 54.0545
3168 1 41.3867 19.7835 47.8885
474 1 46.7298 32.0212 60.8554
6644 1 47.3411 30.7932 52.9441
7126 1 37.8003 30.0537 53.6598
1564 1 42.1018 28.3274 58.1092
3133 1 40.3646 30.4471 62.0335
2141 1 36.9462 23.7285 60.5321
6579 1 38.4166 21.6435 56.5954
6283 1 43.2577 20.4459 61.7519
6068 1 44.2833 29.8979 57.0777
4706 1 42.5992 20.9861 50.2675
2889 1 39.7662 21.9607 48.3972
1941 1 36.8378 30.437 57.2736
3426 1 33.0773 21.0968 61.225
3289 1 46.8165 22.3874 53.7955
1465 1 41.4947 24.0763 61.9475
5242 1 33.6545 20.9965 58.4952
224 1 46.5257 31.0018 55.6766
7792 1 41.3949 27.765 51.1241
5870 1 41.5505 27.6165 53.917
6985 1 35.277 23.5424 56.1844
7457 1 45.6302 25.9651 51.7948
2697 1 34.0443 22.7395 52.1954
597 1 38.2784 26.5047 56.7645
3040 1 44.4663 23.2414 48.103
798 1 39.5881 24.089 59.6832
4121 1 36.3428 21.9122 58.4044
4641 1 45.4033 22.571 56.3604
1846 1 45.0991 19.8362 49.3609
4106 1 37.4401 21.1693 61.7198
627 1 35.7111 26.9305 48.7163
6495 1 39.8766 32.3009 53.0821
7618 1 41.2623 24.9706 50.313
7230 1 37.71 29.1962 61.9563
2578 1 34.0122 20.7631 55.6888
1350 1 33.932 29.0525 48.2146
4760 1 37.868 28.6791 49.2869
7620 1 40.2884 22.9339 53.5896
4242 1 46.3968 27.2268 49.2895
1904 1 33.5122 25.5563 54.967
747 1 39.9874 24.1062 56.909
454 1 37.9893 19.0123 49.7916
1080 1 36.0572 25.2857 58.2803
703 1 34.029 23.7851 61.0121
5927 1 45.1591 23.3736 50.7869
1580 1 40.1548 28.5488 56.0212
6960 1 41.6212 22.0546 55.6401
1150 1 39.1585 31.2944 55.8301
1893 1 43.9507 32.3697 60.965
3176 1 40.6613 21.3813 59.4402
7776 1 33.6224 26.6158 58.5904
2409 1 39.6458 18.8888 53.3853
5861 1 36.2928 19.4244 54.656
5563 1 37.9687 21.7449 50.6305
4574 1 34.2837 19.9181 48.8674
5197 1 46.7844 20.1065 61.6657
1823 1 33.001 32.2543 59.6772
3713 1 34.7214 17.5236 59.2043
1020 1 36.7901 19.2312 59.6699
3373 1 43.434 32.278 58.2867
4287 1 41.0562 19.0364 55.8901
5003 1 40.7087 29.0146 48.5587
2643 1 33.9909 29.8859 61.0131
197 1 34.6553 24.2222 48.3326
7227 1 40.3293 17.7744 60.2433
4179 1 37.5512 17.759 56.3269
3899 1 37.4585 24.9608 47.8226
4783 1 33.5703 31.9069 53.0183
2713 1 33.0578 18.3433 57.2599
2259 1 47.273 25.0914 53.7729
2042 1 47.4196 23.9146 57.9828
3508 1 35.8441 32.2907 58.9612
5633 1 43.2586 30.0781 62.3548
6411 1 43.2257 39.604 15.9116
524 1 41.9311 44.2258 6.41657
401 1 38.2802 46.5219 17.0239
3841 1 39.7815 46.448 13.2699
2851 1 38.7521 45.7368 7.81691
3771 1 38.1749 43.2606 12.4043
3187 1 37.9981 36.1739 11.7234
3753 1 45.0136 38.6555 14.0534
3241 1 41.5076 39.7781 11.8183
4202 1 36.9321 40.1685 9.21845
2511 1 46.9818 33.8744 6.66444
1648 1 45.9616 36.1826 14.6322
4510 1 45.7339 32.7838 16.2248
1422 1 42.1144 44.8251 13.6348
3357 1 41.3148 43.8925 3.58057
3643 1 44.8855 36.0076 4.78329
4173 1 42.689 46.6253 10.1136
957 1 33.0805 45.2982 8.08154
681 1 34.926 33.9185 11.8944
4476 1 35.616 37.6526 9.24522
6214 1 40.4886 43.545 10.5948
2434 1 38.3994 34.2211 15.4016
4737 1 41.023 47.0417 16.6132
965 1 40.0184 41.3285 5.60863
1425 1 38.0582 47.3449 5.57332
4077 1 36.4989 40.0829 3.25468
6368 1 39.13 38.8116 6.30014
2495 1 32.9431 42.7832 6.7157
4097 1 35.5688 46.0702 12.5777
2959 1 44.6088 34.4763 8.41082
6343 1 38.7748 44.9947 3.85191
4033 1 46.7462 42.8699 14.5648
4123 1 40.7166 36.9872 4.69936
1443 1 44.9251 39.391 11.1901
6412 1 44.7704 38.2907 3.40222
3623 1 44.394 46.5185 13.113
3404 1 43.5333 41.6276 12.5582
4245 1 34.1277 34.8324 4.94519
5421 1 42.6449 44.4671 16.4659
5553 1 43.926 42.2818 15.2387
1219 1 35.6191 34.1896 9.19136
4091 1 39.2249 35.2778 6.2981
2674 1 34.599 39.7248 7.61175
7642 1 44.1488 40.7524 8.74767
6433 1 43.8442 35.0268 15.8897
5659 1 36.8544 35.6465 4.95935
2037 1 38.9093 38.6921 11.8114
848 1 33.8843 37.6603 4.12238
2646 1 43.2631 43.9039 11.0557
6721 1 36.6913 37.6704 15.5127
1439 1 42.8836 37.1832 11.6076
5583 1 35.414 43.3666 5.61431
1086 1 43.2094 38.2668 7.69806
5088 1 46.8082 37.3378 10.0047
3900 1 45.6291 36.9928 7.3391
6260 1 37.115 35.5334 17.3823
3945 1 46.282 39.8233 7.05877
2274 1 40.3804 36.162 15.563
7942 1 36.0557 33.2011 14.6218
3719 1 40.4523 40.3941 15.8937
6669 1 34.1784 42.0016 15.2219
7114 1 34.0026 35.1525 15.0255
4395 1 35.6806 36.3574 13.2734
7791 1 41.0648 41.0095 9.25549
5616 1 34.1102 38.0371 11.6326
2132 1 43.3041 33.1778 11.6112
1949 1 37.6337 45.0061 14.618
4600 1 34.0149 42.8892 11.2483
4921 1 46.7704 46.3567 2.84986
2821 1 45.8323 45.5065 15.235
2544 1 36.2811 44.3123 10.5663
3922 1 46.1652 33.6479 4.12939
5026 1 34.9353 46.2106 15.5308
5204 1 35.8016 46.1076 8.31366
5802 1 33.4621 44.3082 13.6855
5437 1 42.4927 34.7333 4.5796
1323 1 42.8243 41.4975 6.25449
1288 1 39.3384 43.0916 15.9986
3035 1 46.545 46.5689 7.06482
211 1 34.1509 40.6366 12.7993
995 1 35.4532 46.0555 5.51598
5131 1 33.0071 41.4764 9.24106
7561 1 39.4681 34.1121 12.8496
6223 1 39.4084 38.494 9.06162
28 1 41.9754 34.5983 7.33734
5922 1 36.3288 38.4179 5.4718
7900 1 37.7678 35.9925 8.74853
4623 1 34.7316 39.4096 16.4147
2097 1 37.6477 42.4234 4.50377
4843 1 45.9447 45.3619 11.083
5032 1 41.4438 41.1196 3.11579
949 1 34.0243 41.7672 3.60515
5776 1 45.2862 43.3317 9.08914
491 1 45.0253 35.4352 11.1535
7000 1 39.5592 43.013 7.86371
6612 1 43.9252 45.5001 7.92419
1789 1 42.1233 35.249 13.5669
39 1 39.2032 38.4491 14.5868
4266 1 40.7341 42.1782 13.5522
2973 1 46.4331 40.6569 4.29458
2421 1 42.6418 38.9625 4.92287
1799 1 36.9438 40.7536 11.8505
1182 1 35.377 45.9862 2.78723
215 1 36.4838 42.9294 16.3957
4427 1 41.538 36.656 9.36717
2765 1 38.3371 33.2412 9.40753
5158 1 33.773 35.7848 7.7465
4972 1 40.9319 46.895 6.01367
4292 1 39.8388 46.2733 10.483
5921 1 36.7654 42.7279 8.08507
7168 1 44.909 42.8501 5.04842
4023 1 47.0862 34.377 12.8643
1112 1 41.0213 34.0382 10.2092
7796 1 42.8705 32.5833 17.1689
4334 1 46.9368 43.7842 6.72272
277 1 32.7467 47.017 5.62115
2221 1 39.1216 32.831 5.05356
2320 1 44.5772 45.3816 3.94073
1205 1 47.2362 40.1667 14.0149
1317 1 44.1227 47.4574 5.69602
4811 1 36.2355 33.0175 4.20936
7882 1 32.6719 40.0272 5.49929
6403 1 32.5191 35.8357 11.7548
6531 1 33.2112 47.4021 11.4427
2659 1 43.671 37.3908 17.3887
975 1 42.2476 46.2923 24.7702
294 1 40.3314 46.1128 26.9024
7109 1 34.1269 38.3265 24.1318
2751 1 41.336 33.7241 32.0767
796 1 44.7409 36.7512 24.2668
6976 1 37.5873 33.0673 23.952
2958 1 44.7764 41.037 17.8724
5889 1 45.9071 45.2364 29.3278
1491 1 43.6982 47.2018 27.2619
3185 1 36.4813 40.7049 18.2467
1989 1 38.3939 38.7341 23.079
6481 1 37.2185 37.4552 21.0006
4792 1 44.5438 39.7396 30.0788
3173 1 41.3552 36.2222 18.1166
1447 1 33.6056 41.8243 32.1029
5120 1 33.0581 46.4538 19.3971
7248 1 34.0358 34.7922 27.546
2882 1 41.3641 34.3762 25.7289
3177 1 40.2276 41.4751 27.3929
1101 1 41.6031 32.7284 23.5251
1141 1 41.9067 40.6624 30.9369
4224 1 44.5873 47.4971 23.6873
6919 1 40.8912 37.9945 31.008
3421 1 42.1328 43.6358 24.132
6079 1 44.9952 36.2714 27.1309
2384 1 36.9328 38.1586 27.3648
4765 1 45.6682 36.167 30.8799
6046 1 35.7334 47.1535 31.0756
6798 1 36.8291 45.5775 27.1373
758 1 40.5337 41.2072 19.9489
745 1 32.5972 46.5316 28.9313
1186 1 38.0932 38.2673 32.0102
1778 1 42.5812 35.5638 28.217
702 1 34.8023 33.332 25.3137
5947 1 33.5598 36.6553 31.2009
7094 1 40.1237 40.9926 22.6515
3493 1 41.3958 39.0007 26.19
6207 1 34.2313 32.9375 29.6782
6572 1 44.5788 41.1164 22.615
1065 1 35.2833 35.7255 23.5559
5989 1 45.2075 43.3078 19.4159
670 1 47.3014 39.9792 28.9284
625 1 38.0584 40.5492 30.3484
307 1 44.7951 45.5068 17.8026
553 1 37.4364 36.8065 25.0107
370 1 37.1254 34.6925 21.6378
4605 1 40.661 37.2455 22.4286
5845 1 33.2419 34.1125 32.338
1839 1 47.0564 46.0487 31.8944
4271 1 39.8011 45.8458 21.7457
5943 1 35.0028 39.0341 19.9198
4663 1 38.7973 37.11 18.8113
5859 1 40.7365 43.6224 18.568
6549 1 34.5133 44.5007 25.7556
7348 1 46.194 45.2139 22.7772
6112 1 43.2639 40.4871 20.2395
5007 1 42.094 42.8042 29.2126
6737 1 45.1577 44.8891 26.4915
1251 1 37.3147 41.8806 27.9512
1442 1 44.1985 36.1095 21.4807
3263 1 36.2712 43.8204 29.3453
6341 1 43.5156 46.7623 30.267
2906 1 33.4017 42.1141 26.0903
7054 1 42.6187 37.8846 20.1338
1226 1 41.9748 36.7983 24.6602
1878 1 32.7053 46.4224 26.1491
2868 1 33.5162 42.5262 20.3857
4857 1 43.9862 43.7775 22.0236
18 1 46.9782 42.5865 23.1407
2372 1 45.3311 33.4889 29.9489
2484 1 35.2632 47.444 28.3853
7193 1 36.1543 40.5047 23.6678
2222 1 44.8601 42.506 30.0383
7869 1 38.6258 34.4944 26.1083
4991 1 39.6697 35.7223 28.5564
4389 1 36.3619 43.3082 19.4651
5361 1 38.3646 45.1653 19.4003
1521 1 40.0061 34.6356 21.837
5257 1 43.8446 38.7618 27.6293
2929 1 35.1758 36.8253 28.9099
6057 1 35.1253 44.8464 23.1205
2570 1 47.2496 34.339 18.2112
1290 1 39.3188 43.6429 23.5086
4065 1 40.3069 33.1035 29.5458
6865 1 36.9125 43.0437 22.3505
1674 1 35.5558 40.5469 26.445
2818 1 34.3187 35.4563 17.9727
7684 1 37.7904 44.2535 31.9162
4778 1 41.0816 45.3557 29.5111
6780 1 34.5059 44.6587 17.7484
1844 1 39.4325 38.6808 28.5659
4269 1 38.8767 43.7227 26.3161
3400 1 33.5582 32.657 17.9523
3920 1 46.1091 33.6696 26.4388
7568 1 35.2973 39.9753 30.7347
5978 1 42.2711 45.1892 20.4744
7912 1 45.8351 39.1741 24.391
1335 1 43.3896 42.6585 26.5422
3556 1 46.5967 36.0106 20.4308
816 1 38.9574 39.7732 18.0444
408 1 46.2582 37.5735 18.1724
1853 1 46.5704 33.5471 21.8977
4399 1 37.133 33.3196 19.1967
3280 1 45.5479 40.741 26.6774
6318 1 42.3062 40.8472 24.3353
5424 1 32.9657 33.8006 21.2094
619 1 47.0426 37.2124 28.6403
7491 1 37.5813 36.0873 30.2299
1585 1 42.7995 35.7642 31.0223
4017 1 34.5301 36.273 20.7722
5265 1 33.7513 39.2225 28.4571
7738 1 43.6418 33.4288 21.4192
1312 1 33.6577 43.8484 30.0484
4554 1 47.0005 34.9263 24.1869
1252 1 33.7516 40.2948 21.9671
635 1 39.7025 42.1063 32.3724
3298 1 47.105 47.2647 18.0087
4352 1 41.5059 33.8395 19.3855
1206 1 38.2202 46.1474 29.7603
6273 1 33.0471 37.9312 18.0734
7905 1 32.7177 44.8155 21.7795
6164 1 36.467 47.2106 23.3299
4308 1 40.58 44.9587 32.3803
7408 1 42.9215 32.7883 28.7098
2316 1 33.722 45.6193 32.4251
7832 1 32.5813 42.631 17.5234
2513 1 43.5649 47.4392 19.4344
549 1 44.7728 38.3981 32.4521
95 1 36.9773 34.4584 32.3069
7059 1 47.4729 40.0928 17.7092
3149 1 36.2398 42.377 33.4194
4481 1 45.5782 39.6952 40.3934
7891 1 34.6059 46.5936 44.9278
68 1 38.8624 39.6149 41.4359
4196 1 38.5194 34.5103 46.3995
4721 1 37.9604 40.3076 34.025
7987 1 42.8512 39.8591 39.8265
3648 1 41.7388 44.5438 37.9501
2295 1 39.4628 37.8305 45.8652
5486 1 40.6674 33.6287 42.7239
149 1 36.5958 45.3597 43.1258
7559 1 45.1923 45.927 37.1262
2312 1 39.434 40.3539 36.5689
2902 1 43.4593 40.8521 33.4402
3726 1 39.4984 43.6694 46.0752
5707 1 35.9635 42.9743 44.6308
7231 1 41.9694 33.6729 37.1932
1666 1 33.1188 36.0581 36.3296
4149 1 41.4415 37.397 40.3395
4000 1 46.3845 36.6109 37.7252
4181 1 43.4251 35.5951 39.5839
4213 1 37.1897 33.7657 36.8715
7590 1 46.6948 39.0064 34.2922
2149 1 44.5035 37.6556 44.4319
1174 1 40.4546 45.5628 41.0876
4446 1 39.1804 34.3232 33.7373
6482 1 42.3086 40.6795 46.7035
1126 1 44.7454 39.2371 46.7085
4552 1 46.2206 41.8703 37.5237
774 1 36.7582 36.6811 45.7154
81 1 39.566 43.4388 39.4829
5907 1 41.9316 36.3684 36.4025
297 1 36.8763 43.4694 47.2013
3682 1 40.4515 37.7183 43.0228
585 1 32.6739 38.6866 46.9679
3775 1 34.6315 33.0125 44.0077
1121 1 43.3932 45.223 32.652
7553 1 43.9794 37.9561 37.7627
821 1 38.9854 46.4006 45.7771
1472 1 42.8905 36.7376 33.7007
121 1 35.1927 35.388 34.0775
7459 1 36.6818 40.5012 37.7841
5798 1 35.2773 43.0114 35.8204
4259 1 46.9554 45.6315 42.5532
6155 1 37.8491 40.9144 43.6624
4359 1 37.2151 33.9294 41.6054
5209 1 44.4079 43.7111 38.6402
2209 1 38.8039 33.9676 39.2739
766 1 40.9505 44.5346 35.2207
4030 1 44.6455 40.1894 35.9916
499 1 46.361 37.9202 42.2495
4276 1 47.1939 45.8525 45.3311
2427 1 38.6594 35.4288 43.5626
831 1 35.536 45.6854 39.1405
1518 1 45.0272 33.2022 32.7112
6357 1 41.3373 35.7811 46.8748
4034 1 36.749 36.5498 36.1553
4429 1 33.3857 46.1134 37.5573
520 1 33.0378 41.5373 36.571
5970 1 36.9913 38.1781 39.677
5512 1 41.4801 47.2548 38.8967
2286 1 34.9335 45.6233 34.9472
7082 1 33.4851 39.2627 42.8641
5756 1 41.2032 41.7831 35.0527
4777 1 39.1588 36.7011 38.8439
3907 1 42.5177 33.2789 47.1723
4252 1 35.1294 39.841 46.5498
4806 1 34.0933 41.9905 42.8014
4919 1 45.9007 35.3969 45.5877
2385 1 33.3204 39.7813 34.1517
5991 1 34.0338 35.4945 42.7101
6548 1 34.4563 35.1129 45.9101
674 1 38.1253 43.1939 41.9328
2552 1 36.524 46.2826 47.1967
1248 1 38.876 47.0285 43.0119
3562 1 35.0207 36.4706 38.3781
6649 1 40.6301 43.5469 43.3884
7747 1 44.833 44.1542 41.3612
576 1 45.443 41.7716 42.3665
3863 1 46.851 45.7791 34.6267
6898 1 42.127 35.7785 44.1667
3531 1 45.9492 41.3242 44.9824
7897 1 34.1632 38.692 40.1741
5202 1 45.1359 43.0883 32.7786
824 1 35.8444 39.2064 35.3845
2194 1 34.7576 34.3737 40.089
5848 1 44.7445 34.2487 37.3143
7075 1 42.5691 41.4806 42.4351
2016 1 41.4675 33.5762 39.9614
5818 1 45.4015 35.2243 41.5474
3158 1 39.4202 37.5823 36.1146
186 1 36.4084 36.7829 42.1819
3997 1 35.4637 43.2227 40.542
1650 1 42.338 39.4124 44.1867
5461 1 39.9804 36.8996 33.5157
4536 1 44.2148 42.9558 46.7792
1278 1 42.6859 41.6062 37.5985
5362 1 37.1913 43.5087 38.0356
6886 1 38.6516 45.5389 36.4787
5541 1 42.8112 45.3239 42.8384
6224 1 36.0762 38.8374 44.0182
2341 1 34.1486 45.7122 41.6843
7636 1 43.263 46.4267 35.0298
4458 1 44.2375 34.0933 43.6763
3366 1 47.1715 39.3536 38.3693
4697 1 44.9469 35.2081 34.6697
4215 1 40.2146 40.781 39.1944
6235 1 44.3836 45.5696 45.336
1041 1 34.2222 41.2253 39.1255
3831 1 33.5058 42.4086 46.2248
6821 1 37.4061 46.1831 34.1019
3604 1 39.3923 40.7305 46.0607
2265 1 39.6426 32.7215 35.9094
183 1 34.7407 32.9583 35.6869
5095 1 32.7234 37.1164 44.5636
1529 1 35.3791 38.0958 32.8731
936 1 47.1354 42.9286 35.1139
236 1 47.3419 33.2848 40.7403
7910 1 37.3549 40.9413 47.9719
4231 1 41.4394 43.298 47.8975
1488 1 45.4496 42.4932 55.3068
6629 1 45.5788 40.5145 50.316
5210 1 37.1827 38.9037 59.844
3345 1 38.5369 45.7389 51.3678
7899 1 35.3446 43.5623 61.8007
3834 1 33.0003 42.7365 60.3347
6686 1 39.7417 44.1289 59.6378
1992 1 44.5124 37.0299 56.6366
4480 1 33.6525 44.2281 56.5143
1724 1 33.8433 35.7572 60.7102
5104 1 43.6797 39.3087 59.183
129 1 35.5621 33.9759 53.187
3669 1 37.3879 33.6666 55.4583
2226 1 32.6379 39.5891 55.1473
5415 1 42.3978 41.5297 53.6602
2609 1 39.725 34.771 59.1207
6267 1 42.5954 43.2732 55.8854
7040 1 33.4322 46.7696 57.7719
1829 1 43.3073 41.3372 61.0963
5069 1 36.9936 36.4856 52.6008
3768 1 38.4995 42.1596 56.4535
1996 1 42.3196 34.354 61.8958
4171 1 37.6597 33.8317 60.744
223 1 39.2798 38.3423 58.0666
3683 1 41.2759 39.2916 48.7834
5019 1 35.9977 35.234 58.8423
5960 1 46.2092 39.0951 57.9592
6964 1 44.8861 43.0967 49.5059
352 1 35.357 44.131 49.5381
7623 1 35.8791 42.8578 55.52
1162 1 40.1585 47.2609 57.5964
7003 1 40.6346 32.6652 57.663
6306 1 40.1052 44.3834 56.6632
7692 1 37.8573 40.2206 52.8655
5923 1 46.9268 39.0929 55.1329
3028 1 45.7355 46.6514 53.9282
647 1 39.1614 38.2245 51.4019
2061 1 47.3192 32.5828 58.0675
1627 1 41.6813 39.5932 51.571
1713 1 37.2037 45.7192 59.3652
7837 1 41.4715 36.4692 60.3676
7973 1 40.8685 35.8661 51.6046
7996 1 40.4061 46.9341 60.5003
6619 1 33.445 36.3042 48.4731
8000 1 44.7866 37.5382 53.748
6522 1 34.5391 33.9514 56.8408
3408 1 39.6654 37.5803 62.2681
1911 1 44.0849 37.2766 60.9129
5890 1 43.9023 45.2573 57.8
1511 1 42.9413 43.7429 51.6601
3603 1 42.3784 45.5315 49.4616
2279 1 37.8424 46.8925 61.7824
7453 1 46.6589 41.8319 57.5943
1859 1 46.2397 35.7436 59.7145
6660 1 36.4952 41.4766 50.5913
2617 1 45.7034 35.0813 52.6968
368 1 33.1029 46.0464 52.1277
469 1 35.2454 39.7581 54.0913
1045 1 41.8831 37.5936 57.7414
1804 1 38.6442 39.4609 55.5398
3621 1 39.5463 42.385 53.7339
5544 1 46.206 45.1262 56.2121
1268 1 39.7385 41.2191 58.9681
7412 1 45.1895 40.5652 53.248
2926 1 35.2506 37.8439 61.6798
6942 1 42.4689 43.5336 59.6291
2724 1 41.995 37.6739 53.6954
1196 1 32.9632 47.0851 61.825
1894 1 36.6093 35.4562 49.8263
2525 1 33.7948 46.7711 54.8213
4776 1 42.2962 41.2669 57.7607
4693 1 36.564 37.5601 55.3973
1672 1 38.1572 43.0064 61.7645
7253 1 45.111 34.2554 57.5363
4312 1 34.5506 40.6878 56.8648
1028 1 35.0396 42.3291 52.8397
6114 1 39.1305 34.9515 53.6148
7821 1 34.6185 39.4247 50.088
3365 1 34.0808 35.1795 50.9553
6041 1 38.6673 38.4567 48.622
2649 1 40.7412 35.9259 55.6718
5339 1 46.7034 43.3007 59.8461
6891 1 39.1641 45.211 54.0149
3965 1 44.7964 34.95 48.1748
3339 1 37.2511 47.231 56.8434
7170 1 35.9135 37.6531 48.3105
7538 1 36.4536 45.4753 54.918
6092 1 46.0416 41.2707 61.6698
621 1 38.1884 35.8148 57.0272
1280 1 39.5339 35.4425 49.042
6542 1 42.1812 45.3347 53.9823
6855 1 36.7806 41.4269 58.6152
7156 1 45.4427 44.9196 51.7182
7955 1 37.4149 36.1341 62.3934
312 1 45.3623 45.7441 60.3066
3633 1 47.1107 39.13 48.4463
6493 1 43.2126 37.4858 48.2323
7011 1 35.8235 45.1112 52.1906
5436 1 41.1882 41.9938 50.3444
4211 1 38.8563 43.0592 51.1501
6360 1 41.4618 39.5342 55.5699
6276 1 42.684 45.5092 61.7636
1155 1 35.2431 43.7091 58.846
6402 1 44.0774 38.153 50.9551
4669 1 35.3168 37.9718 57.9702
1210 1 43.5722 35.1349 50.8048
1637 1 32.7219 43.1002 49.0693
444 1 34.1461 35.9684 54.7969
753 1 39.0709 40.3372 61.6569
3857 1 33.8518 32.7097 49.4061
3256 1 34.1101 33.4413 62.3802
4598 1 34.3348 37.8311 52.3085
6062 1 42.7612 33.8391 55.9649
162 1 46.2668 33.7196 54.9799
1154 1 33.44 40.0843 61.354
3992 1 47.1996 46.6874 58.3007
7877 1 39.3371 32.7755 49.9649
1877 1 36.0301 33.4609 47.7082
7410 1 47.2054 36.2226 48.8788
6972 1 36.3073 46.8326 49.8817
3720 1 33.581 47.2471 49.4274
7406 1 47.4411 43.5249 53.2106
4230 1 47.4639 43.7154 48.6306
4729 1 32.689 38.6993 59.0009
6340 1 32.5354 42.9466 51.9649
6511 1 40.5023 47.4411 50.2006
2473 1 45.3726 47.2866 50.3066
157 1 46.2733 32.5744 51.2067
6304 1 39.8936 33.0384 62.3729
6645 1 43.9472 47.1587 47.7564
6509 1 44.4872 48.6213 11.1326
2777 1 45.8216 50.0581 13.0661
4293 1 35.754 61.4276 11.9708
1805 1 36.947 57.9798 10.2107
5784 1 47.2731 50.2685 8.73104
4711 1 37.2024 49.8312 6.54353
1191 1 45.6259 58.9988 6.45956
2402 1 42.9571 56.2897 13.4263
5193 1 42.8623 52.8552 9.08335
4285 1 40.5111 61.8587 5.20494
5517 1 33.6487 60.0368 7.32659
699 1 34.8832 54.5845 6.55517
3675 1 34.7392 50.25 7.85376
2507 1 43.1873 61.2474 7.77571
2129 1 44.0729 48.7225 14.915
7152 1 46.0374 58.3597 15.4083
6193 1 38.8006 51.0658 8.45779
5491 1 43.6027 52.997 6.0674
876 1 39.0736 54.6081 5.77679
3684 1 42.019 49.8033 11.8673
4579 1 37.7374 56.5858 4.41314
655 1 38.888 55.0997 13.9867
4452 1 45.5079 56.7259 12.7188
2610 1 40.1782 58.3774 6.5921
2076 1 32.5743 49.35 13.1578
494 1 41.2625 48.6828 14.2613
4980 1 41.0571 56.6385 11.4418
302 1 46.7103 61.1977 15.2138
4656 1 32.7455 53.5696 3.03344
5735 1 32.9184 54.2336 16.9652
99 1 41.7002 54.552 4.96614
3148 1 37.3548 57.9031 6.72944
2983 1 41.0275 52.2565 15.3562
105 1 41.7406 52.4476 11.6422
6769 1 35.7804 60.427 14.5132
1225 1 40.1217 49.0117 9.86821
5750 1 36.9674 51.4276 15.4518
1412 1 35.7495 57.6815 13.8022
6014 1 36.1865 50.1069 11.713
5540 1 38.3732 57.2427 12.4907
7707 1 35.0118 54.1471 10.2553
7177 1 43.6458 58.4544 8.62219
4482 1 40.5481 60.5092 8.44498
2819 1 39.6309 58.9577 14.4244
1468 1 36.6224 55.9294 8.45546
5327 1 41.8061 59.1657 10.476
7922 1 42.8861 61.5996 13.8339
96 1 34.9906 61.3692 9.19918
7742 1 45.869 54.5651 6.80922
2948 1 43.3714 55.7783 17.1868
7367 1 41.5928 57.5593 15.7357
3041 1 42.2606 48.6902 7.9563
2103 1 33.002 49.6739 5.58434
4491 1 45.084 62.1611 9.45961
7387 1 47.0765 54.5581 13.3056
4986 1 37.4103 48.3435 13.418
4715 1 33.2584 51.5549 16.0793
996 1 42.911 50.6975 16.578
5504 1 44.0311 49.1304 3.1514
5575 1 39.1527 52.9835 12.3212
483 1 42.1904 56.5188 7.12692
5122 1 38.4989 62.0144 10.8777
2627 1 33.5372 53.6118 12.4859
6039 1 35.3015 59.0496 5.4747
32 1 47.1104 60.5588 8.33155
4604 1 45.1488 54.2066 9.4946
5450 1 36.1383 61.434 4.51968
5322 1 41.1663 55.1817 9.22371
1933 1 40.3198 60.741 12.4528
13 1 42.7437 56.7583 3.28377
6630 1 36.8681 56.9918 16.3155
5837 1 32.5112 60.8761 10.5833
1474 1 37.9964 62.1323 6.45631
6988 1 46.3493 56.1737 3.18999
5335 1 44.4877 50.3058 5.86771
1772 1 39.2072 50.6589 13.977
6575 1 44.1052 60.4956 11.533
4707 1 35.1085 48.4002 9.70193
2467 1 32.8702 56.098 5.71582
5110 1 46.3747 50.7832 3.08201
2887 1 45.4059 56.8624 10.0238
5677 1 34.0337 55.3713 14.4623
1843 1 41.2806 51.3221 7.24276
1116 1 45.1543 52.6804 12.1166
3338 1 34.5956 51.3132 13.619
6910 1 35.1172 52.6868 4.54075
4660 1 45.9151 55.4269 15.956
4730 1 47.0135 47.6454 9.85424
6603 1 45.8022 53.5474 4.09449
4450 1 38.6257 54.0426 8.47134
2825 1 33.6841 52.7492 8.24352
1669 1 39.4789 55.9461 16.858
2179 1 37.6018 60.283 8.6674
4681 1 44.585 56.5854 5.4174
2079 1 43.9677 60.6709 5.05898
3277 1 36.4889 48.6109 16.0176
3220 1 41.5516 59.3079 4.29031
7809 1 36.3681 54.3798 15.6371
5687 1 37.1788 52.4454 10.492
3272 1 44.4703 50.299 8.87488
5098 1 37.8069 52.2079 4.83593
6422 1 40.5189 51.2346 4.45595
3698 1 34.3177 58.6761 11.3147
5293 1 44.8764 52.6873 15.8195
1756 1 43.4137 59.6165 15.7379
3313 1 39.3119 48.8131 3.48628
72 1 33.163 56.4085 10.119
729 1 43.0315 53.6512 13.7405
1289 1 46.3674 59.5309 12.7971
6727 1 38.1485 60.6148 15.9089
2408 1 33.6044 57.6533 3.72084
503 1 35.3722 49.8743 4.18268
2390 1 33.1355 59.9769 15.7592
3428 1 47.396 58.4685 4.17308
827 1 32.773 58.0237 13.7403
1036 1 47.3646 51.883 14.6205
7322 1 45.5396 60.0732 2.84865
6476 1 47.3825 50.5467 5.915
6709 1 32.5353 47.8161 15.3217
4696 1 47.1934 51.8027 17.4637
2234 1 39.5473 57.8699 2.80414
73 1 41.6161 47.6249 3.19738
905 1 40.7473 53.3755 2.65284
4762 1 39.5823 53.2284 17.4456
7115 1 34.2756 61.7893 27.5194
5174 1 38.007 50.6798 30.772
3068 1 44.9887 48.9797 17.556
6163 1 45.4173 57.5248 21.723
3392 1 42.4455 57.6402 27.2839
5999 1 47.0747 52.1933 24.3149
1589 1 33.6359 58.8356 18.1497
4423 1 45.7094 54.6138 27.5175
3026 1 33.8112 57.1999 21.2971
2545 1 39.262 48.7264 29.2203
2730 1 41.3134 50.5762 20.8681
7954 1 45.6982 48.633 25.9575
4885 1 35.3489 53.4694 30.6907
5295 1 46.7628 60.9999 18.0068
6934 1 47.433 48.9549 21.9636
44 1 44.8894 51.202 25.4003
1435 1 44.7219 57.8422 24.2478
3140 1 41.4545 48.7783 27.2972
3693 1 46.9326 50.644 30.075
1366 1 35.4023 53.9283 18.2961
938 1 42.4616 59.199 24.8771
7779 1 47.277 54.4084 30.1161
6681 1 43.8373 61.2803 17.8914
6956 1 36.477 60.2745 26.9248
7032 1 36.3497 53.0161 24.2939
854 1 45.2814 57.3141 27.9156
5799 1 40.9677 52.5548 30.5077
5686 1 38.8897 52.1522 28.569
5688 1 45.258 51.1319 19.3524
4170 1 44.8795 53.5876 31.4162
1623 1 42.4763 54.7593 29.8801
1111 1 41.8255 55.6717 21.0299
6664 1 33.0316 59.884 24.572
1311 1 43.4884 61.7774 24.9914
2861 1 35.9812 57.3895 26.8511
168 1 34.7319 51.8958 22.2506
879 1 41.0542 57.5588 22.9208
6457 1 38.3879 58.3302 21.8845
5480 1 43.1038 50.9222 23.129
5552 1 39.1913 56.3269 19.9608
6621 1 34.8124 49.9492 18.0334
7909 1 33.5271 49.3094 31.6207
5660 1 42.9214 53.9385 23.0053
6110 1 37.9102 60.2488 29.2281
1671 1 41.7535 60.3032 22.2482
4799 1 45.627 58.6047 30.6204
372 1 35.1188 50.0069 27.3219
7853 1 38.4501 62.2789 32.0339
6324 1 35.1234 53.7032 26.5658
6151 1 39.8714 58.4657 28.6099
2714 1 41.0136 53.1991 19.7552
6696 1 36.4788 55.2861 22.8993
6167 1 33.5076 48.8335 25.3586
6212 1 44.5501 49.1795 21.4055
4725 1 37.252 51.846 20.9405
2066 1 37.7068 57.4798 24.5653
4733 1 37.8528 49.8593 26.9761
1160 1 43.769 57.1084 19.5113
1190 1 33.8847 52.0656 19.641
4977 1 35.2824 61.7707 20.9736
2021 1 39.5581 59.295 25.7095
4683 1 38.3863 55.29 30.7869
3747 1 33.0538 51.8774 27.4709
5913 1 46.3601 59.9234 20.5933
6093 1 35.7526 59.6357 24.1605
4475 1 43.3627 53.0864 18.2672
4310 1 41.1155 50.1789 24.959
3847 1 42.2436 60.1553 28.6398
4540 1 42.5047 59.4541 19.5869
2786 1 42.5153 50.8982 28.71
7550 1 40.7831 56.0021 25.4576
5676 1 38.4997 51.3291 24.5689
3988 1 38.9182 49.9016 22.2506
7461 1 44.4247 61.0192 22.3668
2540 1 39.3384 59.6257 32.3722
5050 1 35.792 59.0704 21.3907
5118 1 40.4281 53.545 24.256
7621 1 37.1053 51.6985 18.2433
5873 1 38.6023 56.2793 27.1854
3170 1 36.2194 55.8296 20.2403
4206 1 38.8104 54.0162 21.7411
331 1 40.8565 56.7381 30.5563
2284 1 38.2533 60.4159 18.7209
246 1 41.7693 49.104 30.9003
1742 1 45.8364 61.2798 30.0321
4515 1 34.9523 57.5629 29.5436
7615 1 35.3606 50.7321 30.0861
1055 1 36.3338 58.2939 18.6492
610 1 42.7388 54.621 27.1368
7222 1 37.1614 54.1593 28.4954
7091 1 40.2049 47.813 23.6674
2306 1 47.0902 51.7747 21.5418
362 1 45.149 51.842 28.1027
5235 1 45.5307 48.3492 31.4668
604 1 33.0439 59.3931 28.3913
4002 1 36.6587 58.9236 31.3065
2671 1 44.7539 53.5271 20.8616
5642 1 41.9584 60.0144 31.3569
472 1 44.7045 61.1107 27.433
6860 1 40.2501 58.399 18.3832
3630 1 46.0061 58.0595 18.2377
7689 1 44.6187 55.2872 24.7748
4364 1 41.042 52.4281 26.8253
3697 1 47.3152 54.9774 24.2965
7394 1 46.4535 59.1833 26.1874
2820 1 39.0844 60.9575 21.3184
3132 1 38.4428 49.0569 18.4199
595 1 37.083 61.997 23.0448
6213 1 33.7952 55.4751 23.4387
6258 1 33.3419 55.7341 30.7737
4118 1 41.4576 49.1216 18.5872
785 1 46.865 55.4538 20.7705
2991 1 33.5895 55.9705 26.208
547 1 43.1784 57.6704 31.9409
1632 1 34.985 48.1372 20.2999
3470 1 38.5205 61.7933 25.3519
6851 1 34.4097 49.2015 22.8019
7327 1 46.8915 61.0278 23.8715
3595 1 32.7508 60.6827 20.1695
917 1 32.5821 53.0237 31.4686
3489 1 38.8226 52.9768 32.288
1917 1 38.1492 47.5251 25.567
2435 1 32.6837 62.4554 25.5029
1298 1 37.6976 47.7528 20.8065
4470 1 39.0848 55.1943 37.1245
3402 1 42.6143 58.1546 34.7634
5061 1 33.6782 52.4669 34.1736
3710 1 47.2541 48.8845 37.9411
5604 1 34.3094 52.1957 41.3374
5866 1 34.2649 61.4755 43.8412
5494 1 43.427 60.3382 46.2908
7239 1 40.159 48.4401 47.354
473 1 40.4505 51.3207 34.874
2694 1 45.7888 57.3896 37.3996
5451 1 34.1449 61.7977 36.5737
1222 1 35.0892 49.9936 33.8603
1943 1 34.4932 57.2213 39.4096
7542 1 43.3891 56.0474 41.84
2217 1 41.0436 49.7566 40.0947
3329 1 38.913 50.9907 46.5464
6320 1 39.9254 60.7391 40.1266
4183 1 36.6521 53.3441 40.3696
2986 1 36.1786 53.7466 33.3219
3758 1 46.8749 54.9465 45.8339
7781 1 35.1139 52.9519 46.5334
2493 1 43.5601 50.9753 40.4561
3954 1 47.115 58.7382 33.083
7688 1 32.5029 53.9505 40.215
3554 1 44.7556 52.8466 38.7486
1956 1 44.6545 52.324 35.9638
3632 1 37.6579 62.0453 37.6339
2135 1 38.604 51.1269 40.2829
5711 1 42.4962 52.3411 42.6389
6069 1 41.1718 48.5555 35.489
1477 1 32.5448 61.3433 32.7652
5359 1 40.1377 57.0428 33.4908
6083 1 40.8806 53.7413 38.8212
6305 1 44.6951 58.5665 41.7462
1546 1 45.4608 60.2199 36.9739
4824 1 37.7937 57.074 35.2275
1524 1 33.6983 56.9659 33.334
4755 1 36.9167 55.1674 46.7778
3342 1 38.1186 50.8023 37.3082
1113 1 42.845 49.2238 46.3385
697 1 34.5483 48.437 47.0023
3038 1 33.8085 59.1622 35.2899
6767 1 46.3895 59.9425 45.6913
2394 1 33.9601 52.9071 43.8667
7696 1 34.1573 52.273 37.0132
3777 1 45.2204 57.227 45.3571
4520 1 36.7645 56.2149 40.8557
5611 1 37.5937 51.3608 34.3324
682 1 43.6736 59.9061 39.2006
1541 1 33.56 49.5661 40.4109
2263 1 37.3373 58.228 42.9581
2661 1 36.9449 58.9565 47.3232
6491 1 38.9026 57.0555 39.1232
1015 1 39.0868 55.1181 44.9288
7505 1 35.5843 55.1588 43.2617
4881 1 46.4989 56.4089 34.5895
1527 1 42.8041 54.5017 35.3491
2073 1 39.8703 57.6289 43.7865
4459 1 41.5437 53.9032 45.7281
4465 1 44.3616 48.2671 38.7636
4493 1 34.7765 50.4659 44.987
7703 1 37.0605 47.9639 39.0901
252 1 33.6258 54.8789 38.0106
6117 1 40.208 53.3876 41.4369
6861 1 34.4467 60.5087 46.7237
6646 1 42.6011 56.5215 44.7112
6316 1 35.6284 55.3544 35.82
913 1 35.9649 57.2652 45.237
5549 1 40.8606 60.0876 35.9779
5539 1 40.2834 47.8744 32.9789
7793 1 40.9908 51.2532 37.6908
2788 1 37.9126 53.4184 43.1013
4279 1 35.3231 49.9631 38.0714
2371 1 32.9212 54.9906 35.104
6987 1 37.1542 49.074 41.7878
6086 1 45.0275 48.9275 41.7313
644 1 33.191 56.2065 41.7944
1384 1 41.3811 58.6113 38.5486
1109 1 47.0797 58.4067 43.395
2005 1 44.534 53.327 45.9602
495 1 33.6999 58.8372 42.6805
4119 1 43.2096 54.9302 39.2134
4723 1 45.2529 50.6372 45.7399
273 1 41.0535 51.0577 44.836
539 1 36.782 60.9167 42.7058
3694 1 44.5775 48.8755 34.1284
5446 1 33.4992 61.4006 39.218
4135 1 40.6469 56.2936 41.3267
4153 1 44.7648 51.5582 33.2604
1688 1 36.5813 56.4616 32.5582
6384 1 44.3311 55.4239 33.2664
6922 1 44.5943 53.9641 43.2887
3371 1 36.8276 53.4286 37.5737
5417 1 40.9963 61.614 46.7947
3131 1 35.6114 58.1246 37.0531
1974 1 39.2665 48.0414 37.3283
6303 1 44.7488 59.7471 34.3622
6149 1 34.5589 48.4349 42.827
26 1 43.173 56.604 37.1674
4330 1 40.8575 49.008 42.8372
4759 1 37.4457 59.5341 38.8262
5589 1 35.2858 59.786 40.46
414 1 37.4028 50.8177 44.161
5658 1 43.2878 49.9473 36.6605
6918 1 39.8217 58.9862 46.2436
1127 1 38.3504 59.8321 34.9744
4670 1 40.8636 60.2381 42.8364
1972 1 43.516 60.3713 43.445
2716 1 36.5551 61.8981 35.0866
6532 1 33.3944 58.1613 45.4356
897 1 40.02 54.2561 34.479
4454 1 37.8915 60.7798 45.2975
1463 1 47.0916 48.5015 35.1077
3661 1 46.9872 53.0748 42.1909
3681 1 34.3056 48.3165 35.817
3738 1 46.8257 58.4818 39.8979
3359 1 43.3267 47.9339 43.7286
7305 1 35.2562 60.6693 32.973
7787 1 46.6609 50.5242 43.3732
7943 1 42.2424 57.6965 47.254
5774 1 43.4612 61.6764 32.8237
2087 1 37.5995 48.7576 32.8808
4970 1 43.4064 62.4947 39.9857
3636 1 40.5606 62.2527 37.8249
4504 1 42.1291 51.2229 32.7173
389 1 47.3236 53.2243 39.4104
2272 1 47.4527 47.7335 40.6416
7154 1 39.9673 62.3857 44.3531
5066 1 46.3371 62.4638 44.0458
5941 1 40.0606 56.0352 54.0601
3491 1 33.2572 52.8389 57.1947
2742 1 33.7769 59.1769 50.1573
1092 1 37.3022 49.9284 61.8502
736 1 37.2973 49.0137 52.1062
5013 1 40.3019 51.2466 49.745
7131 1 37.2005 55.7509 56.3788
988 1 41.2773 60.7557 61.6429
2790 1 46.1057 58.1487 54.4312
7467 1 44.094 49.5587 59.142
6311 1 41.1822 51.8859 55.1447
5180 1 38.9742 57.4189 50.9661
5298 1 38.2214 51.7276 52.6618
7988 1 38.6805 60.5396 58.2532
4340 1 34.8389 56.075 48.6085
2666 1 35.0473 60.6715 60.2511
6388 1 46.1296 48.5996 61.0187
7283 1 46.6318 55.1188 48.5756
7368 1 43.6325 53.2252 52.6558
5038 1 40.0679 53.5567 58.566
1998 1 39.7074 61.0026 49.3014
5684 1 33.3858 53.5551 48.484
3803 1 42.904 54.0699 58.4679
4353 1 46.4592 61.6403 60.719
6741 1 36.292 50.6173 47.7746
2863 1 34.5537 50.2503 52.1241
155 1 35.5272 55.6532 51.3991
7565 1 39.71 50.9101 58.6637
6879 1 42.8964 47.6083 57.3194
1662 1 46.9415 58.8432 59.8622
7871 1 33.8168 58.7811 58.2641
1866 1 33.0923 52.5233 53.0986
6444 1 46.5146 54.7931 59.0386
4053 1 36.7953 50.0105 56.413
7625 1 44.9063 50.1074 55.0642
1920 1 47.2306 49.1836 56.5559
6265 1 35.2291 56.3236 54.1724
3570 1 41.1917 58.7585 49.768
3879 1 44.5257 61.9639 48.3316
4878 1 36.2945 58.292 60.0564
6500 1 36.2298 59.7238 56.6824
637 1 35.8997 59.0213 53.7852
1166 1 42.9883 59.7876 54.5887
3733 1 41.5578 49.5294 60.1414
1611 1 32.9831 51.4933 60.8366
5273 1 37.9512 52.749 62.091
3915 1 38.2832 54.8693 60.183
2824 1 40.1662 54.7694 51.6031
3386 1 38.8177 58.5817 53.5896
2976 1 34.6922 53.6151 54.9846
3685 1 42.5162 57.0301 54.6481
5490 1 43.6175 52.3593 56.313
2003 1 36.2639 58.2837 51.0568
5458 1 42.7874 51.0126 48.8526
4434 1 34.4883 49.2658 61.3745
3679 1 32.9235 54.506 51.3001
940 1 35.4219 54.0492 62.0758
5220 1 44.107 61.389 56.5647
3182 1 45.2856 56.6885 60.7443
3230 1 45.4717 51.1231 52.4568
2480 1 37.0284 60.735 49.7602
5643 1 43.3808 56.7622 57.3156
727 1 46.0478 56.0691 56.4313
1601 1 43.4874 58.7663 61.4604
4437 1 38.762 56.9053 48.0961
3226 1 45.5391 53.8648 54.834
3802 1 37.4827 53.6032 50.7976
6561 1 43.1052 60.868 50.5337
6658 1 44.6591 53.0894 48.827
850 1 44.4426 52.5025 61.6132
7927 1 40.9666 52.0496 52.4544
5674 1 41.4591 49.1007 52.4945
5838 1 36.9338 61.5246 52.5747
222 1 41.5633 60.4486 58.8687
2291 1 46.9344 51.3933 49.8034
6562 1 33.6947 60.7263 53.8049
5793 1 43.6368 57.3104 50.6326
2444 1 34.5257 49.4929 54.8679
6204 1 43.3298 47.9183 54.4931
2410 1 38.8711 53.3907 48.3077
500 1 33.1177 56.0417 58.8616
7218 1 32.5512 61.7071 61.4783
2464 1 35.3113 52.0643 50.011
3695 1 40.8468 57.7546 58.0234
1017 1 40.6165 60.6437 53.9525
3058 1 45.0478 57.6191 48.3289
5159 1 36.9752 50.9005 59.1474
3877 1 44.8054 59.445 52.3887
4873 1 39.6139 49.7718 56.2913
6963 1 38.1325 49.122 49.438
3535 1 37.3325 52.374 55.1263
7215 1 45.1204 52.1992 58.9686
2029 1 38.5445 58.1356 56.4002
3262 1 34.3601 61.7053 49.2697
5390 1 39.3977 54.1114 55.8411
6109 1 46.475 59.8968 48.6143
237 1 41.0671 55.108 48.1953
1203 1 44.122 59.2631 58.637
2699 1 43.7423 49.4778 50.9269
541 1 42.7856 54.759 50.3778
3851 1 36.0491 55.5913 58.8623
3583 1 38.5496 59.8419 60.8696
861 1 46.3833 61.5847 53.4801
5821 1 42.8683 54.859 61.068
450 1 44.5089 56.0171 53.1915
4782 1 34.9456 52.9971 59.3356
3484 1 40.4436 56.601 60.5819
5542 1 39.2326 48.2138 53.9386
7288 1 46.7848 56.1376 51.3905
4225 1 35.5426 48.1616 58.8529
3641 1 36.9385 61.9187 61.7854
5280 1 40.8695 62.0917 51.5863
1854 1 32.5573 56.4987 54.8271
3096 1 36.8135 62.3294 55.2735
5722 1 47.2314 49.0726 51.4328
2966 1 46.8901 60.3366 56.082
3602 1 42.2186 51.0828 62.2588
180 1 46.8152 47.5189 47.617
3285 1 35.3698 62.4099 57.9532
3388 1 39.7375 62.2738 55.9631
4218 1 35.6818 56.7593 62.3865
5464 1 57.2774 4.64791 14.6124
1928 1 58.0343 17.1709 15.9617
2802 1 48.3584 7.65968 17.3188
5622 1 53.9756 8.79694 14.5647
6773 1 57.531 17.0817 11.0551
7297 1 47.6337 9.34862 13.7183
164 1 56.1177 10.4687 3.37665
7010 1 58.2951 12.6768 9.00748
4581 1 50.0972 13.4841 9.60417
478 1 59.1475 7.07385 7.46751
3500 1 53.3061 9.27973 8.80027
7331 1 58.9569 8.24936 13.483
7664 1 55.9489 17.1117 7.19744
1308 1 55.6662 11.2269 12.149
6793 1 50.0208 11.8826 7.08743
959 1 50.8369 6.56414 16.352
5018 1 53.1655 10.9445 16.5378
4532 1 56.5733 4.66398 8.99292
5797 1 50.2828 11.5468 11.7067
2977 1 54.6863 6.89369 8.71948
2189 1 59.9026 10.7677 12.2645
1449 1 58.2003 15.4664 6.78815
2348 1 54.2953 16.1609 16.1863
7354 1 50.7376 15.9883 5.77996
2376 1 57.6891 5.20911 11.644
3156 1 56.4673 13.0254 4.5432
7710 1 51.4163 11.7932 4.67102
2563 1 49.8089 12.4376 14.265
6545 1 54.4432 14.4794 3.35092
3822 1 60.4738 6.09253 12.4216
4075 1 61.7662 15.7827 10.2946
6008 1 58.8862 15.1679 12.3604
7422 1 53.8113 2.87678 5.22026
4102 1 60.2929 13.4897 6.79288
6775 1 54.7583 10.8919 7.18458
2520 1 61.934 6.36446 9.93069
1985 1 48.0937 16.9334 12.121
828 1 49.6753 9.67092 3.90803
2682 1 60.9963 11.5366 3.88769
5815 1 54.1932 2.96974 9.805
1343 1 57.7363 10.3966 16.2854
3405 1 62.4083 13.33 9.02314
5087 1 61.5048 12.6212 15.9172
1517 1 57.6893 6.80258 16.6302
5924 1 55.5163 11.1396 14.901
6986 1 52.2604 13.319 15.3131
6144 1 56.7851 13.484 11.2875
2943 1 50.9331 16.4334 2.84817
7750 1 52.5316 12.6006 8.16584
6250 1 56.348 7.3849 14.1466
1254 1 60.5371 3.11975 11.5803
3791 1 55.2397 6.57892 3.16302
239 1 53.0037 11.4365 10.8801
770 1 49.184 2.94907 11.6568
1183 1 52.4647 17.3306 7.41489
7380 1 49.8227 6.20466 13.6473
973 1 56.5847 3.78258 6.17805
2612 1 50.5582 7.59858 5.86664
3640 1 51.5726 4.17065 12.666
2667 1 56.9208 8.21425 4.63203
6452 1 53.3585 13.9171 12.1215
1132 1 56.311 13.4388 7.18073
2531 1 50.4858 9.30821 8.02706
3888 1 51.1839 9.15453 15.2491
4466 1 48.585 14.4174 6.46424
7480 1 48.5041 6.97628 3.90303
7965 1 60.6072 3.35415 7.22971
6278 1 59.1815 13.6138 3.98792
7824 1 47.8926 10.6844 5.73958
7972 1 48.8848 10.1613 15.9974
3482 1 51.183 3.81777 4.68536
720 1 48.8604 15.0163 14.0762
3785 1 59.3915 7.4018 3.84911
3784 1 54.2701 4.71085 12.1594
5608 1 53.5741 10.0801 4.83103
805 1 52.4282 6.23298 10.5299
612 1 47.8997 15.7521 16.674
2647 1 49.9036 4.90126 7.04256
4911 1 60.4961 10.7102 6.45651
5602 1 59.492 4.81802 9.38097
266 1 49.979 7.52122 10.2158
144 1 54.2808 5.4572 6.40705
452 1 59.1355 5.05815 5.47805
6189 1 54.1773 15.0413 8.02311
6128 1 55.6954 7.21451 11.4011
326 1 52.7771 14.0621 5.54402
583 1 48.9229 4.99687 9.6842
154 1 53.6119 6.64272 16.2301
5111 1 52.2957 4.45717 8.26103
941 1 61.2098 8.08736 5.81277
2494 1 56.5671 8.57519 7.394
3492 1 53.2502 8.6678 11.7343
5826 1 58.6955 9.9533 8.79157
2153 1 54.322 4.26433 15.104
5850 1 50.3392 15.8072 10.9106
4608 1 60.2357 13.1791 10.9384
7438 1 50.4241 8.83382 12.4519
5895 1 57.4503 9.39796 11.2413
6369 1 50.0662 13.7463 3.22089
2956 1 60.0155 4.09592 14.3719
6512 1 59.0341 16.6177 4.35389
1753 1 53.9243 17.3206 12.8233
6882 1 53.1783 7.38354 4.76405
3943 1 54.8502 13.8588 14.5097
90 1 47.9178 3.77644 14.0738
4282 1 57.5043 14.5922 14.7069
6599 1 58.9411 12.2313 14.6573
7405 1 61.1088 8.99633 10.0573
5790 1 59.5738 16.7497 8.96884
906 1 55.3847 17.0436 2.78148
578 1 55.0301 15.65 10.7889
6673 1 51.6362 15.6566 13.5062
423 1 59.7988 8.57839 16.2964
3999 1 61.6913 4.50829 16.4303
4906 1 56.8366 4.27797 3.36914
6787 1 61.101 3.72014 3.69875
160 1 61.6875 15.9673 13.1418
2369 1 62.2771 2.63669 9.47163
436 1 62.1643 9.97675 15.2892
5112 1 51.776 17.342 15.8646
3513 1 61.5599 17.356 5.30032
4659 1 51.5201 6.0301 2.88687
4639 1 62.4584 7.1782 16.4489
6061 1 61.6632 15.1901 17.2592
7807 1 56.2327 2.59154 11.9533
6031 1 50.3685 4.05234 17.4671
5584 1 54.4574 2.88751 2.63922
159 1 47.93 2.97288 2.66954
5146 1 53.8137 4.33316 23.1815
1961 1 51.6798 14.1355 25.3442
5092 1 60.4434 15.2577 25.6174
6731 1 47.6283 2.80238 25.8354
4092 1 51.6724 7.29768 19.0407
6463 1 61.2812 10.9697 23.2345
5239 1 60.0112 5.41787 27.1155
3066 1 48.718 9.95471 24.9826
4949 1 58.7391 11.854 30.929
2950 1 49.9656 8.61263 28.252
6293 1 62.1814 2.83231 24.0108
5276 1 51.902 13.9905 21.9504
773 1 51.2488 3.47432 24.08
918 1 50.9579 4.95407 28.5076
1765 1 54.0018 10.2879 31.6075
4766 1 60.4414 7.81785 25.3916
7219 1 56.5463 14.2129 21.0922
3012 1 48.9008 4.95653 24.2835
6123 1 58.4256 12.3112 18.2879
5918 1 49.1502 16.2845 20.5146
2413 1 61.5894 9.34195 27.8373
7175 1 58.8131 9.37571 27.3542
5696 1 53.239 16.3121 24.3111
1735 1 54.4843 10.9926 19.227
2114 1 58.658 5.91947 30.9713
4637 1 58.1566 17.0944 26.2988
3250 1 51.212 9.69803 21.8075
4223 1 51.4298 16.8109 22.006
4875 1 51.5549 10.1215 18.9312
1193 1 57.0419 16.9369 32.1848
3469 1 54.5072 13.9975 22.971
5044 1 60.5593 4.55095 19.0304
3165 1 53.8595 9.48043 21.579
7136 1 62.2784 6.83246 22.1668
4575 1 55.3985 5.92944 28.1009
608 1 49.6805 16.8934 27.0011
5757 1 53.5771 3.61432 28.4139
6218 1 58.8018 13.7616 28.7652
5601 1 58.2449 4.69617 25.1036
6241 1 57.998 6.90562 28.5044
4069 1 55.1632 7.46612 24.4925
1349 1 59.0741 3.01295 31.633
3478 1 48.5505 12.2622 31.4729
3617 1 61.1707 6.61225 31.7875
4029 1 50.619 11.5434 27.7577
6694 1 52.082 5.39198 21.0367
3111 1 50.2976 7.02468 22.5567
4632 1 61.7855 7.12644 19.3591
3464 1 53.848 8.27304 28.2605
4971 1 61.1675 16.3874 23.2623
6585 1 56.9833 11.5726 20.4329
4184 1 48.5042 16.4019 31.1781
6294 1 57.7689 9.3188 30.1289
7208 1 54.4211 13.0864 29.223
1629 1 51.9181 7.22444 29.9315
7393 1 50.438 7.90421 25.2887
4462 1 58.0681 13.8101 24.3723
3820 1 52.7163 16.8682 19.3651
3647 1 55.8021 11.317 26.3652
943 1 52.33 2.98327 19.4234
5356 1 59.6182 6.18541 23.0292
7508 1 49.0016 14.2629 24.3641
7079 1 61.9623 15.9049 31.1662
62 1 57.7928 5.10073 18.8145
1331 1 53.0467 8.74557 25.6922
731 1 54.9926 4.06307 19.3196
2010 1 53.2247 16.7981 29.9234
1324 1 61.0602 11.9603 18.625
7133 1 55.0923 15.3622 18.8984
2827 1 59.2209 14.9751 21.8707
7029 1 54.5698 16.6006 27.3719
1552 1 59.1835 9.12058 23.2175
3898 1 61.2439 12.9224 21.2979
2842 1 50.1045 11.8546 23.211
5820 1 54.6574 6.91466 21.7257
4115 1 49.0344 6.00178 26.9448
3966 1 54.1471 5.5127 30.7674
2775 1 54.3476 13.7674 26.6238
1572 1 59.8443 2.62531 27.7266
3451 1 48.9078 7.41253 20.1998
2608 1 57.2941 6.5032 21.2465
4044 1 58.4911 12.1667 26.6231
6689 1 60.2687 3.63236 21.7883
6246 1 60.4207 9.38054 19.0472
930 1 52.0104 11.3556 25.1757
3274 1 53.1616 13.3592 19.5629
4628 1 61.6528 14.2004 28.9944
806 1 59.9247 16.2589 19.2505
6015 1 61.1194 10.6139 30.3481
5238 1 55.2597 15.0902 30.8343
2798 1 50.0571 14.2334 27.6883
5422 1 49.3358 4.67137 20.0209
4081 1 54.4743 6.69459 18.9361
7957 1 55.5485 4.90867 25.434
2625 1 58.1307 9.01367 20.5936
784 1 49.8618 4.10701 30.8829
1548 1 61.7559 6.74941 29.0244
4430 1 49.2977 13.3341 20.732
904 1 57.0076 16.8009 22.4134
1356 1 50.8253 15.3163 30.1207
303 1 61.0232 12.387 25.4781
2509 1 51.9997 11.725 30.1997
4896 1 55.4308 10.4198 29.0275
7567 1 57.1135 15.9877 28.6912
1971 1 49.2994 17.1318 24.1039
953 1 57.204 9.16103 25.14
5395 1 54.4824 11.3197 23.7024
4001 1 57.3692 11.3551 23.1898
3984 1 55.9503 15.5688 25.0085
6264 1 50.945 13.2331 32.0704
2914 1 48.7475 9.56956 30.9113
6777 1 56.3072 8.79 18.1887
7139 1 50.3601 16.1792 17.9185
5386 1 49.3739 11.7757 18.499
6382 1 56.6923 13.2161 32.3245
270 1 51.2912 13.718 17.6592
1624 1 47.7063 11.3075 27.3402
5100 1 51.3435 9.33227 31.6805
7101 1 57.6916 14.9781 17.7517
108 1 55.3751 2.5732 21.8027
7171 1 51.8929 2.58768 31.9922
1034 1 47.8686 3.27328 22.294
5083 1 47.8661 10.0335 19.9819
5144 1 50.6463 6.49574 32.4319
4500 1 51.4772 2.6909 26.6727
7118 1 62.4547 4.9294 25.8716
1575 1 54.9715 7.71697 32.3395
4764 1 57.7259 8.0434 32.4706
6228 1 60.4869 17.2418 42.6598
4735 1 51.1515 17.0971 39.7868
4703 1 62.2816 13.7661 33.0149
3161 1 51.3799 17.4827 42.5331
3461 1 51.1636 10.9691 44.7475
4019 1 56.8777 9.8058 34.7728
1072 1 54.0541 3.27646 37.8601
5561 1 56.7652 4.92304 36.7995
6120 1 60.1376 11.9242 44.7947
6601 1 49.4271 14.5471 46.2775
872 1 58.4963 2.96359 41.9618
2780 1 52.4155 5.14158 36.5419
1438 1 48.4049 4.84857 38.7851
1270 1 61.1424 9.94163 39.8291
7196 1 61.0448 16.8093 46.8666
3343 1 48.3689 11.8078 36.3732
6047 1 58.2491 10.4477 39.4254
4061 1 59.749 16.7728 32.7007
3687 1 51.443 13.5848 38.6568
5423 1 58.2996 14.7606 33.9229
2723 1 56.6125 17.3329 40.4923
434 1 52.0968 6.58451 44.6338
5405 1 53.3041 9.08763 45.3675
4621 1 53.1432 14.7572 32.8223
5860 1 55.5807 5.49595 39.3373
6393 1 61.6109 4.23484 39.3814
5884 1 52.5695 8.45023 41.1142
2656 1 60.6672 8.73374 36.3714
3267 1 53.9213 4.85463 45.8763
3589 1 55.1985 12.5883 37.7528
4779 1 60.9545 7.74246 47.2411
2216 1 49.7054 15.4617 33.5582
7289 1 58.4113 4.39563 44.5948
7443 1 61.6403 6.26655 36.5444
1559 1 51.8849 6.8555 38.821
2314 1 52.3177 11.0111 42.1206
855 1 49.643 11.2725 40.9816
1960 1 52.6086 13.5965 41.1047
3711 1 52.3687 12.7092 46.8556
7320 1 59.9095 7.29438 40.7019
7607 1 55.3901 2.88254 35.3286
7935 1 50.4142 11.0366 38.2475
7044 1 50.3457 5.05651 42.9538
6827 1 56.1804 9.24568 40.7999
2364 1 61.3426 10.1763 42.8077
5064 1 59.1776 13.5251 36.3515
6950 1 56.294 12.0612 44.5822
6833 1 53.7579 7.20878 34.8084
199 1 50.7665 13.1445 35.0813
3743 1 58.1596 10.0649 45.3026
6188 1 56.3336 15.9331 35.6456
4492 1 59.6056 3.36056 46.9663
3686 1 50.4928 13.5234 44.0063
3243 1 56.7605 7.16544 42.3731
2296 1 55.3212 13.4433 40.5668
3348 1 61.2601 2.54986 41.5818
5863 1 48.7467 10.2054 46.194
7539 1 49.6517 4.76618 36.2254
6837 1 58.637 7.95882 38.2253
3854 1 61.7396 15.038 39.5628
7056 1 53.1766 10.5287 37.9966
5538 1 59.1631 8.26477 43.2341
5287 1 53.5381 17.1382 38.2342
3941 1 55.2889 11.2366 42.1413
2728 1 58.8443 15.1495 38.7409
4390 1 57.4583 11.4561 36.9541
3573 1 53.9414 6.40682 42.3952
88 1 54.304 14.0474 35.2064
6806 1 53.0468 15.2796 45.902
7389 1 60.3048 6.47973 44.9973
6088 1 59.4224 5.13088 37.9607
1452 1 56.9658 14.7564 44.3961
1239 1 59.5564 3.98065 34.3592
2423 1 51.0233 16.6876 47.276
1622 1 61.799 13.4153 37.2149
411 1 49.9728 8.52288 37.3866
3895 1 58.6854 17.041 36.7278
2465 1 56.0103 8.32113 44.9026
7095 1 50.7863 4.65248 40.167
30 1 62.0768 9.19536 32.6003
4960 1 59.7322 9.63075 33.9804
895 1 48.2593 4.62101 46.0763
4004 1 54.4239 8.22406 38.8912
7487 1 52.6882 4.7772 33.7955
6295 1 61.8309 14.661 42.3345
3125 1 53.5904 4.16892 40.7228
1147 1 54.6893 11.0843 46.7913
7833 1 52.1891 15.3012 36.4105
5886 1 56.1631 7.77101 36.4616
3930 1 52.6293 15.251 43.3009
6698 1 48.6688 13.6375 42.0284
2905 1 59.1584 13.7685 42.8995
2955 1 49.9821 7.72893 41.8575
1743 1 49.3487 14.9875 39.7657
6730 1 60.5956 13.8945 46.7343
7429 1 52.5748 10.962 35.2907
7984 1 57.8403 14.3137 47.1784
7294 1 55.5439 4.20772 32.8963
683 1 55.8434 15.3944 38.4072
2220 1 49.4963 7.31171 45.6612
1526 1 48.7535 9.79301 43.3352
6490 1 59.9385 12.5526 33.5601
2628 1 58.0075 5.3231 40.5112
6906 1 51.3498 8.61642 34.4906
7926 1 58.1697 12.9916 40.456
6414 1 55.2894 15.7487 42.4304
376 1 57.5012 5.74233 34.1217
6828 1 48.4047 7.48497 39.5707
530 1 55.0147 11.6885 33.8067
2264 1 55.5272 15.9967 46.8186
7782 1 59.0093 16.6825 44.965
569 1 56.5333 5.93558 46.1944
3950 1 48.4449 9.27442 34.8437
3829 1 62.498 10.5925 37.3072
7383 1 51.0406 2.71289 44.4626
7346 1 62.2353 4.96019 34.1022
1242 1 47.5913 4.81828 43.305
1381 1 62.4275 6.11276 41.1621
4867 1 61.0951 17.2529 35.1665
3789 1 47.7806 7.43813 32.7305
5932 1 61.1485 5.66908 57.8831
1456 1 50.2394 4.19918 49.0611
3542 1 49.8302 8.33859 54.2672
7572 1 56.5129 7.74426 60.9519
6121 1 55.963 16.0949 52.1619
6704 1 48.8381 6.53439 48.2778
3221 1 59.9244 7.66181 54.3942
3605 1 62.2325 17.1818 50.7748
714 1 49.3168 6.46903 57.5421
7092 1 57.1148 17.0882 57.7171
3242 1 48.8919 10.3682 49.9218
267 1 53.7951 6.26103 52.5492
181 1 50.5174 12.6474 60.7419
137 1 56.3812 7.12027 53.1984
2592 1 59.0678 9.74883 47.9895
3411 1 61.3793 15.4505 54.9935
6508 1 61.983 13.3107 60.926
658 1 53.3733 13.1064 61.1883
2026 1 52.7006 8.04408 47.8909
4883 1 61.4096 8.39031 56.7927
1040 1 54.5297 5.31848 56.8653
4518 1 51.3784 10.6994 53.0645
6779 1 61.5536 9.75641 51.8973
5764 1 62.2566 6.25754 53.5781
3676 1 53.6384 5.25543 61.2272
4646 1 54.5622 8.93992 59.4751
3787 1 56.8216 9.3607 57.7546
7120 1 49.6409 13.7087 54.1097
3914 1 58.8289 13.33 52.23
7839 1 61.4178 11.1324 56.1037
4880 1 50.4508 8.22713 49.6875
5813 1 60.6284 9.31174 62.1259
3925 1 56.5625 9.62046 52.2723
3594 1 49.8638 3.90917 54.5126
6065 1 59.2256 5.18775 61.9542
3481 1 54.734 9.41246 49.2852
5191 1 61.3691 10.6928 49.298
4396 1 52.4572 5.13253 54.7389
3502 1 53.6954 12.2858 49.3421
1747 1 56.2872 17.029 49.4582
100 1 61.0393 6.89019 60.4458
2583 1 54.0479 15.0535 49.1188
1852 1 48.7434 16.5617 61.1612
3539 1 59.3008 8.62492 58.9183
3199 1 57.7336 12.4471 59.7609
4318 1 47.8225 11.1901 57.257
4071 1 51.4239 4.32622 59.7931
5350 1 59.9342 16.9587 58.7666
3779 1 55.6191 4.38439 59.2525
4268 1 49.7761 12.3433 48.0096
564 1 56.181 13.79 55.4533
7570 1 58.4589 3.66398 55.6297
863 1 59.0591 16.1671 48.8711
1053 1 57.9074 10.103 61.2564
2881 1 59.4122 3.45417 58.3714
3700 1 57.9135 15.2256 53.8103
686 1 49.2589 17.06 57.1904
7357 1 51.772 12.3093 55.6873
3537 1 50.4504 8.40216 59.2659
3904 1 51.7308 7.47024 56.1094
4855 1 55.6393 3.36164 55.2324
308 1 58.9835 4.54615 49.5028
3578 1 60.6883 14.9322 50.6975
5302 1 47.9878 14.9702 55.7378
5938 1 50.2651 4.10885 51.7605
7549 1 50.5556 11.0937 58.0935
1766 1 61.1301 10.8485 59.7425
6734 1 57.5134 11.5519 56.2645
2879 1 58.3935 5.25557 52.1969
4705 1 50.0193 3.72979 57.3887
7309 1 59.7425 12.3477 57.8378
6897 1 56.3454 3.58731 52.5323
4304 1 60.8051 11.7025 53.58
465 1 56.1616 7.32465 55.9235
269 1 51.8453 16.7236 49.9279
7963 1 60.365 2.69323 60.9925
3075 1 58.8075 17.0635 61.4188
4052 1 53.8968 13.0544 54.0044
5456 1 55.081 15.0749 57.5061
1211 1 60.5731 4.06915 53.5612
4124 1 60.9123 14.696 57.4546
7279 1 48.4096 10.9651 61.7068
3901 1 52.1895 14.7312 57.1985
7751 1 62.2094 4.17619 47.8116
2852 1 53.6577 10.4083 61.8503
6732 1 59.7015 7.64239 51.4707
3341 1 54.2207 10.3764 53.5013
4577 1 54.8717 13.7217 51.4843
7789 1 57.3803 8.50702 49.9018
6217 1 49.1199 5.10626 61.6421
6887 1 54.6528 4.61239 50.3889
836 1 51.1661 11.9684 50.5374
7608 1 48.7733 11.0457 54.6766
6501 1 58.4612 10.0437 54.1733
6573 1 53.5524 17.254 52.4479
2347 1 56.8435 11.8947 50.9118
1123 1 56.6112 5.94308 49.0345
134 1 51.3871 8.74623 61.7998
5505 1 52.6707 6.71734 58.7126
7192 1 52.8605 8.83333 51.3727
2460 1 49.5337 6.71081 51.928
4956 1 61.1451 6.25558 49.47
22 1 52.6167 2.82147 51.6435
3061 1 50.1293 15.0027 59.1167
2652 1 52.3811 15.6678 60.5848
6745 1 54.0663 9.08325 55.8386
5630 1 52.0679 15.1706 53.6558
5145 1 59.2093 14.2042 61.2641
1008 1 55.0749 12.8958 58.9487
7340 1 53.3969 10.8916 57.8124
7103 1 57.865 5.87682 59.4274
4280 1 50.4772 14.5267 51.3338
7228 1 57.1181 11.8203 48.1222
978 1 58.6091 6.41616 56.6231
2178 1 52.8309 5.30724 48.4502
7825 1 47.7429 13.7653 49.1
4440 1 62.2171 13.2882 48.8275
7238 1 62.3048 13.8379 53.0342
7183 1 47.7861 8.5366 60.2084
5188 1 47.634 14.2515 52.0723
2569 1 51.6009 17.1328 55.7052
4969 1 59.4402 17.4253 54.3737
2280 1 53.9514 17.4542 58.9185
2514 1 47.5194 13.909 58.2007
7060 1 52.5028 31.6468 9.60845
2616 1 47.7111 29.9049 6.4047
2776 1 53.2296 27.3828 13.7295
2210 1 59.3804 27.5445 14.4899
2033 1 52.8417 29.5925 2.86942
1768 1 55.6243 18.3087 14.8996
6904 1 56.3876 24.012 8.55718
636 1 54.7672 25.7367 10.341
4229 1 58.0039 28.6222 10.5683
6711 1 56.4628 20.513 2.81612
3551 1 61.4176 29.1742 7.16637
4929 1 55.3435 31.8571 8.95188
1395 1 50.9552 18.2383 9.46889
4226 1 54.133 18.9237 5.71318
5207 1 50.8666 21.7657 15.2568
5617 1 61.6657 26.4059 5.1544
1869 1 59.5963 24.8074 13.9046
1568 1 61.1032 20.8062 5.70638
5274 1 51.9437 24.195 7.73965
4311 1 51.1152 22.1417 6.05698
5525 1 61.7909 21.9251 15.3029
3568 1 61.0463 18.5804 7.67539
6315 1 49.5805 25.9926 3.68802
3384 1 53.1777 31.7622 4.52329
6893 1 60.1084 30.0045 4.73471
4079 1 58.9234 25.3457 8.03961
792 1 53.8359 22.4772 8.84987
2027 1 58.0938 22.6148 10.2561
7714 1 51.0613 19.2302 13.9771
5318 1 51.3355 20.448 3.81779
2845 1 59.3226 25.0276 10.9796
6832 1 51.7186 29.3528 14.7096
117 1 61.431 23.1693 11.1257
2000 1 49.8615 25.8153 16.9247
6308 1 49.0162 30.2216 14.0121
349 1 52.9775 31.7082 13.499
1275 1 61.6526 26.3866 8.06125
6683 1 53.3259 22.9041 15.8887
1508 1 53.5989 28.1902 11.1058
2908 1 48.4022 17.7411 5.00037
6555 1 54.6143 20.3526 10.4807
498 1 55.9182 26.9068 7.90543
6133 1 61.3317 27.07 10.7436
5962 1 53.6063 25.627 15.9417
2800 1 47.8208 19.7959 6.97941
4642 1 54.9448 22.5139 3.77423
759 1 51.1322 29.0981 10.1621
3588 1 49.8895 24.3232 14.6708
7575 1 55.7175 29.8888 10.9652
6524 1 58.4629 24.7662 5.22593
6687 1 52.946 23.6999 11.4461
4512 1 52.4345 19.2175 11.6014
7098 1 48.7017 21.5146 12.3012
1784 1 53.5875 30.6246 7.05818
607 1 56.4654 21.6424 12.1947
2096 1 61.4665 30.9264 16.9331
2949 1 51.8425 28.5783 7.355
1297 1 60.4307 17.7214 14.8696
7556 1 62.0108 28.137 16.0237
2884 1 59.1574 21.3938 3.40023
5697 1 60.8247 20.4556 10.8935
4291 1 62.4054 23.9814 13.5588
7212 1 56.8066 18.4556 4.804
7798 1 48.5211 25.9851 6.38916
5523 1 53.919 21.7666 6.16589
5742 1 49.9139 20.8678 8.49767
1421 1 58.2581 20.4875 5.96358
1249 1 60.0716 29.131 12.3615
2698 1 51.1372 21.6428 11.0727
3964 1 49.1679 32.2365 6.53175
4309 1 57.7118 31.1247 7.58015
2449 1 49.8416 26.6481 10.7141
2212 1 56.2331 25.5278 17.1333
6799 1 50.0958 30.0746 3.29977
981 1 59.8386 31.7373 9.34382
2126 1 54.7618 20.4476 16.4161
3164 1 50.6574 31.3949 11.9693
2355 1 55.5439 30.3764 13.7102
5695 1 61.8287 29.7948 9.91881
4691 1 47.7142 23.9252 13.198
2089 1 53.4602 26.47 6.47929
7194 1 51.9401 30.2472 17.2805
4640 1 62.2539 29.6094 2.89047
1729 1 56.6309 18.9753 9.21625
5443 1 60.4326 22.8808 7.60721
6633 1 48.7306 28.2766 16.0345
1780 1 48.062 19.3194 13.7863
53 1 49.8065 28.3413 5.5365
3886 1 60.9707 23.5418 4.69864
366 1 56.7999 24.8596 14.4958
7778 1 58.6909 28.2593 7.91022
4534 1 58.2204 30.8053 13.9729
69 1 57.121 26.3343 11.8322
6124 1 55.8805 29.2693 6.29164
6349 1 57.6722 29.138 16.3154
6051 1 49.5409 24.9907 8.49418
2753 1 58.8828 27.5064 4.99263
6084 1 59.1345 20.4746 8.77251
1896 1 48.0466 18.1536 9.39406
4022 1 58.2246 22.309 14.3911
5554 1 60.1055 24.8189 16.7576
7612 1 57.6441 19.1312 12.9101
1296 1 54.5719 23.3809 13.4755
3732 1 51.3618 25.5997 12.7993
6977 1 56.6432 22.7855 5.97469
4618 1 53.9628 27.0084 3.72844
493 1 60.1014 20.2398 13.6379
4200 1 48.9247 23.5849 4.9642
6026 1 56.1369 27.644 14.1431
4038 1 54.7708 30.0373 16.511
3967 1 56.4242 28.4814 3.60892
504 1 52.9957 18.3521 3.36073
1379 1 48.4177 29.6019 9.05644
7 1 49.003 21.683 17.2609
3511 1 57.6112 21.3101 17.0988
7765 1 62.482 17.7264 16.633
594 1 47.8208 22.7749 8.75198
820 1 60.6002 25.6165 2.57058
201 1 56.6167 32.4975 3.2671
3826 1 58.5773 30.2937 2.50092
5741 1 49.1256 18.947 2.71939
4110 1 58.6066 32.3426 5.28387
1816 1 59.8802 32.4978 15.1491
4235 1 60.1569 22.1077 17.4504
1159 1 52.2059 29.0229 26.1831
2419 1 57.6148 23.2531 30.9201
4068 1 58.9667 19.4867 21.2375
2867 1 53.5685 20.3201 25.225
951 1 54.9448 30.328 23.4822
5587 1 54.333 20.0858 19.9823
6889 1 52.1623 17.9109 26.3104
2247 1 54.8831 18.5291 23.2927
3506 1 51.9337 28.905 21.5323
7251 1 57.7085 27.8485 29.7477
7652 1 61.0353 23.6402 32.0492
3776 1 49.3056 31.3383 27.4349
7034 1 57.2135 31.8916 27.3044
6005 1 52.4401 21.8037 27.3783
945 1 48.502 23.525 24.9416
7343 1 50.0289 25.3116 26.6798
6994 1 59.4841 28.8174 22.6548
4216 1 59.6354 29.499 29.1744
7863 1 48.5939 22.1564 29.5812
7948 1 52.3913 24.6218 25.2676
1378 1 61.8328 26.3446 31.7501
6259 1 57.5391 21.106 24.915
1774 1 61.6498 26.1125 28.9842
1187 1 48.4959 20.5121 22.8671
234 1 55.6563 23.2289 22.5175
7430 1 59.054 18.1175 23.7071
4501 1 58.4098 18.6347 18.4626
4013 1 59.0173 32.1468 29.3843
3332 1 54.5698 29.6378 20.7878
6606 1 57.4128 29.7535 20.8292
1192 1 54.2421 26.1106 28.5664
5664 1 58.4091 30.4647 24.9481
7514 1 48.6165 18.5514 29.2319
3424 1 51.7617 27.2177 28.2056
1824 1 60.5256 32.2444 25.7935
1849 1 60.3414 20.2583 25.1787
6488 1 61.4535 18.074 20.8733
3910 1 54.3394 23.8032 27.1427
3750 1 56.7526 31.1643 30.8897
1953 1 59.0824 30.4319 18.5058
4599 1 50.6434 20.0651 30.3937
6715 1 59.9178 22.0456 21.7863
5190 1 52.5748 26.8723 23.4418
3515 1 60.4149 25.1205 24.4415
2733 1 52.9864 29.1474 29.9095
4219 1 61.6188 17.9444 29.2502
1371 1 56.1246 17.8703 19.8438
84 1 52.7014 19.2375 17.8534
2294 1 49.2844 28.7101 28.5664
5498 1 53.0638 32.1037 24.0623
3155 1 54.7912 25.7769 21.8
6535 1 61.7945 22.0107 26.9231
6528 1 56.3211 22.4629 28.6575
950 1 53.8306 22.6928 18.8446
6348 1 48.5186 27.6074 26.041
1362 1 47.7775 20.5193 27.5468
4805 1 61.5771 22.7508 24.0305
7341 1 59.9841 21.7972 30.2235
7356 1 51.5314 31.4245 29.3396
7850 1 55.938 28.0905 27.44
6413 1 51.5975 22.6941 29.9201
5034 1 51.7297 22.197 21.2522
2015 1 56.3877 20.5761 22.1093
1057 1 55.916 18.9039 26.0072
428 1 50.4496 28.7455 24.0059
5057 1 61.516 22.7533 19.6709
2181 1 55.0532 30.4844 28.6202
4460 1 50.6654 20.5525 19.1851
4763 1 51.1519 25.4459 30.4547
3564 1 52.4865 19.4723 21.999
1473 1 52.611 24.7814 20.2025
5665 1 48.6695 26.5863 30.2904
4590 1 48.8496 26.3189 19.5154
124 1 57.9522 23.6228 20.943
2854 1 62.2836 30.3874 26.9846
5149 1 52.8942 19.3784 28.7511
4010 1 50.5782 28.7118 19.1172
7819 1 47.9812 24.599 28.4132
5183 1 53.0931 31.6397 26.856
6386 1 61.2119 29.9388 20.4911
715 1 61.1857 25.4964 20.7029
6358 1 48.8039 19.0536 20.6601
573 1 50.8861 19.6018 24.391
7520 1 54.8837 27.7891 18.4461
7078 1 56.2942 23.7917 25.2035
2231 1 59.481 18.9772 27.6739
2336 1 49.3016 22.9735 22.1427
989 1 47.842 24.0375 18.1523
4247 1 54.2474 27.0639 31.23
4314 1 48.4276 26.916 23.2287
3626 1 61.3109 27.707 18.776
6946 1 49.3766 30.2062 30.9405
2720 1 60.2015 19.2023 31.2582
5081 1 62.3507 27.0745 24.6763
3382 1 55.2946 24.5447 32.0146
1528 1 53.2196 22.5222 23.6606
7799 1 58.6239 24.8147 26.5367
233 1 56.6389 26.3644 23.9928
1605 1 54.6391 28.0132 24.8996
6896 1 49.9735 21.5577 26.209
6518 1 60.8094 28.0013 27.0043
5607 1 58.2014 27.7259 25.7706
2551 1 55.7856 19.8665 28.5483
3883 1 58.9006 26.0388 22.2313
5059 1 50.3887 25.6196 21.7159
3045 1 61.2098 19.5539 18.4459
2362 1 56.5362 23.2836 18.6375
7566 1 58.8339 25.3389 29.2762
2631 1 57.0628 27.0339 20.2853
2281 1 59.0623 21.9728 27.4861
4508 1 58.7203 26.9222 17.8872
4718 1 48.0111 29.7937 18.3562
4953 1 61.9992 32.1728 29.0698
1565 1 52.2259 26.6958 18.2108
4920 1 51.6979 31.5643 21.6779
347 1 56.9246 20.472 31.8083
5397 1 54.1637 20.0858 31.2577
931 1 56.5664 28.554 32.0986
6776 1 57.7801 18.4991 29.9463
6670 1 61.5405 28.9795 31.0105
1651 1 48.6625 30.8497 23.3743
4354 1 57.1703 31.9175 22.8758
663 1 55.4938 32.4396 17.5145
3704 1 62.3174 29.5311 23.1388
4367 1 50.3899 32.3873 24.9386
5164 1 53.3168 22.6185 32.2239
4127 1 53.6841 32.2984 19.8463
3629 1 59.9738 32.3005 21.7065
2850 1 62.2225 32.4289 23.3898
1822 1 50.6743 23.1163 42.5622
640 1 48.0303 22.4817 41.807
2809 1 59.4125 29.9515 46.1168
6755 1 53.903 26.8931 35.1354
3908 1 47.8996 23.4126 37.3572
3307 1 59.0213 23.3395 40.3356
1382 1 59.6307 20.9223 37.6257
322 1 50.155 30.3361 43.1496
7166 1 57.4124 19.4167 36.9685
7786 1 50.2307 27.7484 40.2912
7840 1 47.7269 18.6828 32.6017
3367 1 52.1794 26.469 32.9634
6458 1 62.0046 25.5067 36.7033
7326 1 54.2012 23.133 36.9464
1919 1 55.37 23.0282 43.09
6824 1 55.4429 19.2429 38.8521
286 1 47.8488 23.8213 46.3593
7352 1 57.5056 27.3807 41.1805
6758 1 51.7003 30.1265 40.064
7026 1 51.4274 20.7832 37.6187
2573 1 51.0755 23.7095 33.555
1234 1 54.7253 24.0 40.4246
1059 1 52.416 19.1374 46.0822
6850 1 56.3926 20.5574 34.5329
4675 1 53.526 27.7913 37.7919
4116 1 56.0135 30.9347 42.7633
5789 1 47.8339 27.1702 32.9877
7523 1 52.2129 22.0029 46.8618
1783 1 56.8188 24.2004 36.7197
5788 1 50.6505 24.6522 40.2352
3431 1 53.7035 21.5127 39.4069
2859 1 49.8778 22.3259 45.1839
3361 1 57.9083 24.9457 46.6759
1133 1 54.9833 21.4754 47.361
6020 1 48.3494 27.7131 45.6731
5981 1 49.8034 19.3729 39.395
755 1 48.4274 18.2523 37.0735
4834 1 59.5006 17.7623 40.1897
6544 1 50.7043 17.507 35.4287
7190 1 57.6487 26.9932 37.3287
2072 1 51.8279 31.243 35.0222
35 1 50.629 29.1133 46.7287
4094 1 57.0619 25.1125 39.3798
6477 1 54.6355 29.2515 34.0385
4159 1 50.1979 28.6009 33.1248
2705 1 52.8431 19.566 43.4634
5691 1 51.7269 25.6201 43.6862
3543 1 60.1468 24.5136 42.4488
1984 1 56.6815 22.4826 45.4602
2890 1 50.5138 19.1231 33.0252
2069 1 54.1734 29.4162 40.9359
4761 1 61.6201 32.4308 35.4882
7053 1 52.558 30.1754 32.5494
924 1 55.5588 26.2169 46.0191
4686 1 60.2249 27.1079 38.18
320 1 55.3567 31.0998 36.0421
3557 1 60.0481 19.9423 42.933
1826 1 49.6276 27.4653 43.07
1081 1 61.0054 23.2859 38.2855
6533 1 53.0489 24.8255 46.175
5045 1 61.5027 23.7398 44.7931
3786 1 54.1592 31.0751 45.2301
1200 1 52.1722 24.9329 36.0949
2924 1 56.059 25.7603 43.2573
695 1 58.6127 24.4836 33.396
3819 1 53.5488 21.3622 34.8709
2 1 53.8524 27.3349 42.6177
2174 1 56.2469 25.6205 34.3617
4373 1 54.2768 32.4549 40.9309
4901 1 60.0624 27.13 46.6032
1710 1 50.751 27.2141 37.4015
4377 1 48.5548 19.7601 44.9812
1195 1 58.5785 28.6968 43.6381
6666 1 62.1567 17.7643 38.9895
1574 1 60.6106 26.5459 34.2587
7100 1 55.9958 28.4766 38.972
5065 1 49.992 29.2313 35.7594
4270 1 56.9766 31.163 38.5564
2148 1 59.7069 31.4132 37.3039
4037 1 57.8443 30.3639 35.3025
5527 1 60.3991 27.0025 41.0673
4572 1 58.599 22.3791 35.3731
999 1 61.3481 22.1825 34.3612
825 1 58.5415 32.1079 33.045
3468 1 56.1019 28.8327 45.0264
5795 1 48.0921 26.9778 38.3893
2982 1 61.6699 29.3655 37.6301
1091 1 52.3153 29.1397 44.4107
6951 1 55.3886 18.5813 42.8328
5559 1 60.9735 30.7886 33.0479
6430 1 56.0386 20.8314 41.2956
188 1 52.8974 30.6894 37.5005
2639 1 58.78 20.4748 45.3233
1038 1 52.9844 22.202 44.147
3735 1 53.1346 26.1417 40.0489
3576 1 50.2008 31.7847 45.5126
5096 1 61.7417 19.5451 33.5101
5726 1 51.6085 20.7987 41.1342
5582 1 56.6969 18.3625 45.3826
4163 1 58.1089 27.6591 34.585
4549 1 50.5082 21.2771 34.8993
5934 1 50.6666 23.3463 37.9057
3083 1 48.4779 24.5841 33.2859
1795 1 58.3684 30.2557 40.9702
4547 1 61.03 29.8289 40.3395
335 1 58.63 20.6251 40.4613
6733 1 48.3561 31.0299 37.3451
1185 1 59.7682 22.7516 46.7013
6064 1 48.7003 18.0649 42.9036
7691 1 61.3935 28.3668 43.6053
7266 1 47.7076 24.6734 39.9119
602 1 58.6875 26.0031 44.2305
4676 1 61.9527 19.4165 36.7839
1005 1 52.9981 18.7382 36.0305
2432 1 55.2035 18.013 34.3241
3725 1 47.7876 20.8415 36.1349
92 1 62.1953 28.9965 34.8736
259 1 49.6578 32.233 39.4897
1458 1 48.926 18.397 47.3233
6395 1 62.3064 29.9943 45.7284
1594 1 62.492 26.2566 45.3984
5358 1 52.9791 17.6924 32.6261
3553 1 56.3357 17.9462 60.3058
5404 1 52.7191 19.2994 60.6607
1964 1 62.1442 22.1351 55.9617
5228 1 50.3724 24.8486 49.8613
4338 1 57.8294 26.6172 61.7285
3209 1 62.2558 25.1744 60.4292
3070 1 52.1625 23.5727 56.1883
5387 1 53.4938 29.5636 58.0372
3844 1 61.8577 25.5778 53.2245
6921 1 58.5511 27.0215 55.0454
966 1 58.3428 22.8839 53.7936
6066 1 58.6037 31.7079 58.3804
5196 1 52.4226 28.4686 60.2197
7986 1 56.346 22.1469 49.6102
1479 1 51.0217 22.2407 49.3848
3360 1 55.5295 22.9528 53.7148
7655 1 56.8635 29.6099 47.5629
1549 1 48.9351 20.3896 49.4412
7603 1 51.4231 26.5463 47.6219
7784 1 51.0827 22.95 53.7036
6738 1 51.8229 30.0621 54.2745
2201 1 59.8866 24.9434 50.122
4008 1 48.0778 28.6064 51.0333
3023 1 53.1615 19.7125 53.8396
2162 1 49.9599 20.2283 59.9204
1114 1 49.9906 25.3684 52.7585
4041 1 47.6482 32.328 48.6672
5781 1 58.8295 18.7418 49.9251
4214 1 55.8401 27.4792 55.6136
7752 1 55.1765 30.6301 61.7788
6003 1 57.3556 31.3156 50.6947
2566 1 55.7482 30.9697 57.9958
761 1 59.8844 26.3294 57.5134
3580 1 50.9188 32.0512 50.4356
6907 1 48.5358 25.8271 48.0445
5006 1 53.5305 19.0638 50.04
4886 1 55.4979 24.9295 62.4645
3130 1 58.1058 22.451 60.0113
2537 1 56.0994 20.2618 53.623
5269 1 51.8261 21.4052 57.859
6169 1 47.893 26.9429 61.6178
6930 1 49.3739 30.2004 49.0781
6364 1 48.8538 21.5598 57.4789
4144 1 55.5715 31.8085 48.5128
4854 1 60.6503 27.453 49.3442
1610 1 58.9504 32.2571 52.805
6165 1 57.8125 19.332 55.8258
3018 1 49.7609 22.8018 61.2058
2479 1 56.7267 29.4119 52.6615
3143 1 54.3523 24.7387 59.7546
3124 1 59.104 21.5912 49.1776
4370 1 53.0034 30.3181 47.8605
3309 1 53.5154 22.0826 59.9383
1757 1 55.9392 25.3835 57.6458
7444 1 60.5195 32.2755 49.4344
5082 1 53.5214 31.4063 50.4469
6852 1 53.7296 29.1076 52.0067
3458 1 49.1105 21.3421 54.8193
4234 1 60.3189 18.9164 52.2276
6577 1 59.2666 29.8529 49.0531
4923 1 57.2813 29.7789 59.9937
7835 1 49.7393 18.1955 51.0632
6829 1 53.347 27.9396 49.4789
2675 1 52.5325 26.729 53.1041
1991 1 48.8788 29.6939 56.5867
2896 1 58.4448 23.9341 57.771
4303 1 59.3724 21.9178 56.1023
2604 1 51.3606 26.0513 56.8068
2171 1 52.9334 25.4725 50.6995
4862 1 55.9773 27.212 48.6795
6648 1 56.8668 26.7344 51.445
5259 1 49.2575 27.2026 55.6902
6600 1 49.1511 25.2701 59.8827
5896 1 61.5401 27.8377 59.2802
393 1 50.0798 28.2174 53.022
1400 1 52.3347 22.7324 62.4105
6073 1 53.0452 27.9122 55.6949
3394 1 59.8016 21.6658 51.9674
1340 1 59.419 29.3446 53.6486
4890 1 50.0387 31.767 53.044
1763 1 51.9802 25.479 62.5022
1905 1 61.4063 28.2489 52.1106
5892 1 61.5948 23.0595 49.0053
6486 1 50.7444 31.6077 59.8345
2187 1 56.1973 30.3676 55.3978
7592 1 54.9386 23.0791 56.3175
453 1 55.6324 20.569 57.3573
2101 1 53.95 31.9276 54.597
5052 1 60.2961 28.2019 61.625
3882 1 47.7337 18.5111 59.2888
4713 1 51.891 25.9117 59.6415
6407 1 61.0687 30.3994 58.2157
567 1 57.5182 27.2375 59.0918
5469 1 51.3132 31.1464 57.0776
7435 1 60.2672 20.721 59.6103
1110 1 60.4512 19.3523 57.207
5317 1 59.0933 25.4034 52.7668
1865 1 55.1469 25.7503 53.4915
7013 1 53.224 19.2021 56.8637
7879 1 52.4704 21.2921 51.6186
1149 1 55.909 20.7595 60.1635
6399 1 56.2672 19.5239 50.9465
7591 1 50.3706 18.9032 53.7528
3467 1 47.6699 29.8517 59.1194
3805 1 54.3683 23.2361 51.2457
1599 1 57.1817 24.8324 49.3946
5134 1 60.6017 19.3314 61.9086
6487 1 49.7048 29.0006 60.7993
5835 1 61.3945 30.0623 55.5163
7571 1 62.3325 26.021 55.9157
2543 1 53.3504 32.2396 60.5556
4240 1 62.1232 22.5973 53.1052
5600 1 47.7643 18.7892 55.2654
4345 1 54.9096 18.7984 47.6089
1547 1 62.4842 22.2911 59.9852
4687 1 62.2822 32.4329 54.5928
4199 1 61.7784 32.4654 51.9827
974 1 58.2207 23.8352 62.3469
993 1 62.3864 32.1167 47.5174
4684 1 60.2454 19.3729 47.5371
6908 1 52.669 39.626 9.93301
6090 1 57.1457 45.5764 6.54975
7033 1 55.7939 35.7726 9.60354
3146 1 55.2287 42.6438 16.7348
5708 1 57.268 40.0861 5.02863
1963 1 56.6789 34.9413 14.3148
3893 1 52.6427 40.1485 14.2408
6849 1 62.2533 44.6617 13.192
6864 1 50.7217 43.0619 12.2783
2502 1 53.3235 44.6266 7.83634
405 1 59.0581 44.3508 8.47397
3731 1 50.6252 35.1402 5.30749
7580 1 50.1859 43.8219 9.53117
4983 1 50.9142 38.9379 4.97641
4483 1 56.9074 40.7339 11.3103
3090 1 61.0746 34.7982 3.57903
4775 1 54.5356 34.125 4.44477
1871 1 60.9898 47.2353 12.7972
5836 1 62.3017 43.2388 6.09984
1363 1 57.8663 43.283 15.7886
379 1 61.8046 39.4396 12.9205
6801 1 59.3806 42.071 11.1658
5754 1 61.8087 43.2549 10.9099
5357 1 57.5332 34.7136 6.43156
6053 1 50.9512 37.2877 17.293
5172 1 48.7767 41.9862 4.25333
1760 1 48.1816 38.2434 4.37328
24 1 50.8586 40.0162 12.0187
5920 1 51.9511 43.9196 14.7826
5477 1 54.1931 45.947 11.7548
4625 1 52.4747 42.1524 9.01564
5615 1 49.2618 36.2077 10.8733
55 1 54.252 33.2634 11.4106
7890 1 55.867 45.3677 9.30754
5912 1 48.1026 36.3953 16.565
1372 1 61.0655 45.8072 16.6449
1084 1 55.8438 44.8924 3.41664
6566 1 49.1195 38.9106 15.6033
3322 1 61.7713 44.929 8.43601
6707 1 48.5134 40.3213 8.3389
1396 1 53.2953 43.3178 11.5767
1291 1 57.5247 37.3003 5.30141
1951 1 56.0378 38.7045 15.3254
2240 1 54.0791 45.0743 16.3834
1181 1 49.9641 38.2272 7.58238
1099 1 59.6987 41.0677 13.7866
6376 1 51.21 36.7756 3.08282
1221 1 60.7273 43.3614 15.0681
6913 1 49.9919 45.0254 16.5377
6176 1 52.6491 46.872 9.59768
652 1 57.872 36.8307 11.3197
4190 1 50.1773 37.3608 13.3495
2847 1 60.4899 37.5809 8.71719
5306 1 49.7546 46.5511 9.98306
6534 1 48.3126 36.2147 6.27307
5053 1 53.0862 37.5551 6.089
1327 1 49.5382 42.727 6.88656
1307 1 54.2436 39.5763 7.53311
2007 1 52.6412 36.4147 13.8748
6381 1 51.379 45.2776 3.54284
1264 1 58.743 36.081 3.06697
5856 1 51.9964 46.4571 13.4161
7174 1 52.9891 42.9015 4.21109
2743 1 49.4292 34.8312 14.574
1283 1 55.1622 43.634 5.96841
6803 1 58.8275 41.6093 8.30356
6075 1 53.4008 38.0824 16.2265
3378 1 52.3156 35.2107 7.4633
2447 1 61.2312 45.377 4.79531
4677 1 62.0126 35.7499 6.23393
7708 1 48.5211 32.5057 15.5438
1597 1 58.2591 39.0067 9.59032
5507 1 59.4728 47.0982 5.84137
3755 1 58.988 36.7801 14.1731
7155 1 58.561 41.0828 17.4551
1499 1 61.4936 33.4092 7.88285
5329 1 48.2659 46.8535 15.4192
462 1 47.8639 39.8709 11.2945
6466 1 49.2448 46.5666 12.8704
2683 1 55.4916 37.2216 12.9715
4342 1 60.2783 38.1515 5.86595
7606 1 57.3823 37.3531 17.3517
2418 1 60.7185 40.9127 6.41181
4647 1 50.9862 45.0152 6.25199
3947 1 50.6365 33.3523 8.59695
2686 1 59.3751 35.1654 8.49163
5734 1 54.5592 39.5555 11.9421
4049 1 48.873 33.3251 10.7692
1336 1 56.6564 46.0245 15.6621
4212 1 61.5859 38.0254 17.2916
1614 1 56.2403 44.5539 13.2254
1595 1 51.5321 36.923 9.50035
532 1 52.1196 33.9914 15.0768
7760 1 54.5616 42.4297 14.015
471 1 48.7693 44.3852 2.91177
2996 1 59.4063 41.4825 3.90613
6870 1 55.092 36.7891 4.36051
6248 1 60.8582 37.0067 11.7561
997 1 53.495 35.8581 11.1587
6055 1 59.4832 38.9281 15.7977
3959 1 50.733 41.376 15.8508
70 1 54.7058 34.4739 16.0616
2864 1 57.979 44.6725 11.0423
1615 1 55.354 42.5497 9.74078
5972 1 58.7533 34.8963 16.4371
1071 1 56.9562 41.1005 14.128
4546 1 56.3618 37.8254 7.84074
1484 1 58.5641 44.0499 4.39397
4784 1 52.0103 41.3362 6.3673
275 1 51.1012 41.0315 3.01557
2055 1 58.6766 33.8418 10.9369
3054 1 56.2944 41.5241 7.30407
6604 1 54.9043 34.1863 7.3112
1675 1 47.8279 42.5113 10.1318
4024 1 61.3014 35.4594 16.8994
508 1 47.9828 44.0045 12.4513
7391 1 60.7533 33.5084 12.7993
4319 1 61.6788 35.6823 14.1917
5809 1 62.1888 38.5496 3.88086
4257 1 48.4956 42.6869 16.8845
1836 1 53.7735 47.0479 3.33225
16 1 56.7408 32.8664 12.5885
2304 1 62.1013 40.9653 2.58963
2401 1 50.6051 32.5273 4.22756
832 1 49.6194 47.1132 7.19508
2378 1 61.476 32.5045 5.24552
3020 1 55.2312 47.4684 5.70307
4025 1 59.1131 47.2024 14.8367
3622 1 60.6268 42.0763 18.9644
2719 1 52.2274 35.579 19.3681
288 1 53.7211 45.2198 23.0177
6229 1 52.5345 38.9606 22.6348
4565 1 61.9745 37.2043 29.6191
3873 1 57.1265 44.005 25.1283
7564 1 47.8636 42.5621 25.9787
7815 1 57.451 40.1837 23.9383
6027 1 53.0895 42.8422 20.2726
7260 1 58.7997 41.8711 22.1907
7232 1 53.475 34.6219 26.8846
1304 1 58.7385 40.8931 26.4679
1355 1 56.8677 33.9293 21.0405
5368 1 58.2691 34.2818 31.183
1292 1 57.7246 38.294 19.9342
1188 1 60.7957 38.9661 23.4383
6200 1 55.8405 43.4436 19.4335
7104 1 47.9878 46.39 27.8561
4704 1 49.7591 35.1108 24.219
3473 1 57.2007 41.1519 19.8576
6270 1 60.5995 39.1858 28.1374
6722 1 58.2057 38.1719 29.4774
463 1 54.4341 40.3591 20.7404
3867 1 51.8914 33.1409 17.7199
1550 1 47.8386 43.3591 31.7664
1840 1 53.7292 45.3525 19.0907
3288 1 55.101 37.4139 20.6657
1137 1 52.3648 36.9857 30.3402
4994 1 54.5183 34.3224 24.116
6409 1 57.9392 46.6954 31.3313
1551 1 58.0614 33.0897 18.5568
5400 1 51.9648 32.9713 31.7968
1164 1 49.7987 37.3337 31.1079
5509 1 54.9985 43.1914 31.3248
6271 1 62.1357 43.9357 32.4244
961 1 60.5868 41.5818 24.5745
5592 1 50.554 41.9314 25.9657
7128 1 55.7722 33.9586 28.3498
2756 1 49.1045 32.6798 21.0576
6523 1 62.2679 36.1866 27.1665
7706 1 49.1054 40.1341 19.9259
7940 1 53.2466 46.0354 29.684
7646 1 52.1709 46.0063 26.2677
2505 1 59.7044 34.8198 24.9186
1587 1 54.8724 36.453 18.0196
1012 1 53.4272 41.3637 25.631
609 1 54.3873 43.8325 28.4928
3548 1 57.1132 42.1497 29.7584
3453 1 50.2929 46.7658 21.1261
1 1 60.7144 46.0195 21.6035
6001 1 50.5644 44.4665 24.6102
4606 1 60.2569 37.571 25.842
7757 1 54.5776 38.63 31.3837
1385 1 48.9853 32.9991 31.6082
5670 1 51.4486 41.5117 30.4249
1761 1 48.9055 37.5095 21.406
244 1 48.6165 38.4988 23.9779
5530 1 58.8274 41.6592 31.9109
1842 1 51.147 44.1188 21.9352
276 1 47.9559 43.8193 19.4583
1276 1 59.0918 38.7282 32.0869
2186 1 55.1136 41.4929 23.2042
6216 1 49.654 37.0481 26.2404
4209 1 60.8312 44.0907 28.4902
4507 1 57.8891 46.14 22.1353
2287 1 57.5462 36.5621 26.0534
3987 1 56.7486 45.4928 28.9145
4185 1 54.2472 44.0643 25.6042
1413 1 60.3345 36.0793 31.6384
7994 1 52.4081 36.1527 23.2853
5899 1 58.3117 37.915 22.5832
4732 1 54.0104 40.369 17.8786
5739 1 57.9073 35.5801 28.7778
782 1 49.1243 42.2694 21.4736
6489 1 52.3914 36.9673 26.0549
3773 1 60.3491 44.812 19.1503
6425 1 50.3334 43.2369 28.3712
426 1 59.1883 35.1193 22.1473
7450 1 55.8 36.8196 23.5658
2685 1 62.2763 40.6744 26.4827
5389 1 51.2784 46.3471 18.5667
3644 1 54.0998 34.703 21.3231
1433 1 54.8836 33.2761 30.9265
3864 1 49.4967 39.7515 27.2468
666 1 59.7005 44.2881 23.7489
2285 1 60.5575 41.5111 29.7042
5042 1 49.7309 46.3636 31.2786
1649 1 60.5037 38.3799 19.6473
7485 1 51.3983 38.3972 20.0214
4421 1 49.1404 40.0009 30.7811
4965 1 50.4398 40.542 23.424
6242 1 57.8289 45.0544 18.2618
5610 1 60.6777 33.7927 19.1796
5291 1 55.8117 39.6596 29.318
4028 1 57.5524 46.6943 26.2432
5227 1 60.6529 45.8053 30.7915
7142 1 52.0642 38.8193 28.1358
5495 1 51.8329 34.4744 29.1207
3634 1 51.4697 41.0543 18.5939
2556 1 56.5727 39.1493 26.4836
7233 1 56.2752 43.8658 22.368
6423 1 49.3664 35.6651 28.7153
6526 1 58.2725 43.4211 27.6245
7451 1 50.7236 46.1635 28.6292
717 1 61.247 40.53 21.1021
4568 1 53.4578 41.1512 28.497
4589 1 54.2176 38.7322 25.0366
6290 1 50.2996 35.0984 21.4825
4099 1 60.265 46.148 26.0856
5416 1 61.4024 36.0954 20.6267
2799 1 50.8057 43.7987 32.098
5621 1 60.2076 34.3144 27.7929
886 1 56.9848 33.7985 25.1225
6410 1 53.5042 41.0094 32.417
505 1 47.9209 35.7247 32.3728
7426 1 47.7799 45.3779 25.1298
2987 1 47.7749 33.1458 28.8197
4451 1 47.5725 42.7994 28.898
6371 1 47.5652 46.3765 20.5927
75 1 57.2761 47.3881 19.5584
4082 1 50.7304 47.2451 23.9475
2794 1 49.1964 32.5491 18.2525
2826 1 53.3258 45.2141 32.3547
5154 1 56.5751 42.8102 33.5386
1870 1 55.9449 39.937 45.1477
7929 1 58.5514 42.4913 38.1738
7545 1 58.2829 39.9414 39.3149
2459 1 59.0449 32.5931 45.6395
7210 1 61.9146 45.9127 45.1511
1319 1 60.6016 44.9879 40.4403
5952 1 59.8338 37.6472 39.146
7042 1 58.9051 33.0591 41.7603
1897 1 51.6509 37.3648 37.6927
4243 1 53.9684 41.3746 38.4505
3385 1 59.5192 46.6858 44.2293
1691 1 50.0355 39.2364 39.0142
2741 1 58.3581 34.369 34.6706
5048 1 61.9445 38.613 40.6698
6375 1 56.4055 38.515 42.808
5993 1 59.0229 36.058 41.4063
5823 1 50.8903 34.6481 38.5601
2145 1 53.7959 37.0878 39.3758
1591 1 58.0976 41.4212 35.595
6510 1 48.3726 35.5648 39.4392
1199 1 49.6318 45.752 35.067
250 1 60.114 43.1584 34.2197
1661 1 53.8657 39.1504 41.3475
5325 1 56.0629 35.109 32.908
1287 1 50.4612 45.5391 39.6483
7774 1 61.0465 41.5584 44.4495
5910 1 55.3835 47.0908 32.8089
2374 1 52.2549 35.3213 41.0539
1861 1 50.3246 35.5006 35.7421
5979 1 53.5403 36.4556 32.9722
7323 1 51.6863 40.4686 44.6687
2532 1 52.8039 38.0328 43.5992
4626 1 56.1548 36.2252 40.9178
6470 1 48.1184 42.0447 41.4282
6576 1 48.3361 42.791 38.8718
6378 1 54.8423 35.4539 37.2099
1513 1 49.413 32.7561 35.2107
5091 1 51.978 41.2246 40.7456
5432 1 52.056 47.3022 41.0915
708 1 51.3595 44.3141 43.6293
5479 1 52.5996 34.1818 34.3921
1881 1 52.5036 40.0048 36.4057
7415 1 61.4794 39.2503 45.8591
1245 1 50.292 42.8833 34.8929
2095 1 62.4406 36.7782 35.4166
6991 1 61.1245 35.0728 38.3747
2232 1 61.3401 44.6526 36.0958
1506 1 51.0574 37.4693 33.6191
2090 1 56.1643 39.2509 35.5684
4870 1 53.7964 37.5496 35.657
7961 1 60.8127 40.904 41.6097
4236 1 59.2827 37.6982 46.3107
1715 1 49.8302 40.3367 42.4938
3799 1 55.2584 33.6561 35.2327
120 1 57.7232 36.2665 44.1877
2731 1 51.2352 40.2045 33.9279
5224 1 48.0516 33.6288 45.2918
4576 1 53.4969 42.9092 42.55
4614 1 49.3455 44.4788 41.9381
723 1 49.2127 33.9318 42.7432
3674 1 47.858 37.5233 46.1877
2107 1 57.932 40.6022 41.9327
7510 1 56.9809 35.9522 47.0281
4852 1 47.6773 43.2603 45.9964
6478 1 52.471 33.3447 44.4542
470 1 59.3414 45.3239 37.6789
1013 1 61.7253 36.1249 42.1869
5015 1 54.7887 36.5416 45.1111
431 1 62.2068 34.3493 45.8991
5628 1 59.3332 42.833 46.5773
3838 1 54.4348 46.4206 45.0557
3520 1 55.4597 41.4897 41.1078
114 1 61.161 34.8946 34.0424
1383 1 55.9258 43.9066 45.292
4756 1 53.3507 33.3917 38.2909
6943 1 50.6331 41.8112 37.6368
2662 1 47.5751 36.3771 35.1441
7363 1 55.8157 45.5005 38.7831
3462 1 60.497 38.2567 36.4423
193 1 56.1046 46.3336 42.5938
7766 1 58.1834 45.1509 33.7206
7433 1 58.4739 45.0039 42.3056
49 1 60.9524 33.6593 43.6538
6037 1 49.0688 37.5606 41.2258
4985 1 61.2896 42.371 39.1612
6647 1 55.7715 39.0941 38.3606
3866 1 58.1648 42.7555 43.9046
7808 1 54.5167 41.6161 34.9815
2515 1 53.9516 45.2179 40.9478
4445 1 60.9077 40.5657 35.0972
1945 1 52.8419 35.0246 46.7882
1503 1 51.3337 47.2408 33.4513
6703 1 50.4097 36.4896 45.9521
726 1 57.1946 36.5928 38.3412
6118 1 50.5563 36.3828 43.1705
5226 1 54.4514 34.6681 42.819
6507 1 55.3244 33.6054 46.408
2239 1 60.835 32.704 39.862
4738 1 54.1016 41.8773 45.0586
4643 1 55.8635 43.0283 37.023
6892 1 53.375 45.6595 37.1981
4612 1 58.0655 37.1524 35.6897
5186 1 58.5626 34.2388 37.6486
4828 1 56.721 33.5644 39.9743
3171 1 55.5608 45.2691 35.0636
7379 1 50.6775 42.7469 45.9529
5384 1 52.3351 43.6861 39.1586
4095 1 52.9308 43.9723 34.9832
1837 1 57.3188 46.9679 36.6353
740 1 57.2375 43.5861 40.2789
5547 1 47.7853 39.4469 44.1966
7616 1 52.0038 46.9884 43.8128
3577 1 56.8621 33.4247 43.8505
4275 1 61.6895 39.5077 32.7681
3004 1 56.7143 37.9002 33.2265
1819 1 50.5965 45.2546 47.0369
4957 1 48.3885 40.9675 33.3579
4416 1 47.5596 45.5392 38.8238
561 1 49.4257 47.2223 37.444
2805 1 51.4523 32.5291 41.6913
3712 1 51.5365 38.8975 46.9007
1374 1 49.6712 47.1834 45.3512
3994 1 60.7499 47.4559 38.8169
2339 1 57.3593 47.344 45.6993
7261 1 57.9667 39.8762 47.3254
7865 1 54.393 38.6014 47.2041
5969 1 60.6901 45.0884 47.4519
486 1 58.2999 45.8759 53.6077
2869 1 55.6575 40.1775 51.1548
6140 1 55.0576 44.4375 53.001
7876 1 61.1933 45.9775 51.1011
955 1 51.5342 38.6549 49.8536
5565 1 52.1202 41.9642 58.095
7845 1 60.2331 36.5431 53.9732
4580 1 49.4409 40.7823 47.7515
1194 1 48.9976 46.1554 49.1496
4021 1 52.051 41.0221 53.9793
5346 1 62.0584 38.9421 49.8844
4122 1 49.2012 34.4685 47.7259
542 1 53.4582 45.3896 47.5282
2168 1 53.8942 36.0153 55.5939
7641 1 54.458 33.5517 58.1628
7582 1 56.7769 43.7687 60.1959
7769 1 60.9312 44.5547 53.6419
248 1 55.0372 38.1465 61.9626
3049 1 50.1055 46.4047 54.0414
1600 1 60.582 34.3465 55.6608
4741 1 49.6546 43.5603 60.4135
6313 1 60.5996 42.2103 60.5357
1898 1 49.7877 44.664 51.7038
1197 1 58.3039 32.5512 55.6524
907 1 57.171 45.794 58.1544
967 1 52.9913 37.454 53.4251
4742 1 57.3555 41.4265 58.7033
4908 1 53.8446 41.0516 59.9072
3108 1 52.9965 38.2198 57.134
7852 1 52.6315 36.925 59.5767
4722 1 48.9063 38.7587 50.7258
2981 1 58.47 46.7196 50.7847
3063 1 57.4992 38.5051 49.9366
3283 1 48.9055 44.4015 55.6813
7952 1 50.5642 34.201 54.039
5635 1 51.641 43.9694 54.2224
226 1 48.3212 36.899 58.1031
3593 1 54.5176 33.4238 52.1084
3810 1 56.0163 35.3096 53.4792
6938 1 56.566 34.189 50.0857
7663 1 61.7127 38.9235 52.7022
7931 1 53.0326 39.8222 51.8055
7360 1 61.8853 45.4063 62.0611
4544 1 49.6762 45.4173 58.2733
6103 1 61.4941 39.0101 57.739
5352 1 50.2436 39.0524 57.6945
6122 1 60.0331 41.3668 57.7752
6949 1 56.3502 34.4722 56.183
531 1 55.5053 41.0702 48.4841
3286 1 52.937 34.6624 62.2286
4198 1 49.9086 33.6696 58.0469
2438 1 61.4318 45.8215 57.9731
7055 1 59.1029 34.0039 59.679
5854 1 53.8701 40.9261 56.1487
329 1 57.0888 39.2005 55.7233
7334 1 47.536 34.51 61.8433
2327 1 55.6952 47.1294 53.1018
2838 1 54.5656 45.6496 59.5602
5876 1 57.1296 34.3751 61.4585
2400 1 52.4133 35.1496 52.0831
654 1 59.3912 37.7593 56.3375
7574 1 58.2111 41.0779 53.7355
3913 1 55.906 38.2013 53.4029
4337 1 52.2977 44.4496 60.8617
3891 1 54.5384 46.62 56.7062
7249 1 60.6942 40.6759 48.1745
7138 1 60.5776 42.4729 50.4271
344 1 61.0053 43.4994 56.3172
4299 1 49.2392 40.6215 54.3437
2715 1 52.387 44.6982 57.8167
2886 1 48.0639 36.239 51.5779
902 1 60.873 41.7929 53.2474
1011 1 56.6254 42.0605 55.9636
7030 1 56.6682 42.4799 52.045
2004 1 48.6985 37.229 61.8181
5027 1 58.2538 43.949 50.28
4912 1 58.5486 40.4791 61.1896
3270 1 58.3557 35.0767 52.1723
1534 1 49.436 42.3303 50.1322
6807 1 54.7642 35.3903 60.1889
2206 1 47.8071 39.5386 60.4055
2428 1 51.0139 47.0052 60.5383
5724 1 52.6612 44.5477 51.6365
4739 1 48.5403 35.1092 55.9977
3737 1 56.9052 43.4648 47.8179
5769 1 58.3095 44.3133 55.9931
5680 1 50.3195 40.8154 60.1309
6903 1 55.4797 36.7589 49.3276
5020 1 50.2142 35.8134 59.8815
1315 1 58.0757 35.9689 57.9076
794 1 51.0167 38.4607 54.9306
7631 1 59.3926 46.8245 59.6798
382 1 52.2259 42.1625 50.2564
2774 1 55.4608 39.4159 58.1621
5383 1 49.4456 41.7667 56.7519
481 1 59.0289 37.759 61.0167
5648 1 54.1675 43.8301 55.5757
6762 1 56.6003 37.5625 59.7726
7981 1 61.4967 34.5171 58.1368
1122 1 48.5795 37.195 54.1304
534 1 52.3189 38.9398 61.5106
3642 1 57.3866 46.8886 61.9332
464 1 52.8186 36.2293 49.5092
6581 1 58.7586 38.5683 52.6205
6557 1 61.3448 36.9673 59.7099
158 1 59.9772 36.8904 50.4145
3702 1 62.0134 35.425 52.115
1490 1 60.7814 35.8003 47.865
813 1 59.2285 44.5304 61.4382
3126 1 61.7028 46.8706 55.5084
4444 1 56.2154 46.0114 48.1479
3760 1 53.1868 46.8353 49.9303
3951 1 50.2443 34.8942 50.3141
7670 1 54.7243 42.8927 61.8925
4255 1 47.8122 41.0331 51.9618
3936 1 50.2395 33.592 61.7457
3815 1 58.8972 47.0028 47.9432
634 1 52.3249 33.7371 56.2656
7666 1 58.7284 33.8936 48.111
1939 1 51.2836 47.0871 56.4939
5785 1 51.581 32.7444 47.8558
7908 1 53.0913 42.6416 47.6192
1983 1 60.1516 32.548 61.9339
7418 1 56.1757 40.5338 62.4994
5636 1 55.2738 48.5456 11.6137
2739 1 54.9436 60.3598 8.92992
5627 1 55.1404 58.8901 11.5181
6076 1 51.2559 61.7639 8.16409
2602 1 55.828 48.7198 15.1943
7914 1 48.9052 57.7428 15.4258
3160 1 49.154 55.1764 3.31325
3336 1 53.7866 51.9775 16.681
4321 1 48.7643 51.5594 10.8278
4380 1 57.1673 57.3606 10.1644
3825 1 56.7793 58.1283 13.7687
256 1 62.3563 48.533 16.3225
672 1 52.557 56.3641 14.0479
7970 1 58.6627 51.2054 12.3011
3051 1 51.7848 54.8905 9.85324
6275 1 55.5177 57.7907 7.96491
7417 1 52.5055 60.883 17.2885
1467 1 59.5305 49.2328 16.8116
7558 1 57.0355 55.272 14.0726
2676 1 53.1965 57.0392 11.2654
7488 1 60.3336 49.8937 10.2155
5519 1 52.7782 49.1812 13.127
4903 1 50.4445 59.6333 14.0545
7686 1 55.2857 55.1609 10.6646
6570 1 50.57 59.0055 8.51893
1537 1 49.7616 56.3601 11.2054
3759 1 55.165 58.5033 3.16002
4105 1 60.3825 49.115 7.40841
3011 1 51.7944 61.8406 11.1244
2429 1 62.3825 49.6678 13.6681
7687 1 50.0076 51.097 4.87048
1613 1 52.2975 52.6278 11.4289
4810 1 49.8226 52.5684 13.1793
4724 1 61.0925 55.8545 8.27931
7226 1 51.3876 50.766 15.2289
7004 1 59.8255 61.165 14.5454
1800 1 49.2722 56.8209 5.61381
3716 1 47.9695 47.8879 4.93704
7939 1 59.4176 52.548 4.18544
7330 1 57.4983 52.401 14.5724
1358 1 54.9499 51.2107 14.1164
6021 1 51.1183 51.1439 9.24828
1144 1 49.5657 61.9129 15.5293
852 1 58.7418 48.543 3.71188
3816 1 58.5728 55.453 11.7064
6675 1 59.869 60.8099 17.1485
2091 1 52.1529 56.3736 5.93899
7121 1 61.7779 52.3708 10.6873
415 1 49.5424 59.8061 5.72172
7132 1 53.2205 60.6191 6.6657
5379 1 61.2974 55.1601 11.0196
1269 1 50.1382 61.4224 3.39485
6115 1 62.3856 57.8999 16.5997
1950 1 50.8096 53.6279 15.6146
2333 1 52.63 57.2322 8.43986
7031 1 56.2703 48.0713 9.11291
5115 1 48.717 62.3234 6.8027
6819 1 53.8014 48.3908 7.76806
2084 1 48.8083 49.557 15.0319
3254 1 52.507 53.5147 6.0473
877 1 58.6969 47.562 10.7309
4221 1 57.5717 48.7555 12.9998
6788 1 58.4479 55.7948 16.5158
6632 1 47.8083 54.2115 10.4563
468 1 50.2418 53.3493 7.7716
3234 1 51.2483 49.368 6.94479
7324 1 61.8747 54.7302 13.8278
7880 1 51.3639 53.3783 3.43325
3231 1 60.386 56.7664 15.0805
4804 1 54.9593 51.2384 11.123
6928 1 49.7424 55.6227 13.7892
1095 1 53.0243 58.9565 15.3143
3225 1 61.0485 60.7336 4.19961
2536 1 57.4551 61.5293 4.40779
3153 1 55.6832 59.7025 5.54266
5442 1 55.8352 55.3321 6.61739
3213 1 51.0429 48.8952 10.9772
914 1 58.6828 55.4813 6.79125
1665 1 59.5644 58.9812 10.6769
2404 1 57.308 61.8653 8.21064
5485 1 54.3559 54.0352 13.1716
1134 1 60.9603 52.1454 13.3632
2407 1 48.0416 57.79 9.33762
1142 1 53.43 54.6522 15.9888
5898 1 54.4438 55.913 4.24043
6243 1 48.39 55.5247 7.83015
2120 1 56.2579 54.2492 2.98767
4059 1 55.7429 59.483 15.954
3862 1 61.796 57.8945 4.10976
6615 1 53.8685 51.0707 8.57513
756 1 59.3402 58.7196 13.4084
2726 1 50.9167 59.1142 11.3179
7735 1 61.2087 49.8156 3.04952
2681 1 56.5563 49.8898 4.92412
1560 1 60.142 55.4087 4.50875
3483 1 54.1611 53.8682 8.34192
6370 1 57.1756 61.7914 14.7652
3318 1 58.9776 57.9522 3.7997
6332 1 60.6943 58.7264 8.10118
7509 1 58.063 58.3831 6.37414
1967 1 48.3652 49.13 12.058
4543 1 54.3726 51.4084 5.81808
5473 1 59.4579 60.9881 6.54949
4096 1 56.7989 52.8117 5.41026
4112 1 57.9484 52.7418 7.98618
6771 1 57.2212 53.0474 10.7568
1076 1 58.481 61.5816 10.6356
7569 1 57.7849 49.8775 7.62175
4803 1 52.5786 49.5694 4.39536
5526 1 50.3426 47.9952 3.35651
3689 1 61.2141 51.3617 5.82524
3086 1 60.0367 51.916 16.1209
6503 1 53.9317 60.95 12.9034
2143 1 52.0723 58.9146 4.85954
7885 1 60.8974 52.913 8.15515
6171 1 48.3338 60.2968 10.8974
2708 1 55.3218 62.1733 17.075
7147 1 56.522 52.5532 17.1741
7749 1 52.3512 62.3871 14.7913
3532 1 48.3004 53.4364 5.58761
618 1 62.2594 61.5555 13.1346
2252 1 53.2732 47.6144 15.5661
2677 1 61.9307 59.6573 31.393
209 1 58.8514 58.2716 17.8894
2747 1 48.2817 48.3049 24.6125
6705 1 55.0146 53.8639 21.3286
2866 1 60.2912 54.4482 23.2111
4517 1 52.8418 50.3626 26.6839
5773 1 53.3558 53.4432 32.2908
407 1 51.4828 58.9451 24.754
1070 1 51.1112 60.8505 22.9396
2755 1 56.695 55.8208 30.0066
7229 1 53.3531 55.9281 26.8398
5558 1 48.8881 49.5087 18.0093
5375 1 54.0329 50.0431 18.7743
6000 1 55.6906 48.0652 28.1034
7246 1 49.251 61.3718 27.5632
2195 1 51.9677 56.649 29.1763
1855 1 59.7038 58.3074 28.5241
2403 1 59.5696 58.2374 31.2755
3766 1 51.7954 49.7147 23.0006
5846 1 61.5536 50.9186 26.3052
6843 1 60.7238 61.0904 25.5725
7694 1 49.2189 58.8892 26.5682
1937 1 60.6558 50.5621 32.1643
2075 1 51.2962 53.7803 28.7939
4274 1 59.7552 50.6074 21.1933
3082 1 53.3975 55.2461 19.5138
2057 1 50.2593 59.3396 30.6003
3091 1 59.7813 53.962 18.2045
58 1 52.695 59.2597 29.2047
1318 1 55.3522 54.4407 27.8223
7700 1 49.2756 54.9267 22.1651
7998 1 57.8937 62.2104 18.4041
887 1 51.3438 51.6585 24.9595
7950 1 54.4898 48.4014 30.483
6587 1 47.974 49.0639 27.7476
7477 1 60.3173 57.0296 20.2319
2504 1 61.2856 62.1322 30.0502
1891 1 48.7434 59.5297 22.0809
948 1 61.5418 55.3981 26.9944
7202 1 49.4081 49.1964 30.8746
870 1 55.2375 51.8449 26.9499
5768 1 60.8441 52.4379 29.8548
2462 1 57.1747 55.7599 26.2347
7718 1 61.8302 62.1224 19.9421
3188 1 53.8516 48.0479 25.7777
1714 1 54.801 59.0231 22.4665
1830 1 57.1688 62.2676 28.4044
2933 1 61.2211 56.7424 24.5596
1692 1 54.1504 48.1769 23.0129
6853 1 51.317 54.3615 25.936
2017 1 57.2659 53.7855 19.6954
7416 1 48.5647 54.756 26.7538
4204 1 58.8839 52.7603 27.7951
6720 1 53.7381 59.0521 19.1037
2524 1 52.2197 49.9905 30.7381
6637 1 48.8132 52.4539 28.5018
4076 1 53.1999 60.364 26.54
293 1 53.2936 51.3433 21.0999
979 1 56.4497 54.6285 23.6539
7527 1 55.5592 53.1703 30.5206
7518 1 49.3911 56.8525 28.2419
3663 1 48.2448 57.619 24.1245
7997 1 56.0956 60.9458 24.2046
7494 1 47.7875 55.8516 18.1815
6513 1 58.2425 55.6312 21.7275
2067 1 53.2746 51.957 29.0368
6999 1 52.7372 57.4489 21.2913
7614 1 56.6085 52.1368 24.4217
5316 1 60.843 47.7152 28.6962
5078 1 55.8087 50.3996 22.5186
207 1 53.6355 55.518 23.2442
1180 1 56.7105 49.6694 17.7614
1682 1 51.7455 53.2176 22.6915
1462 1 49.897 57.3059 20.8465
4529 1 61.1181 47.7247 23.7758
1532 1 57.0143 57.9993 21.0016
3080 1 59.2435 49.8527 23.6933
4385 1 62.0855 59.5452 27.4397
2392 1 49.7163 53.2323 31.4002
7836 1 58.021 61.8952 21.1742
1935 1 56.9951 58.5459 25.6166
5214 1 56.4485 62.2165 31.1517
1738 1 59.3689 52.5232 25.0809
6390 1 49.7141 52.4379 20.6844
2448 1 59.5826 58.7858 24.45
2595 1 49.9702 49.6913 20.7159
7983 1 54.6051 47.585 20.249
4136 1 60.1292 48.2254 19.6233
1089 1 51.9979 52.8868 18.9305
2519 1 60.3007 54.8446 31.0861
2254 1 62.4635 50.3 28.8821
5445 1 48.9314 51.0297 25.9576
5976 1 54.2837 57.8833 25.0651
7633 1 59.0234 55.4651 28.4874
622 1 57.2354 51.0563 20.2761
3102 1 50.8236 56.3072 24.1898
1509 1 52.2352 55.8042 31.7485
7495 1 57.0757 59.4266 28.2332
7597 1 59.4614 59.3688 21.6667
1079 1 59.3993 49.0448 26.5134
3196 1 56.9645 48.0073 23.8095
7928 1 60.8305 53.0898 20.6149
1582 1 56.1443 58.1496 18.3455
7259 1 57.3115 50.4177 28.0004
4238 1 50.8041 48.8919 28.267
5585 1 55.3475 58.2947 30.1508
7875 1 57.1756 59.6398 32.0659
2039 1 58.7281 62.2531 23.9611
1680 1 56.4326 50.5287 30.8844
7110 1 48.1527 57.1394 30.7688
3152 1 53.2855 60.9391 21.1265
6102 1 62.0925 55.5976 18.4396
776 1 58.8502 49.2745 30.3916
3046 1 49.5615 60.4484 17.8827
668 1 48.5645 61.6731 30.4176
5738 1 49.8488 61.7746 20.4542
5213 1 49.2968 53.6179 17.9483
2517 1 53.8656 61.7254 30.3413
6346 1 49.8796 57.901 18.124
5853 1 55.1376 62.3169 26.5136
865 1 62.4268 59.8784 21.849
4666 1 62.4291 57.0197 21.9704
6838 1 55.6954 55.4595 17.7302
2554 1 62.2906 56.8722 30.8825
6094 1 57.9927 56.0723 32.4714
404 1 52.5216 57.0162 17.5161
4865 1 51.7385 48.8878 17.5925
3112 1 54.1895 58.6799 36.9325
3876 1 55.3637 54.4191 43.6704
3474 1 48.0021 55.7077 37.833
7888 1 51.7739 55.9031 38.5851
4553 1 58.0569 58.1303 36.5046
3549 1 54.8297 53.4585 34.6644
5365 1 49.3001 57.6325 45.1821
2329 1 52.2355 48.2419 37.2708
6099 1 48.1209 60.9965 42.5374
4154 1 53.869 56.4065 35.1388
23 1 51.2276 58.4727 41.008
7635 1 56.2795 57.712 34.0259
1604 1 54.5927 60.1094 34.6177
3890 1 52.6094 51.9294 35.5945
7293 1 56.837 48.8158 42.1377
3870 1 57.2521 60.6867 35.9729
232 1 53.6952 57.4137 44.3438
2941 1 58.9773 47.8839 34.6233
586 1 59.1253 49.048 40.513
5175 1 53.2872 52.2408 46.7068
912 1 57.5314 52.7172 43.3943
4332 1 58.4843 57.2829 46.2203
6992 1 56.9475 56.6059 43.1661
403 1 56.5004 54.4323 36.795
7086 1 58.0909 61.7507 39.3747
6143 1 51.196 53.313 41.4872
6018 1 59.0989 61.0521 33.8267
771 1 57.9227 53.1666 40.6627
2925 1 60.9107 54.2135 46.1191
2365 1 56.9557 53.5598 32.8171
2071 1 49.6803 55.7748 32.5732
3522 1 50.6731 53.5502 44.139
4720 1 62.3009 51.9901 40.3687
2346 1 50.2805 49.1046 47.3688
7846 1 60.7652 55.7914 42.881
479 1 60.6914 48.7504 42.7226
3240 1 56.9018 49.5692 33.5894
2931 1 51.0416 51.1286 45.397
7037 1 50.7415 51.1839 39.7804
6553 1 51.9893 61.4107 37.5336
6763 1 59.2434 51.1231 36.7482
7650 1 53.7591 57.5998 41.6765
3490 1 54.3535 50.325 41.9349
2653 1 54.2685 55.3822 39.7681
1119 1 53.7908 61.635 42.1483
1096 1 61.1086 61.6591 45.0574
7420 1 49.8672 48.9379 41.1097
5503 1 48.9246 54.8469 35.2445
1533 1 53.2233 51.4825 38.4643
3440 1 57.2468 50.1594 44.5179
74 1 61.7557 59.9546 41.0098
6335 1 60.8986 57.7438 45.0935
7221 1 55.6302 52.8254 39.1042
1338 1 56.2228 58.6644 44.9001
4156 1 61.2896 47.7641 32.6939
6314 1 61.9368 57.7672 35.4143
2451 1 56.5841 62.4219 45.1278
2028 1 53.7782 48.947 39.5402
3320 1 48.7389 52.5811 46.2249
3472 1 52.9732 54.7449 45.3451
3282 1 49.3696 57.9062 36.873
7278 1 49.1945 49.4928 43.7725
7049 1 62.0048 59.6566 47.0189
1751 1 59.2073 55.6739 40.5972
860 1 48.8933 59.5155 47.2094
7009 1 62.0111 52.0332 44.8044
5596 1 48.84 57.1701 41.4895
3665 1 54.8303 48.989 46.1182
2927 1 57.4651 60.6443 43.222
690 1 59.555 56.4934 34.8246
6157 1 61.0797 48.8325 36.4935
1979 1 56.6271 50.8461 37.5426
2816 1 48.3968 60.4306 37.1647
357 1 49.4487 49.4948 33.8071
3107 1 52.9931 60.3482 46.5603
4794 1 60.8027 55.3762 38.4738
5313 1 58.6178 54.8959 44.7019
3981 1 50.4375 61.9575 39.8402
2702 1 54.1047 53.1585 41.5966
1426 1 49.7941 62.2948 46.8948
272 1 60.6413 57.9742 37.8172
2668 1 56.0776 56.8038 38.1451
5381 1 51.7653 54.5769 35.8774
3498 1 62.007 62.0061 37.4907
1981 1 60.1905 59.6943 43.4337
311 1 51.5173 59.0934 44.5259
1874 1 59.6459 51.3738 39.4839
632 1 52.5703 62.0724 34.8725
1138 1 51.7158 58.6277 38.0519
6257 1 53.738 62.4561 44.7941
2064 1 55.524 59.8547 41.1466
1267 1 59.2231 54.1066 36.5784
3514 1 59.3018 59.2441 39.9947
3598 1 57.1989 57.5456 40.5399
1031 1 49.7018 58.2469 34.1495
3032 1 49.6867 54.954 40.0392
330 1 55.606 60.8318 38.49
5284 1 56.4764 48.3834 39.1408
581 1 53.097 49.5582 44.1223
4244 1 61.5818 60.1216 34.0245
1921 1 53.4994 48.482 34.8142
700 1 56.0783 51.3807 46.9522
2425 1 51.6831 59.9554 32.9816
5885 1 48.5197 55.219 43.5504
2337 1 50.6085 50.2797 36.2208
5215 1 60.6216 53.9551 33.9447
7820 1 50.809 55.937 46.8107
4996 1 55.0516 50.612 35.4181
5285 1 60.0438 50.0857 45.0203
3186 1 48.6851 51.3309 37.95
1411 1 58.7721 51.7648 33.949
6743 1 49.8994 62.1482 35.585
4596 1 51.0869 60.9009 42.3983
1062 1 48.3016 61.2784 33.284
287 1 53.7327 58.0039 32.6267
3064 1 56.3761 54.1596 46.4018
1540 1 51.4149 51.4922 32.9599
4045 1 47.6503 51.5221 32.8018
1976 1 55.5085 59.6623 47.3672
413 1 47.5374 52.4674 35.7579
3005 1 47.5204 50.1973 47.3185
737 1 47.7357 61.318 39.6992
840 1 59.3468 62.4924 36.9432
4253 1 53.8031 50.482 55.5016
2760 1 47.8424 52.6074 53.6801
656 1 59.4458 48.2458 54.632
6611 1 56.186 60.8039 61.9774
6060 1 61.9728 61.6456 48.835
1712 1 55.4415 54.2355 51.7465
3546 1 54.6135 58.4005 56.7507
2491 1 56.3708 54.228 55.3461
2377 1 60.4299 57.979 50.4722
2761 1 55.9015 57.7551 49.0597
1952 1 52.1457 57.431 55.9884
364 1 56.0903 60.8418 56.5067
611 1 52.4069 53.89 54.737
4524 1 61.6104 56.2538 60.4058
1701 1 59.8461 53.7472 48.6518
5056 1 48.8509 58.2155 53.6915
3445 1 50.1011 52.0375 60.155
6816 1 60.7498 53.8286 61.9092
43 1 49.0622 55.6967 56.6099
5766 1 56.3465 57.8358 53.6484
5029 1 57.8342 55.2684 51.1372
6126 1 51.6603 59.1577 53.8575
3903 1 57.8081 55.5231 48.2586
7841 1 58.0617 53.5567 60.9873
929 1 58.715 49.6317 59.1662
6137 1 55.0476 62.0032 48.9947
7046 1 50.6833 56.1711 59.0249
2503 1 52.3133 52.6193 58.7299
6770 1 55.8179 47.6528 50.3896
841 1 47.7924 62.1747 58.0052
1247 1 60.5046 50.5654 55.7293
7817 1 58.7121 51.6262 51.5141
1429 1 58.704 50.8708 61.7512
1083 1 52.5522 56.7902 52.5574
653 1 48.1845 48.4286 54.0378
3433 1 52.0182 61.9098 61.1886
2446 1 52.6682 49.1441 59.8776
1519 1 54.5 52.7685 61.2362
5699 1 47.897 58.1921 57.4513
2359 1 48.9318 54.5934 52.1162
1542 1 53.1202 58.4919 59.2184
7088 1 58.3905 51.768 57.2564
4937 1 59.0421 54.7329 55.0191
7537 1 55.9096 51.5033 52.4383
6145 1 51.1682 50.8905 51.4869
1265 1 53.4533 54.246 50.0085
5518 1 61.6511 52.166 53.8525
5745 1 48.7309 52.8662 56.3238
6153 1 53.204 61.2277 58.8147
2043 1 52.9511 54.998 57.3488
6809 1 53.4086 47.9671 54.4786
4042 1 54.7696 56.3918 60.1713
5241 1 57.0231 57.4801 57.702
1695 1 50.972 55.7029 50.4012
1214 1 55.5417 55.0064 57.9533
80 1 52.704 59.2418 61.9717
4717 1 61.731 47.9796 60.98
4323 1 56.3354 48.4691 58.324
5930 1 48.7775 61.5373 51.8578
4447 1 51.2258 60.3133 51.2513
1386 1 53.1964 62.3597 54.4584
3618 1 59.2825 61.5648 50.0152
2213 1 56.2918 52.6759 59.084
3906 1 47.5189 58.894 51.0345
3529 1 52.8612 48.8663 48.1783
2718 1 54.4374 50.7108 58.3263
6261 1 56.4613 51.2561 55.1528
3837 1 50.8887 49.4412 57.8129
2846 1 60.3911 59.1604 55.0887
7785 1 58.7196 56.0242 59.7309
6049 1 52.3697 51.0929 61.8902
5804 1 49.9423 58.3024 49.52
6132 1 58.4312 57.2726 55.3989
3036 1 49.8091 50.583 53.798
3094 1 54.7138 60.7474 51.5259
7310 1 59.0655 60.252 62.0639
3585 1 58.3512 51.3402 48.7081
3503 1 55.8252 50.3345 49.7773
600 1 55.0876 48.0262 60.8655
4055 1 52.3421 57.9523 48.0407
5419 1 51.8823 47.9617 52.1843
7007 1 61.4203 55.3243 50.2055
2918 1 51.2026 51.7059 56.2098
4090 1 54.5805 55.6713 53.7791
7265 1 52.9896 55.2485 61.8957
722 1 50.4026 55.7779 54.207
1779 1 59.9225 53.9912 52.3102
2689 1 51.9618 61.7958 48.7654
5084 1 53.1796 51.8646 53.1207
4188 1 53.3632 58.5856 50.5199
5152 1 49.026 50.2329 62.2214
2787 1 60.7377 61.046 57.2286
6688 1 59.9823 58.757 59.9869
7285 1 55.9897 61.7054 59.3581
2638 1 57.7543 58.0743 51.326
7061 1 59.7126 49.1068 52.0274
7237 1 61.1643 52.4765 59.3863
2548 1 48.8031 48.7436 59.7113
5994 1 50.6092 58.9878 57.8947
1401 1 61.9509 54.5031 55.116
544 1 54.5475 59.8663 54.2228
4264 1 49.0398 59.2575 61.8928
5251 1 59.6194 54.2697 57.8088
788 1 53.0707 51.4859 49.4606
6321 1 49.2787 52.5448 50.3398
6337 1 56.7209 48.4347 55.5312
6045 1 49.533 60.9425 54.6936
1348 1 61.4148 49.6918 58.9004
2288 1 58.169 60.0386 58.3954
5639 1 51.5328 61.4182 56.559
5672 1 49.3441 54.4467 48.3509
6077 1 61.0239 59.5952 52.4355
4768 1 49.8193 48.6787 50.1591
399 1 61.5416 62.2539 51.7488
6367 1 59.397 59.2711 48.194
4348 1 49.7891 60.9516 59.7056
5975 1 58.1601 60.965 54.6256
4193 1 48.8623 54.4632 60.3813
7712 1 50.8224 57.1037 61.7043
2797 1 57.0862 56.8274 61.9363
3059 1 62.1672 55.4498 57.7775
2989 1 47.9363 62.1975 49.24
6786 1 57.4528 60.8854 52.0941
102 1 54.2874 55.7006 47.7881
7857 1 62.2659 48.7211 50.9513
1719 1 55.9002 50.3386 62.237
2059 1 59.9643 49.47 47.6708
2763 1 47.9111 51.1191 58.5225
5308 1 62.0982 62.4102 55.1873
2332 1 57.659 61.4265 47.6506
