# LAMMPS data file written by OVITO Basic 3.7.6
8000 atoms
1 atom types
-11.1599704928 76.1599704929 xlo xhi
11.8186693076 53.1813306924 ylo yhi
-1.6261300297 66.6261300297 zlo zhi
0.0 0.0 18.9456718527 xy xz yz

Masses

1 18.0153

Atoms  # atomic

4553 1 2.90495 19.2076772304 5.83439
5255 1 2.23139 23.2996772304 6.34935
5083 1 -7.12123 18.643375684 -0.4594600594
5158 1 4.49055 13.5545386152 1.82837
5197 1 7.63323 12.8617386152 -1.12473
4008 1 -2.1146 18.3766772304 4.28654
6551 1 0.76524 13.609375684 -0.6267600594
1309 1 5.90601 18.0636772304 3.07053
1774 1 1.92756 17.692375684 0.1844399406
1642 1 4.59222 20.378375684 2.5907399406
2784 1 -3.12192 14.0987386152 4.49178
1895 1 4.20823 16.631375684 -0.7213600594
734 1 6.99682 14.4870386152 1.06405
7105 1 -5.71111 15.0853772304 5.0509
2328 1 -8.52289 16.8517772304 1.05471
7598 1 -1.05599 15.9035386152 5.09837
5165 1 9.91453 16.4537386152 4.29065
3411 1 4.3853 16.9239386152 5.16996
2290 1 9.48329 14.401375684 2.4956399406
4433 1 -5.88878 19.2466772304 4.13228
2683 1 -9.4007 16.2709772304 4.45223
6326 1 9.73071 20.066375684 1.7869399406
2173 1 2.12833 19.557375684 2.0283399406
4198 1 -5.99979 15.8261772304 2.23355
4076 1 -2.92429 13.4754386152 1.94609
3118 1 3.8683 14.3846386152 4.47754
3915 1 9.7775 15.8558772304 6.86338
4325 1 -8.29483 20.8389386152 1.01701
3606 1 -4.25175 18.0183386152 2.24712
889 1 -7.92974 14.0109772304 3.48877
184 1 -4.22393 19.5769386152 -0.0460849
2239 1 -2.58715 15.9302772304 0.744529
5152 1 0.56182 19.5037386152 4.24795
2602 1 -4.70537 23.7225386152 4.3932
5311 1 -10.0232 18.5084386152 3.05446
6362 1 6.45705 17.1181386152 0.606951
3323 1 8.27233 18.933375684 -0.4191600594
1398 1 0.286591 15.557375684 1.2783399406
4504 1 1.084 14.8338772304 3.72303
5121 1 8.32682 18.5366386152 3.77588
2095 1 3.56022 14.028375684 -0.7519600594
716 1 -8.49802 14.4303386152 -0.447402
1366 1 -5.7742 14.4696386152 -0.297194
6019 1 -9.37653 20.0244386152 6.44101
1592 1 4.24168 21.6464386152 4.94726
2390 1 1.10929 21.8050370688 0.7786399406
194 1 9.64246 21.8826772304 4.18276
1291 1 -5.7101 21.852375684 0.4505399406
3386 1 -8.23476 20.4330386152 3.90035
3566 1 -1.81498 21.0724386152 0.81087
7623 1 -4.30273 21.0781386152 5.39296
7187 1 -0.467914 23.2626772304 5.12752
4684 1 5.23267 21.664375684 0.2336399406
7574 1 -1.7634 21.1786772304 3.84886
4591 1 8.54266 20.1300386152 6.11012
7625 1 -6.1574409857 17.6186772304 6.3228
3778 1 10.5456 22.5230370688 0.6251399406
2942 1 -10.9634 21.680375684 -1.1013600594
1753 1 -11.042 17.3355386152 -0.168178
3381 1 -9.08892 23.171375684 3.1027399406
4784 1 8.72183 24.5856772304 7.47568
5126 1 -8.5759409857 16.2693772304 11.6059
2797 1 -8.70233 14.6451772304 7.68494
3496 1 -4.57776 18.6086772304 8.45098
4071 1 -1.73419 17.3250158455 13.3483
2225 1 5.95967 17.1062386152 7.54879
6586 1 -0.115942 18.6126772304 8.54293
137 1 4.13284 15.4707772304 9.27527
3927 1 -9.43352 18.0786772304 9.78547
6259 1 8.74126 18.0636772304 8.0085
833 1 -5.82096 17.2710158455 11.8559
2414 1 -3.34547 17.5560158455 10.6699
7422 1 -2.40512 19.6846772304 7.09246
6354 1 9.09359 18.0766772304 10.8057
6702 1 -0.264513 15.9498772304 7.69982
3376 1 4.47923 17.2220158455 11.5047
683 1 -8.8550409857 17.4776772304 7.14778
3457 1 1.48208 22.2446772304 8.77839
5615 1 -1.6176 21.6010158455 12.7576
4099 1 0.334048 23.1170158455 14.1784
7265 1 7.65094 23.5956772304 11.402
7678 1 9.14825 15.2321772304 10.2076
5787 1 -8.55612 22.1378386152 7.91449
62 1 6.6843 19.1716772304 11.4117
2198 1 -1.00898 19.2196772304 11.3147
3676 1 -6.88436 19.1910158455 13.3892
1403 1 -9.44363 22.4250158455 10.595
127 1 5.21537 19.6947142992 8.9024399406
4025 1 3.22081 25.3636772304 11.5755
4930 1 2.94486 22.5990158455 11.4183
340 1 0.116016 23.4286772304 11.1166
7556 1 -4.02738 22.4880158455 14.2781
5469 1 3.37297 20.6910158455 13.3853
7041 1 -4.06277 22.6540158455 11.3383
2748 1 -2.78055 18.8270158455 15.3099
5834 1 -5.7252409857 20.8560158455 9.74189
3239 1 5.68395 21.7626772304 10.71
4057 1 -2.23196 23.9290158455 9.43417
4167 1 3.9007 25.4406772304 14.284
3537 1 -5.8752409857 24.3250158455 12.7262
3208 1 2.39883 19.6486772304 8.6692
3040 1 -7.97499 19.9835386152 10.8722
7702 1 -1.03069 22.0726772304 7.71122
3221 1 6.63373 24.7960158455 13.7578
5643 1 1.95218 18.7980158455 11.5399
5771 1 6.44812 23.5566772304 8.59763
6206 1 -8.0704409857 23.6686772304 14.7023
5292 1 -9.05998 21.1996772304 13.3035
2794 1 10.1601 22.5310158455 12.0362
1925 1 -8.86638 17.3820158455 14.3418
1247 1 5.84793 19.8980158455 14.0221
2599 1 -8.3746409857 24.8256772304 11.4681
3651 1 9.69318 22.2490158455 14.7878
6454 1 7.05176 22.3060158455 14.9963
1480 1 -9.68137 25.9080158455 13.6809
3475 1 0.902606 17.4020158455 13.6014
2542 1 -5.66484 22.4286772304 7.55029
3266 1 -5.13689 20.1080158455 15.1936
6085 1 2.8757 22.8486772304 15.0371
1522 1 -0.731538 20.7630158455 15.3938
4251 1 7.44569 14.5450158455 7.90039
3056 1 6.16844 21.2966772304 6.92952
5250 1 -0.557902 25.5080158455 15.1154
6001 1 6.06127 17.5163544607 15.2321
2090 1 -2.50223 15.2837772304 9.04333
4773 1 1.81387 19.4650158455 15.2328
4320 1 -5.63926 23.6970158455 16.2912
6174 1 -5.2707409857 18.5946930759 22.1258
6110 1 1.9943 23.6953544607 22.4949
3437 1 -7.3703409857 19.7123544607 20.6334
6079 1 -2.08778 23.1640158455 18.6101
1259 1 -4.03552 26.9326772304 16.3457
264 1 3.46326 17.4600158455 16.2329
6027 1 -0.860039 20.6540158455 18.2218
430 1 3.36675 22.8630158455 17.9015
218 1 9.00761 19.3560158455 19.8601
2101 1 6.26504 22.7950158455 17.6311
198 1 1.88222 26.4450158455 16.1057
1287 1 -4.08455 20.8943544607 23.1927
1770 1 -8.91849 21.4050158455 16.214
569 1 -8.0409409857 25.2480158455 17.1429
1379 1 -7.81247 24.1130158455 21.6828
6848 1 -8.8324409857 22.2716930759 23.7372
4903 1 5.54838 25.1610158455 23.5408
1039 1 -9.38973 19.9983544607 22.3673
1615 1 7.81843 21.8850158455 19.8479
851 1 3.65873 22.2770158455 20.7203
3079 1 -6.54313 22.1120158455 20.0005
6221 1 7.86529 26.0400158455 15.771
7721 1 -5.55467 25.4373544607 22.4635
73 1 1.63992 28.2690158455 22.3212
4214 1 -3.86424 22.2843544607 20.6925
5799 1 -2.8459 24.3680158455 16.3319
4222 1 -9.46389 18.7920158455 16.5632
3524 1 -1.29555 20.9473544607 21.0396
4388 1 5.46676 19.9196930759 22.7329
691 1 -6.4166409857 21.3010158455 17.3743
112 1 6.12919 22.7313544607 22.1307
6748 1 1.96583 20.2420158455 17.8847
5828 1 3.24302 19.5843544607 21.125
7038 1 6.68791 25.4830158455 18.2356
3143 1 2.80101 25.5760158455 18.4756
4550 1 -1.46057 25.2773544607 20.3881
7757 1 -9.3794409857 24.8493544607 19.5602
2930 1 -3.17526 24.3063544607 22.4824
4795 1 -7.60574 28.3540158455 23.5748
1904 1 -5.01764 27.4840158455 20.5804
1042 1 -1.0158409857 28.4463544607 22.7788
4520 1 -0.283623 22.6043544607 23.4758
3751 1 8.74367 26.7580158455 21.8662
3091 1 9.7832 20.3843544607 23.7073
7330 1 -6.04474 27.0850158455 18.1223
7300 1 1.23841 25.7980158455 20.7653
1346 1 -7.9689409857 17.8873544607 18.5776
3157 1 -2.43302 27.8670158455 20.4469
4776 1 4.82481 27.4080158455 19.2996
3575 1 -2.49699 18.2993544607 21.472
5597 1 9.13752 25.5500158455 19.5681
5646 1 10.3119 18.3370158455 17.5295
2304 1 6.01795 27.2860158455 21.9793
3867 1 3.02227 17.7233544607 18.9922
4010 1 -9.0001 25.8916930759 23.3447
6490 1 -1.60191 18.0353544607 19.0026
3568 1 9.32669 24.8123544607 23.7261
735 1 10.3312 24.7556772304 16.0458
1653 1 7.91942 18.6016930759 22.4086
323 1 10.3563 23.1150158455 19.8392
6276 1 -11.1551409857 22.8750158455 16.7808
923 1 1.70261 18.7823544607 23.4243
1142 1 -8.8503409857 29.5513544607 25.9589
6779 1 -6.1372409857 22.3996930759 24.4795
5748 1 4.98267 22.2066930759 30.8134
6043 1 4.94985 21.4053544607 26.631
6378 1 3.77783 27.2606930759 32.3027
442 1 0.113844 20.3853544607 24.9397
6285 1 7.66114 22.4543544607 27.0503
419 1 -8.9054409857 20.9396930759 26.1679
3859 1 3.90443 19.3646930759 24.9517
1788 1 -3.84037 20.8376930759 27.6543
599 1 10.2716 30.0283544607 28.9721
7682 1 10.5527 25.8106930759 30.5327
7642 1 -3.55991 26.3246930759 31.2986
7560 1 6.76489 23.8146930759 29.4016
4878 1 -5.2914409857 24.4536930759 28.2752
2014 1 8.02845 30.2406930759 30.4556
6339 1 2.8134 28.1283544607 24.7209
2240 1 -8.59487 26.2646930759 29.7412
2480 1 -4.12612 28.4273544607 25.5765
5801 1 -10.0304409857 26.2986930759 32.0693
7317 1 7.88392 29.1203544607 25.2219
1145 1 6.57802 25.0993544607 26.1019
7863 1 -7.83043 23.7186930759 28.8914
1938 1 -9.2650409857 28.8726930759 32.1271
3792 1 7.91375 25.3866930759 31.2495
7272 1 4.76662 27.8056930759 29.6399
6391 1 -2.5347 19.8403544607 25.2896
1993 1 -1.41641 28.0086930759 30.6705
779 1 3.18484 23.5033544607 26.7655
6017 1 -7.18113 21.8426930759 30.7347
3924 1 7.52691 27.5276930759 29.6246
4327 1 -0.963077 24.2063544607 27.6518
2306 1 -9.88156 23.3416930759 27.153
4239 1 -5.81117 26.8306930759 29.7237
7440 1 -6.6025409857 28.5676930759 31.674
6032 1 3.04892 25.3843544607 24.6668
7418 1 1.16096 22.6486930759 28.2697
6279 1 4.69612 25.3326930759 28.1887
3587 1 -4.76011 28.8486930759 28.1777
5527 1 -6.18392 20.2946930759 26.3652
4098 1 -2.47748 29.9796930759 29.1119
7900 1 -1.6234 27.2196930759 25.1641
2965 1 2.37754 23.2086930759 30.6383
733 1 -2.97918 23.2026930759 29.0081
7128 1 2.62856 25.8726930759 30.0513
6620 1 -9.9983409857 27.7176930759 27.7616
1014 1 -4.66044 24.3736930759 25.7131
8000 1 0.217262 26.7426930759 28.7971
2103 1 -5.98354 26.6133544607 25.0152
1654 1 8.26112 27.0503544607 26.9686
5630 1 -8.6834409857 25.7256930759 26.1224
3114 1 -5.8845409857 31.2066930759 31.5166
6248 1 -2.65234 23.5896930759 31.7591
6776 1 -2.00322 24.2933544607 25.0009
7023 1 0.462474 28.5416930759 26.5816
1731 1 -9.83169 29.7556930759 29.6295
1562 1 0.620943 20.0596930759 27.6918
6944 1 8.0827 22.3556930759 24.2325
1200 1 10.4791 22.8526930759 27.1727
3231 1 -1.39561 21.1536930759 31.7275
4399 1 5.37305 29.1233544607 23.9874
7005 1 4.19386 30.3586930759 29.0916
4323 1 10.1298 31.3446930759 31.5852
4993 1 -4.6346409857 27.6616930759 33.5393
2051 1 -9.1846 29.0750316911 39.8566
6958 1 -1.77924 31.9396930759 39.9607
249 1 3.35193 31.2526930759 35.2376
3749 1 4.90972 29.5310316911 40.6083
5265 1 0.5671 30.5106930759 39.25
5652 1 -10.0597409857 31.0700316911 38.2318
2340 1 6.16146 26.0936930759 33.2094
3613 1 -10.6669 29.0050316911 36.2484
7663 1 2.7458 31.0530316911 40.9141
7681 1 5.85207 31.5356930759 36.4194
2961 1 9.61445 30.1870316911 40.4468
5678 1 -5.35011 31.1460316911 38.7053
3550 1 -2.99987 31.1576930759 37.3018
6764 1 -7.8067409857 32.4236930759 37.6483
4830 1 1.45032 32.0996930759 37.1262
610 1 10.4168 29.5286930759 33.7303
5961 1 -4.3278 33.4276930759 40.2263
4642 1 -2.16231 28.3530316911 37.0307
3054 1 -7.0033 30.5280316911 40.8719
2866 1 9.92444 26.2826930759 34.5832
5282 1 2.85055 22.7766930759 34.5477
5677 1 5.97979 32.7940316911 38.8071
3810 1 -5.71708 23.9690316911 39.708
1027 1 -5.6948 23.5410316911 35.082
1329 1 0.963951 24.7040316911 35.3356
1911 1 -9.11032 27.1276930759 38.0998
7961 1 6.48646 21.5446930759 32.9038
7426 1 -2.21838 27.2590316911 34.587
1523 1 -1.53059 24.6206930759 34.234
5616 1 -8.2592409857 24.7070316911 39.3402
4210 1 3.1155 25.8550316911 39.768
739 1 6.58383 26.5590316911 38.0197
5754 1 -6.58642 27.4520316911 37.2547
4169 1 2.56514 28.6866930759 36.3142
7974 1 0.348227 27.9780316911 37.9783
4872 1 -9.93892 22.8076930759 34.24
2922 1 -9.05643 25.4100316911 34.4517
5324 1 9.72009 29.5276930759 37.7485
3241 1 -4.07543 27.5180316911 38.7985
5995 1 5.35124 23.7726930759 34.4021
1445 1 6.66106 30.3176930759 32.9134
3791 1 7.18016 29.0436930759 36.7508
126 1 -6.4668409857 26.1496930759 34.8104
338 1 -0.336999 28.6136930759 33.1427
135 1 -7.00217 29.9866930759 36.3531
1281 1 -4.55291 30.2246930759 35.0115
1929 1 4.22459 27.8870316911 38.4473
679 1 9.08738 23.7376930759 35.2489
6722 1 -3.1306 23.2350316911 36.0452
325 1 -0.514549 31.4536930759 33.7277
7964 1 3.93552 30.0756930759 32.7127
7002 1 7.88334 28.1426930759 34.2861
7308 1 1.78294 27.0536930759 34.1887
3452 1 -9.24506 30.4296930759 34.4205
216 1 -1.33222 24.6050316911 39.9704
5427 1 8.41526 26.0440316911 40.0173
159 1 -3.5276409857 24.7520316911 38.4354
7744 1 0.838198 24.9410316911 38.3402
60 1 6.87586 24.1020316911 36.6724
2479 1 -11.0992409857 26.0040316911 36.2323
4887 1 1.41084 21.4196930759 32.5243
6856 1 8.73292 23.0486930759 32.629
3866 1 -5.33263 22.5766930759 32.5236
6097 1 7.0851 31.2970316911 40.8942
2524 1 3.88021 33.6660316911 40.556
2850 1 -5.29138 26.7343703063 47.4215
2140 1 1.58948 34.8120316911 46.2543
7073 1 -7.54081 29.3403703063 46.3111
5664 1 0.40007 27.7380316911 43.2632
6992 1 -8.8600409857 34.5960316911 45.0306
1338 1 -4.0292 33.2463703063 47.9766
444 1 -0.806742 27.7440316911 45.6524
4499 1 -0.521551 34.0440316911 44.634
7971 1 -0.212905 31.3933703063 48.0863
5752 1 -9.57942 31.1083703063 46.9077
6478 1 3.97909 26.9383703063 46.7114
409 1 -6.14928 30.7890316911 44.4138
1867 1 1.25007 27.2913703063 47.2951
1964 1 6.86104 30.1723703063 48.4863
3149 1 1.63788 30.3640316911 43.4202
1442 1 -1.78284 30.2370316911 46.0391
4693 1 -6.0482409857 28.7570316911 42.6306
5357 1 3.44275 31.1640316911 45.2073
5271 1 7.61483 29.4903703063 45.9497
6740 1 -2.48396 34.8363703063 46.2535
4729 1 4.9995 28.8690316911 45.1077
3618 1 -4.35249 30.8243703063 46.5054
1455 1 -8.8632409857 32.0083703063 44.1892
7491 1 -2.58663 30.9570316911 42.2025
3092 1 -0.690505 31.4340316911 43.9754
1636 1 2.28402 32.3323703063 47.4069
4148 1 6.57616 34.4923703063 46.8423
6528 1 -10.1471 28.9643703063 48.6924
1096 1 7.91424 32.4380316911 43.2028
4248 1 -9.3275 33.1577089215 48.9149
3979 1 9.18744 26.8563703063 48.7333
6152 1 5.45469 33.0310316911 44.6621
2966 1 -4.61237 32.8740316911 42.9904
6939 1 9.63131 31.2210316911 45.0984
5805 1 6.28217 32.8143703063 49.1071
7808 1 -8.49206 35.3020316911 47.528
1730 1 -5.76147 29.3163703063 48.451
1528 1 -7.3711409857 33.1030316911 41.9194
2429 1 5.16133 27.9483703063 49.0035
6917 1 -5.30016 24.4523703063 42.2501
4534 1 -1.77486 33.2103703063 49.3558
3289 1 -3.03102 26.2403703063 46.2463
2431 1 -5.78944 35.4030316911 48.0704
196 1 10.0895 26.8280316911 43.8782
5888 1 5.55158 27.6900316911 42.5925
6383 1 -7.06229 26.3393703063 43.3366
7181 1 -1.64388 26.5840316911 41.92
6986 1 8.34106 28.0440316911 42.0607
4260 1 8.42477 26.8830316911 46.0889
4 1 -10.2872409857 26.9473703063 46.9219
713 1 -7.69175 26.4573703063 46.0246
7614 1 2.85596 26.7260316911 42.3281
2382 1 -9.09017 25.4933703063 41.8792
578 1 5.8704 24.9070316911 42.4146
5648 1 -2.89406 24.9210316911 43.5699
6300 1 7.04664 24.8150316911 44.9535
1199 1 -11.1389409857 31.8103703063 42.7302
517 1 9.37444 34.6670316911 43.7237
2761 1 -3.5897409857 28.5550316911 41.3312
6335 1 0.46058 29.0800316911 49.4202
2330 1 -7.8046409857 35.7207089215 56.3963
7430 1 10.234 28.8643703063 52.4031
3822 1 -4.0564 30.6637089215 52.2
6539 1 -0.0246882 27.7613703063 54.3656
2894 1 -9.75537 36.8083703063 54.9594
528 1 3.86998 36.0773703063 52.889
5406 1 7.56412 35.4537089215 57.2435
596 1 -4.90304 36.1513703063 50.4483
2642 1 3.33143 35.9373703063 50.155
3787 1 -3.45028 34.6423703063 54.9972
4926 1 -9.0871409857 36.6933703063 52.2509
5113 1 10.3716 35.3667089215 56.7796
3904 1 -0.348398 36.3833703063 52.6683
4275 1 2.61701 34.2837089215 56.9068
5475 1 -6.04356 36.0863703063 54.3818
6623 1 3.35843 36.6733703063 55.6007
1897 1 0.73362 30.8693703063 51.7509
4199 1 6.69428 33.2337089215 55.7222
5371 1 -8.2959 33.2287089215 57.1031
3312 1 -1.11672 33.8533703063 53.7217
5081 1 -7.53537 32.8183703063 50.9154
786 1 -2.67327 28.0777089215 54.9928
5157 1 -8.84291 28.8593703063 52.7625
2641 1 -2.48669 37.2443703063 54.1408
5423 1 3.0028 28.3183703063 50.5119
2958 1 4.14314 38.3457089215 57.614
4865 1 -8.82587 31.5597089215 52.9652
3612 1 1.71125 34.4083703063 53.4981
6134 1 9.52559 29.1257089215 56.5204
5927 1 1.53906 29.9813703063 54.3043
2875 1 8.54028 32.4683703063 53.8013
106 1 -7.84231 28.3443703063 50.1761
5861 1 9.07555 35.3340316911 50.4378
2054 1 -6.94906 35.2133703063 52.0584
1417 1 -2.21453 35.6180316911 50.6393
5717 1 9.06076 29.4297089215 49.8001
5722 1 8.35845 29.8217089215 54.0331
7295 1 -7.29314 31.5347089215 55.24
2575 1 -4.7143409857 32.0577089215 54.3965
715 1 -3.6707 27.9127089215 52.3812
178 1 8.30152 31.4767089215 57.4371
3447 1 6.13887 28.1993703063 53.5528
902 1 0.949316 32.4907089215 55.3812
5683 1 3.09343 32.3243703063 52.1165
4931 1 -3.21384 30.5177089215 56.0848
4675 1 -1.66024 31.9953703063 51.9117
3557 1 -1.60265 27.3713703063 50.4404
3338 1 3.16353 29.7797089215 56.5011
1302 1 3.89219 29.5803703063 52.7713
6333 1 4.46298 32.0907089215 57.2868
4200 1 -5.40684 31.5043703063 49.9487
3360 1 -1.24148 32.1677089215 57.0105
7924 1 7.56506 33.4523703063 51.4952
6334 1 -7.68385 29.3017089215 56.5192
7400 1 5.34647 33.8843703063 53.2164
1842 1 -2.77187 34.5097089215 57.7408
6546 1 8.94852 37.9383703063 56.3321
693 1 -10.1542 29.1388718527 57.8626600594
5056 1 10.6484 32.9327089215 57.8794
3042 1 3.65495 33.2213703063 49.6123
3087 1 -3.79958 37.8447089215 60.8853
5991 1 -3.29091 37.8267089215 65.5834
3985 1 -0.494488 34.2057089215 65.8963
6064 1 -7.6186409857 37.1830475366 65.173
4158 1 -10.7682409857 31.5157104678 64.2771100594
1779 1 9.64691 36.1500475366 66.1457
499 1 -1.99064 36.9853703063 58.5805
7939 1 9.31578 31.3347089215 61.7198
1961 1 -10.6792 33.3327089215 58.2743
418 1 0.459659 36.8317104678 66.1917900594
2393 1 0.289647 37.1153703063 60.0636
5481 1 5.53946 38.8997089215 61.7196
6755 1 2.35525 35.5317089215 59.2401
768 1 -9.36629 33.7250475366 65.2196
5363 1 -5.66186 39.1948104678 64.9332700594
6316 1 9.31621 35.4817089215 61.5079
5229 1 -9.4581409857 39.2650475366 60.6017
730 1 -10.4968 34.7827089215 60.6243
1228 1 -2.84194 33.3017089215 62.4284
1301 1 -7.13505 33.2797089215 63.7115
3554 1 4.06862 33.0652718527 61.7615900594
3134 1 5.6385 33.8420475366 64.0071
5049 1 8.82042 37.3500718527 63.8291800594
6514 1 5.82759 32.7787089215 59.7024
6993 1 -2.04609 38.3627089215 63.06
5825 1 -0.192366 33.6310475366 63.1717
5654 1 1.4688 33.4137089215 60.8833
1639 1 -10.4293 36.3090475366 65.3129
2249 1 8.50482 33.5787089215 63.4015
4626 1 -4.66182 35.3362104678 61.5965400594
3236 1 -8.59429 36.6966104678 60.7345700594
899 1 -4.80925 33.4310475366 65.3475
3785 1 2.09062 37.1080475366 64.0889
6455 1 -6.87612 35.9214104678 62.8506200594
6255 1 4.51614 36.2630475366 64.8598
2247 1 -0.137508 36.4529104678 62.7142600594
5115 1 9.65601 33.2760475366 65.9527
2617 1 5.19949 31.8360475366 65.718
5824 1 6.17739 38.3377089215 64.3134
3713 1 -9.87512 39.1840475366 65.0419
1587 1 -4.46897 30.8517089215 58.4984
3295 1 -5.20044 34.8597089215 58.958
1969 1 4.74557 36.8707089215 59.8488
5132 1 6.98325 35.2487089215 59.8152
3530 1 -6.8564 36.8607089215 58.5251
3354 1 -3.62976 31.2920475366 64.1753
5303 1 -10.0647 32.0397089215 61.6839
6584 1 0.121826 31.4817089215 59.3636
3139 1 -8.26857 29.2937089215 60.14
4274 1 0.808952 31.0760475366 63.5829
3558 1 3.18192 30.6600475366 62.5077
3514 1 -6.58485 32.3309718527 59.1381300594
750 1 -7.36633 31.3827089215 61.7276
6303 1 7.37894 30.6437089215 59.9286
7080 1 -2.41382 31.3007089215 60.4086
1553 1 1.53877 29.2717089215 58.4976
6706 1 3.06345 39.4137089215 62.8682
54 1 -3.04899 35.2163104678 66.4170100594
1567 1 -5.9535 28.6337089215 58.6166
605 1 -4.87301 29.7037089215 62.3374
2546 1 6.8375 39.7717104678 66.5479300594
995 1 3.36499 29.0707089215 60.4549
7273 1 -0.947506 39.0980475366 66.5661
3344 1 -2.5163 34.5829386152 6.42619
330 1 -4.62865 28.5372386152 4.6841
4713 1 -4.26038 27.9840370688 -0.1526600594
2080 1 -0.369172 27.9035386152 2.5685
6040 1 0.559644 30.2490386152 1.82084
4660 1 -8.18575 34.2968386152 5.81133
509 1 -1.82221 26.851375684 0.4325399406
7050 1 9.43886 26.032375684 3.7443399406
2841 1 -9.5723409857 23.5643386152 0.453832
7936 1 -10.3450409857 28.297375684 0.6579399406
6484 1 7.95939 24.2139386152 4.94629
7102 1 2.10416 27.1805386152 -0.363724
7458 1 6.06503 27.682375684 0.8129399406
5060 1 1.7035 26.1415386152 2.24962
2990 1 1.97806 33.5420386152 4.47798
7152 1 -6.71851 27.099375684 3.4355399406
7852 1 0.38194 23.865375684 2.3702399406
1733 1 3.12772 23.004375684 -0.5649600594
7382 1 -7.19333 31.8175386152 4.75027
974 1 -1.85746 24.0258386152 0.915765
5732 1 -4.05431 32.1600370688 1.7530399406
2746 1 -9.75362 28.2926772304 5.60017
7523 1 8.30668 28.4629386152 4.47219
3243 1 -8.87397 28.6893386152 3.05339
5288 1 -1.18809 32.3527386152 1.9891
2837 1 -4.36628 23.9689386152 1.71692
4984 1 2.00172 29.8540370688 -0.4057600594
5625 1 5.74757 28.2164386152 3.66386
4474 1 9.4391 30.422375684 3.1112399406
149 1 8.51717 26.6200370688 -0.1828600594
3458 1 3.78753 26.2416772304 4.08691
526 1 8.9161 24.6005386152 1.52402
108 1 -7.48017 31.2213 -0.0947864
2410 1 6.19601 23.9780370688 1.4290399406
1232 1 -4.75741 30.5740370688 -0.2218600594
7276 1 4.35455 25.500375684 -0.1092600594
7456 1 -5.86177 26.2009386152 1.09426
6296 1 4.80068 30.0099386152 -0.213229
2790 1 -2.58618 25.0466772304 5.53672
1440 1 -2.08463 27.5842386152 4.79076
3853 1 -7.17897 24.6045386152 4.67389
7821 1 -7.36853 24.745375684 -0.6110600594
6907 1 8.0377 31.728375684 1.2443399406
5887 1 0.312268 30.701375684 6.2178399406
402 1 -2.18385 31.8333386152 5.66382
5730 1 2.25408 30.9384386152 3.77391
6010 1 5.35409 23.9959386152 4.11747
4186 1 -11.0117 25.8076772304 6.03754
5703 1 5.34056 32.0147386152 1.55896
7785 1 -8.7684409857 31.5079386152 2.55268
6890 1 -4.66711 31.2074386152 4.18877
140 1 10.4095 32.2566386152 5.10182
989 1 -8.77667 29.2455386152 -1.44145
854 1 4.92008 30.7359386152 4.1648
7569 1 5.00531 32.0710386152 6.66641
2863 1 -7.87263 29.9424386152 6.78311
7475 1 2.70832 26.1846772304 6.62188
3916 1 -0.760108 33.8462386152 4.23422
2125 1 8.74875 34.2984386152 5.89746
2129 1 8.50322 31.0968386152 -1.56886
3988 1 -9.6764409857 32.8920158455 14.912
2558 1 5.10901 25.8246772304 9.72043
6920 1 -1.35418 28.5246772304 7.09067
7222 1 0.859105 27.3876772304 8.31536
2266 1 -1.58298 26.9816772304 13.1319
7474 1 5.92595 30.9286772304 10.6346
1624 1 8.53189 29.0296386152 7.17331
7286 1 -1.65722 26.7076772304 9.38731
7450 1 9.81474 26.8836772304 8.29428
6468 1 -8.02124 26.4454386152 9.3098
3625 1 -3.62125 27.6056772304 11.1298
1218 1 -5.42754 29.0781386152 7.24408
5025 1 -5.47402 26.9946772304 8.84133
6203 1 9.74892 26.9186772304 11.0309
6140 1 7.13606 26.4746772304 11.4535
164 1 -4.5644 26.6580158455 13.4759
7484 1 0.553081 26.2706772304 11.1632
370 1 6.42683 28.9560158455 12.3315
7904 1 -7.74414 29.6280158455 12.166
3503 1 -3.06153 33.2091386152 8.7718
3680 1 -8.4613 35.0788386152 12.1152
6144 1 4.3589 27.8026772304 7.97226
6179 1 5.21329 34.7170158455 14.4924
3351 1 -10.3403409857 33.2039386152 7.20238
5216 1 8.50593 32.7050158455 15.138
698 1 10.4615 29.2786772304 12.5415
3365 1 -5.19546 32.6651386152 14.0305
4205 1 3.66681 32.2016772304 11.5767
2071 1 -3.20586 30.5273386152 7.90699
2921 1 1.47426 30.6396772304 10.6131
518 1 -7.38221 32.9861386152 10.3202
6796 1 -2.94869 33.7636772304 14.6457
4102 1 -0.553056 29.3560158455 14.3422
1659 1 -6.6227 28.3230158455 14.3078
3523 1 -2.01197 35.2596772304 12.4808
3194 1 3.46806 32.5280158455 14.352
3643 1 9.98085 35.9316772304 14.2879
1031 1 -5.65418 31.2863386152 11.8005
6449 1 -9.00424 31.2846772304 8.8551
766 1 10.1933 32.7116772304 9.78383
4835 1 -0.99941 31.5136772304 11.3235
5626 1 1.46416 36.2030158455 14.692
2465 1 -0.84845 34.0282386152 10.3056
464 1 7.54066 34.3736772304 13.1466
4287 1 8.30529 30.1310158455 14.0496
1148 1 1.7042 28.5450158455 12.5343
2547 1 6.0198 29.9916772304 8.05139
4893 1 7.75695 33.0726772304 10.8565
4689 1 -5.2816 34.6245386152 9.45299
3682 1 -9.34469 28.7246772304 10.1686
1095 1 3.95376 34.8506772304 10.9567
6470 1 -10.2369409857 35.5650158455 14.386
2986 1 -5.95985 35.2666772304 13.1803
3977 1 4.23931 28.2140158455 13.6776
4335 1 -0.799049 31.9760158455 13.9762
1339 1 -3.37509 30.3709386152 10.7184
1465 1 2.48519 32.6379386152 7.09727
2040 1 10.4132 31.0650386152 7.53926
4653 1 -9.85117 31.0616772304 13.0575
834 1 2.19323 29.8566772304 8.11993
7876 1 1.79365 34.6996386152 8.90453
5454 1 1.17861 33.4620158455 15.1886
7767 1 -8.67484 24.7876772304 7.01656
6355 1 6.3909 35.1456772304 9.81798
3088 1 6.23508 34.3980386152 7.08512
6766 1 -11.0123 31.8346772304 10.6951
5768 1 -11.0649 34.4966772304 10.9815
4336 1 -4.29803 24.8196772304 7.78887
3116 1 -4.89698 30.2046772304 15.3428
6102 1 9.88236 37.1010158455 18.4599
3817 1 -9.94571 37.5070158455 22.8295
1686 1 9.4225 29.1760158455 22.8993
6669 1 -0.288079 37.1710158455 19.127
7425 1 2.78128 38.2410158455 21.743
101 1 1.49393 29.1770158455 16.2867
3117 1 6.08021 36.7800158455 19.6356
3374 1 0.211082 37.1503544607 21.8352
1707 1 6.10913 35.5960158455 23.0587
7929 1 8.67142 36.4570158455 22.2691
755 1 -5.66175 37.4570158455 21.1154
5018 1 1.79906 37.3350158455 17.3224
3555 1 -4.3778409857 35.5760158455 22.6362
5151 1 10.2133 38.8103544607 22.6636
4153 1 -9.79305 29.2273544607 21.9687
782 1 -7.11667 33.1600158455 15.8204
3363 1 3.93098 30.2220158455 15.5929
134 1 -5.20324 35.5130158455 19.0427
5843 1 -7.9230409857 29.1490158455 18.0225
4086 1 -9.9051409857 31.8870158455 22.4806
1954 1 0.246482 34.3200158455 21.5091
4240 1 0.623122 30.3910158455 18.6127
668 1 -2.48112 29.2360158455 16.2683
4928 1 -1.7614 33.2443544607 22.8332
3043 1 2.93092 33.4160158455 22.4624
3937 1 4.03382 35.6710158455 21.2593
5369 1 -5.86618 29.9340158455 21.9857
3413 1 -3.39656 33.8480158455 20.5317
7935 1 -6.95353 35.7196772304 16.8716
6717 1 2.94205 29.5610158455 20.0376
5885 1 5.61385 29.4840158455 17.5763
7703 1 10.4199 34.2790158455 22.8721
916 1 -9.73808 36.0940158455 17.1367
3103 1 -7.265 33.2880158455 19.532
4116 1 1.19492 33.0630158455 17.9352
3868 1 8.29405 35.1300158455 19.5287
5248 1 -4.37754 31.1990158455 19.8616
6703 1 -6.15984 31.2170158455 17.6321
3978 1 7.33433 33.4666772304 17.5073
3402 1 -7.25503 32.3813544607 22.059
5260 1 -8.8178 27.5780158455 15.8001
555 1 3.19959 35.0640158455 18.5272
5400 1 -2.09156 30.0470158455 18.8334
829 1 3.55182 32.3310158455 19.9286
5416 1 5.33631 31.6553544607 23.0963
2159 1 7.95772 28.7120158455 16.2741
6058 1 9.45951 32.8240158455 20.7742
1164 1 -10.4919 29.2270158455 19.2382
4578 1 -0.994284 34.5350158455 18.9491
3318 1 6.37175 31.4900158455 19.2809
7657 1 -9.8535409857 34.0760158455 19.0418
6313 1 4.21403 39.2193544607 23.8855
817 1 7.71425 30.7700158455 21.5585
3918 1 -2.90739 35.3390158455 16.9729
1957 1 5.54319 35.5927142992 17.1034399406
4441 1 -10.8971409857 29.5370158455 16.2875
6068 1 10.6527 29.4360158455 16.9289
320 1 -10.8715409857 35.6463544607 21.0753
3288 1 -6.83005 30.3906930759 27.5894
3823 1 6.38863 38.2736930759 31.0652
5242 1 -5.77995 40.0736930759 31.8308
6672 1 5.27579 37.1143544607 25.1273
7891 1 -0.0862847 36.3313544607 24.4677
5650 1 -3.20128 38.5756930759 31.7425
5228 1 0.273978 38.8550158455 25.677
4936 1 -4.40779 37.8863544607 27.625
7137 1 1.40949 33.6743544607 29.2773
7367 1 -4.18037 37.4073544607 24.7631
5986 1 7.1244 33.6916930759 30.7781
629 1 -4.93738 36.4493544607 31.9381
4418 1 6.96486 33.2953544607 24.3742
1177 1 -10.6702 38.1986930759 31.5886
7706 1 0.157147 38.0763544607 28.3863
5150 1 -2.88011 34.4613544607 28.9903
2663 1 -0.540409 34.9993544607 30.6675
1186 1 4.08793 36.8836930759 30.8969
1538 1 1.79866 34.3336930759 25.0105
7778 1 -6.94187 37.9173544607 24.7784
7177 1 8.09785 35.8576930759 27.5812
3166 1 7.23482 38.1476930759 26.6512
5600 1 -8.77328 35.6123544607 24.3842
6018 1 4.68354 34.5216930759 31.8201
1212 1 -7.2144409857 37.7816930759 28.319
4985 1 2.3346 36.2853544607 28.7929
6082 1 3.72989 35.4363544607 26.5927
7193 1 6.32032 39.6406930759 28.6279
3480 1 -2.20807 37.1946930759 29.3797
1630 1 6.21888 34.0943544607 26.8413
682 1 7.99519 36.2296930759 30.3326
7543 1 -8.88279 36.0200158455 27.1145
675 1 -8.0355409857 38.8943544607 30.7411
2805 1 -5.35276 35.6406930759 29.2876
4951 1 -10.2326409857 40.4703544607 29.8757
7874 1 1.46123 40.0843544607 29.8579
6461 1 -7.1315409857 33.9353544607 28.1392
1839 1 -9.5080409857 33.8356930759 30.1027
7407 1 2.23493 38.7686930759 32.0097
3307 1 -7.67141 40.0643544607 26.4346
4303 1 -4.51436 30.7613544607 24.1041
4998 1 8.77472 39.6813544607 25.075
7124 1 -2.57307 35.0050158455 24.8606
5102 1 9.47435 33.0413544607 25.3336
5797 1 3.20447 32.3496930759 31.121
7592 1 6.46488 31.8956930759 28.7121
5868 1 -5.70418 32.4993544607 26.037
6318 1 -7.7327409857 31.6286930759 29.6649
1189 1 -3.22241 33.0340158455 26.7202
6438 1 1.03847 32.5173544607 26.8428
1289 1 -3.28998 41.3483544607 30.7511
6833 1 -3.5223409857 31.9786930759 30.4759
6578 1 8.63294 31.0653544607 27.0169
2576 1 -1.33895 30.9743544607 26.6997
6900 1 2.64868 30.2433544607 26.809
6312 1 -3.6750409857 40.3733544607 28.1335
68 1 10.5749 35.7593544607 31.5254
3526 1 -11.1561 30.9053544607 25.0394
3096 1 10.476 40.1636930759 30.0008
7045 1 -2.06355 33.3416930759 32.312
5254 1 10.5624 35.1633544607 27.0533
2392 1 3.61813 40.6673544607 28.1039
5693 1 -1.74682 30.6643544607 23.9696
3840 1 -6.46346 34.2253544607 23.974
6862 1 9.64815 42.2456930759 34.8697
2124 1 -0.261937 42.7246930759 38.9122
3631 1 5.09339 40.7606930759 40.1523
5952 1 0.503566 42.1716930759 34.6035
6368 1 -7.3858409857 42.9966930759 39.666
6739 1 9.40213 40.1126930759 38.6697
4194 1 -10.0802 42.6360316911 39.5911
2548 1 2.64796 39.6146930759 40.7979
7810 1 5.60902 42.1166930759 36.8215
1726 1 8.29312 42.1396930759 37.1859
3232 1 -9.0678409857 42.0246930759 33.8451
4088 1 0.718324 36.7186930759 32.6956
3218 1 9.00901 33.7256930759 32.6264
2791 1 -3.80502 40.9796930759 39.0594
3420 1 -10.8698409857 40.6046930759 37.7702
4420 1 4.3995 43.4476930759 39.3425
197 1 -6.0776409857 40.8530316911 40.6276
7239 1 -7.53011 36.9366930759 32.6796
4312 1 5.25129 41.9026930759 33.7915
3607 1 4.96998 35.1896930759 34.4778
2772 1 1.28853 36.2876930759 37.1156
5118 1 -9.24579 37.4506930759 36.3755
6077 1 7.54405 37.3416930759 37.3358
1702 1 2.67504 40.6256930759 34.0704
7190 1 2.12617 38.7626930759 38.0462
6674 1 -9.54828 34.7246930759 36.7539
343 1 7.05479 38.9326930759 39.4752
2975 1 7.88152 34.5176930759 37.8633
4345 1 -2.8664 36.5236930759 35.5419
836 1 -8.2292409857 33.0046930759 34.8208
7153 1 -3.96891 34.6076930759 33.7763
2476 1 -4.19377 40.7460316911 36.2468
4515 1 2.119 35.2826930759 34.6211
3699 1 9.85274 38.4076930759 36.3166
3201 1 -6.50186 40.8166930759 34.3229
3150 1 -7.0069409857 38.1106930759 35.1528
7486 1 9.25533 33.7836930759 35.5821
2356 1 -4.8250409857 38.0606930759 36.8049
939 1 6.63356 39.4526930759 33.4631
5854 1 -2.51406 38.6540316911 38.4696
5920 1 -9.7160409857 38.2940316911 38.9731
7763 1 1.74114 34.3156930759 38.8937
4900 1 4.04584 39.7206930759 36.3404
5851 1 -0.259332 40.1180316911 37.8216
305 1 -6.9422 34.1870316911 39.4189
4548 1 -9.5228409857 35.5880316911 39.371
5026 1 -1.30298 35.2460316911 37.324
2492 1 -1.4064 38.0796930759 33.8193
1215 1 -3.02681 36.1170316911 39.6187
4400 1 9.29349 39.7006930759 34.0552
2804 1 -1.42916 40.3026930759 35.4167
7429 1 -0.625213 34.3490316911 40.1516
3252 1 5.66938 37.6866930759 35.3646
452 1 -5.7095 36.8760316911 39.1195
4282 1 1.80415 32.8276930759 33.5229
4018 1 -7.37679 38.5450316911 40.4584
376 1 6.73623 32.8836930759 34.3269
4185 1 9.60503 34.5886930759 40.0771
3261 1 -5.6781409857 32.4356930759 34.0793
1543 1 -8.9313409857 34.5366930759 32.6859
4014 1 1.90624 43.2270316911 40.5965
4868 1 -11.1571409857 38.1336930759 34.3449
4046 1 -2.98284 43.6216930759 38.577
7753 1 -0.91263 32.6446930759 36.1306
4623 1 -1.59278 41.4220316911 40.9484
5051 1 9.25894 38.2630316911 45.8536
5511 1 -4.56056 43.1920316911 44.3455
4250 1 -2.39816 39.6070316911 42.8276
5659 1 5.85152 41.4330316911 45.835
5836 1 9.0275 35.6470316911 46.1931
581 1 1.35311 44.4650316911 46.1763
628 1 2.93408 38.4590316911 46.5978
4950 1 -10.3339409857 44.1980316911 49.1326
4431 1 2.35446 41.5910316911 42.8548
6873 1 -2.3817 40.9880316911 47.1449
4631 1 -10.6166 38.3790316911 44.1009
7970 1 -9.5388409857 37.7573703063 48.2755
2442 1 3.64769 41.0850316911 47.492
5482 1 7.99191 42.8053703063 46.6044
2259 1 -6.50869 42.7240316911 48.0349
6690 1 -6.74332 39.5890316911 44.9091
5500 1 -3.45737 38.6580316911 47.8241
7120 1 7.16776 45.2350316911 47.8503
4753 1 1.69602 39.1950316911 44.219
1721 1 6.75609 38.9320316911 44.8882
3609 1 6.68269 40.7260316911 42.4875
7184 1 9.01173 41.4550316911 48.7338
7683 1 -0.757111 40.3880316911 44.9225
1802 1 -4.05031 43.1960316911 47.0357
1559 1 1.23958 37.0653703063 48.2487
99 1 1.67427 42.6520316911 48.194
2134 1 -10.4873 39.6250316911 46.6331
4989 1 9.12796 42.1230316911 42.666
7565 1 10.3436 42.5650316911 45.2181
5813 1 -8.2868409857 41.1830316911 46.4037
24 1 -7.7141409857 44.9320316911 49.136
1748 1 -0.773986 41.9880316911 49.1755
7977 1 -10.9549409857 34.5200316911 41.606
1270 1 -9.92295 42.9050316911 44.867
4547 1 -1.52498 36.8083703063 48.0321
1662 1 -2.93377 45.6190316911 47.9277
207 1 0.374801 42.8580316911 44.317
7880 1 5.20851 36.9673703063 46.325
4885 1 9.86209 38.8713703063 48.3705
1245 1 -5.31713 37.4500316911 46.1397
220 1 -2.08388 43.1940316911 43.1622
6269 1 -4.95138 40.7010316911 43.2117
3529 1 5.47307 37.3713703063 49.0625
1167 1 4.61264 42.8490316911 43.7605
1937 1 2.07301 37.1406930759 42.3174
1927 1 4.48216 35.9490316911 42.0407
7321 1 -0.131867 35.6250316911 42.4856
4031 1 -6.9859409857 35.5300316911 43.3597
4063 1 -2.66353 37.0560316911 42.2873
421 1 -8.1300409857 38.0830316911 43.1071
2139 1 6.62449 37.8670316911 42.0637
2798 1 9.08126 36.6960316911 41.9872
3505 1 -4.2173 35.6280316911 44.0623
1263 1 3.88282 35.1670316911 44.6017
6638 1 3.77662 45.1510316911 45.1809
7301 1 5.76286 44.2290316911 41.6764
7065 1 8.50272 44.3726930759 41.3252
170 1 -11.0617409857 42.4830316911 42.311
1367 1 -6.33292 45.0410316911 43.9947
4480 1 -7.82638 40.9883703063 54.3155
7449 1 -6.6179409857 44.6547089215 57.4955
1712 1 0.71342 47.8293703063 55.5609
6176 1 -8.67308 46.7073703063 53.81
6156 1 -3.17504 46.8403703063 56.6125
1837 1 6.28287 46.3763703063 56.0369
3579 1 0.972744 45.6897089215 57.1579
3497 1 5.26358 46.6913703063 53.5408
1816 1 -7.2382409857 46.0620316911 51.5428
6267 1 -11.0739 45.7993703063 57.1552
4849 1 -5.68475 47.3497089215 57.4567
2926 1 2.54483 46.1763703063 54.042
6647 1 -3.24269 45.7423703063 54.149
3372 1 -9.76125 44.3583703063 55.1008
4379 1 8.73359 47.6483703063 55.9632
2408 1 -7.94497 48.3793703063 55.8234
4233 1 -4.11668 42.8680316911 51.3943
7283 1 -10.4754 48.5957089215 56.9712
1222 1 0.416339 42.2573703063 54.8174
4506 1 -2.21665 41.1933703063 52.5924
3602 1 3.26508 39.1233703063 52.537
3123 1 1.37289 44.4463703063 52.1926
5097 1 7.74532 39.8723703063 52.294
3408 1 9.3821 43.3903703063 55.4534
4347 1 -10.4136 41.4503703063 55.4703
6005 1 6.04782 44.2303703063 52.5366
962 1 0.182291 40.4553703063 51.2417
3821 1 -1.18781 45.7320316911 52.1472
6570 1 10.3107 42.6100316911 50.8653
6325 1 -2.14877 44.2210316911 50.1119
3357 1 -8.49955 40.9483703063 51.6786
5746 1 2.11366 41.8320316911 52.6452
746 1 -6.05334 41.3613703063 50.2839
1909 1 8.41424 42.7203703063 52.8095
1117 1 -5.46219 44.6533703063 53.0089
3203 1 -3.08252 42.5373703063 57.3118
3705 1 4.22998 39.7473703063 49.9168
3516 1 0.505891 39.9783703063 56.1681
6741 1 -5.94184 38.9887089215 54.7174
98 1 6.58667 43.5747089215 55.9722
5733 1 5.80958 43.7523703063 49.7794
7792 1 5.52105 40.1333703063 53.8943
6182 1 6.39628 39.4207089215 56.5002
5702 1 7.97749 37.8393703063 50.205
242 1 -2.25148 43.1260316911 54.6748
6024 1 2.47147 43.9213703063 55.6516
5833 1 -7.06015 43.5753703063 54.9288
6970 1 -4.26212 40.1203703063 56.7495
7215 1 4.6114 42.6283703063 54.1198
4976 1 -8.0092409857 38.4703703063 50.4896
3961 1 -4.22817 39.1203703063 52.5228
366 1 6.63777 41.1970316911 50.0648
4244 1 9.71522 38.4793703063 53.6479
792 1 1.19045 37.9350316911 50.8456
1373 1 10.4238 45.8223703063 54.9079
5688 1 -5.1203409857 38.7803703063 50.0026
6662 1 -1.62496 44.9607089215 57.7908
3942 1 -1.91902 38.7243703063 56.4764
5780 1 1.33011 37.9873703063 54.3743
4108 1 6.41923 41.7717089215 58.0662
5147 1 3.00254 44.2840316911 49.9443
6769 1 3.60884 42.4947089215 57.8339
4538 1 -10.6577 40.3517089215 58.0158
2672 1 -8.4744409857 47.0027089215 60.7898
6066 1 5.11432 45.0867089215 65.5682
7314 1 -1.55911 45.1257089215 60.4358
3223 1 5.19921 47.0407089215 58.4528
1121 1 -9.86868 49.3937089215 64.6176
4707 1 -5.2260409857 48.1596718527 60.0822800594
7552 1 -8.1480409857 42.7817089215 62.4092
803 1 -4.07043 43.1617089215 65.4041
7622 1 -11.0562 40.0524718527 62.6892100594
2435 1 9.09234 49.1838718527 60.7908800594
6232 1 -7.38558 45.3557089215 62.9625
1511 1 9.1052 42.4813703063 58.2268
2708 1 8.77371 45.9447089215 63.726
6790 1 -7.83142 45.6786718527 65.7449300594
560 1 -9.04155 41.9437089215 65.0919
3422 1 3.37916 43.6997089215 64.0797
6266 1 7.80709 44.2997089215 65.5669
2176 1 -8.9928409857 45.0797089215 58.7781
5550 1 -5.01495 46.3048718527 62.2355800594
3805 1 9.85511 48.0507718527 65.4528900594
3877 1 6.38219 46.1487089215 62.3511
5092 1 0.996803 45.4027089215 63.7051
4594 1 -3.95938 43.9507089215 61.2326
2052 1 -3.72721 49.9897089215 65.4515
2155 1 -0.123387 45.6027089215 66.3585
4066 1 2.71018 46.0627089215 59.2254
2470 1 -0.999642 47.5207089215 64.2328
2274 1 5.0009 43.6597089215 61.8808
5818 1 -3.7309 47.4227089215 64.3231
6999 1 5.8648 49.5601104678 65.7521300594
6901 1 0.784858 49.5200475366 65.4451
3489 1 -10.441 47.4837089215 62.78
205 1 4.8782 47.5007718527 64.2740900594
5535 1 -7.64106 49.5377089215 60.4668
5743 1 0.282957 43.5327089215 61.8018
2802 1 -1.0041 47.6427089215 61.3832
6452 1 2.31299 48.0267089215 63.5164
1151 1 -10.3018 44.5407089215 65.5925
6501 1 -6.34622 41.6267089215 66.1642
636 1 9.4218 45.0045718527 59.5906900594
7075 1 1.55505 48.0807089215 60.8455
4037 1 2.57399 43.5107089215 60.2693
2505 1 8.27566 41.5867089215 65.021
3350 1 -1.63084 43.1797089215 66.3911
4359 1 -5.01766 45.5487104678 65.7908100594
877 1 7.52238 46.8951718527 59.9946500594
2972 1 2.68553 41.3634104678 65.2128900594
2461 1 -5.14241 39.9467089215 62.3112
6479 1 10.1705 40.7787089215 60.1499
1303 1 -0.763985 40.8347089215 62.4847
3494 1 6.21317 41.4247089215 60.8287
6972 1 -0.0250423 41.4537089215 65.1194
3271 1 8.56921 41.9187089215 62.2641
6373 1 -9.42861 42.4907089215 59.5645
3204 1 -5.3402409857 42.6767089215 59.1413
5909 1 1.11774 39.5867089215 60.8678
139 1 -6.99899 40.7573718527 60.5258500594
5446 1 10.2094 44.1367089215 62.1941
273 1 -3.21671 42.0167089215 62.8641
5789 1 2.28269 40.2067089215 58.4378
2902 1 -2.82447 49.4247089215 60.4174
6932 1 -11.1151409857 42.9407089215 61.6725
3971 1 -5.44993 39.0883703063 58.9873
5739 1 10.67 41.3077089215 66.035
3130 1 10.0363 48.8147089215 58.1963
1316 1 -10.0723 40.0250370688 0.1144399406
1542 1 8.57015 38.0183386152 -0.375784
3283 1 -3.37949 35.6741386152 0.133155
2202 1 10.4128 39.1053386152 1.37809
7061 1 -4.42623 40.3606 -1.23196
3677 1 -0.398224 42.0585386152 4.76476
574 1 -9.91661 40.8307386152 4.32085
4672 1 4.68577 38.8473 -1.3037
3890 1 -7.9960409857 38.0143 -0.0261928
5261 1 -7.27308 33.943375684 -0.7254600594
2822 1 -10.8611 35.7210370688 2.4601399406
6020 1 -1.18138 34.0403386152 -0.137935
7155 1 6.13086 37.6560370688 0.8792399406
3507 1 9.88334 38.1871386152 3.95976
6857 1 -0.224428 36.6900386152 4.17242
4096 1 2.77998 40.8901 -0.534731
3707 1 5.23651 34.8989386152 1.18802
3585 1 6.14051 41.6940370688 1.4936399406
6872 1 3.20337 35.5472386152 3.06941
2302 1 6.00153 39.4505386152 2.99007
6761 1 -2.88704 40.5536772304 5.08673
187 1 -2.7543 37.9042386152 4.34917
1821 1 7.7893 39.7341386152 5.04074
1047 1 -1.27902 40.0450370688 1.0625399406
4227 1 -5.98198 38.9547386152 1.90325
6337 1 1.2718 39.8355386152 1.71231
6565 1 -4.59119 36.1596772304 5.39606
2113 1 -8.77478 36.3359 4.09944
4000 1 -3.23882 38.1268386152 1.72339
7800 1 -9.38364 35.4481386152 -0.0428736
3543 1 3.8726590143 34.7220370688 -1.2410600594
2169 1 -6.23573 36.4685386152 3.0277
5058 1 2.87449 39.7436772304 5.69434
3002 1 -4.76672 41.3224386152 1.2452
3624 1 9.49566 35.4137386152 3.37772
563 1 -11.1417 42.8968386152 5.82815
6818 1 1.20787 37.0578386152 1.8349
6078 1 1.27093 35.4590386152 -0.418285
165 1 4.29648 37.6876772304 4.29377
5585 1 -9.3712409857 38.6196386152 5.76815
132 1 8.02824 34.4930386152 1.25186
6678 1 9.43483 35.3648386152 -0.831069
7930 1 -5.43626 34.4763386152 1.23264
4414 1 9.61592 42.3140370688 -1.1710600594
670 1 3.55089 43.9030386152 4.94767
2028 1 -2.43309 41.9722386152 2.60181
5741 1 3.52959 42.5904386152 1.49374
3361 1 0.736679 38.0766772304 6.40224
4803 1 9.96015 43.284375684 3.5026399406
2504 1 2.1736 41.7197386152 3.66864
1979 1 -5.32917 41.1906772304 5.79628
6047 1 -9.11957 42.5970386152 0.128812
6835 1 -6.85011 43.1247 1.56062
2409 1 9.0483 42.0465386152 5.63924
3322 1 -7.29808 41.1694386152 3.59655
7671 1 6.92883 42.7586984536 -1.0976600594
4208 1 7.53377 43.851375684 2.2483399406
7138 1 -1.95473 39.5421 -1.50387
161 1 2.55243 37.2626772304 8.26911
3687 1 -7.50224 40.2186772304 7.1985
1763 1 6.68266 39.0716772304 7.55576
1028 1 8.86438 46.1156772304 14.6485
1293 1 10.1275 37.0156772304 11.5697
6151 1 7.17428 36.8186772304 11.9729
3214 1 -0.759084 36.0366772304 7.99662
2233 1 -2.29793 46.4426772304 14.9114
1173 1 -6.75358 38.0787386152 8.82969
3996 1 -6.4123409857 35.9023386152 7.40994
379 1 -8.45704 37.8386772304 11.1227
1495 1 8.35129 37.2276772304 9.24566
7573 1 -0.197223 38.6671386152 11.3398
1503 1 -4.40452 38.6126772304 10.2107
3392 1 10.192 35.8846772304 7.70014
3382 1 -1.79806 38.3246386152 9.18233
654 1 3.24873 41.2196772304 10.2718
3639 1 0.217736 43.4350158455 15.2812
179 1 2.07753 45.3316772304 12.9027
3689 1 5.47731 42.3266772304 11.8991
7261 1 10.3742 43.8626772304 13.9796
4218 1 5.71098 38.4706772304 13.5973
5470 1 -10.3632 43.7346772304 8.35845
5024 1 3.49546 45.0356772304 9.15236
2467 1 -9.6541409857 41.6566772304 13.4684
2506 1 -7.12474 45.6266772304 14.4892
5914 1 4.93828 44.9080158455 12.8326
1242 1 8.14004 42.2806772304 10.7394
7057 1 1.26606 40.9390158455 14.2795
956 1 -4.51212 43.2086772304 11.5863
1311 1 -1.74674 43.0476772304 11.4647
847 1 -10.2819409857 41.1796772304 10.7453
5279 1 10.6155 39.6646772304 11.319
3254 1 1.775 43.4406772304 10.6664
816 1 -0.935535 40.8656772304 12.7956
6983 1 8.94351 40.3126772304 9.0447
6225 1 -0.426701 42.4146772304 9.1773
2681 1 -8.31253 42.0774386152 9.08462
350 1 -7.59362 39.8566772304 12.7863
1075 1 -5.11878 40.6436772304 11.9073
2563 1 2.41505 38.4996772304 10.9876
972 1 8.73306 44.5126772304 9.37405
5107 1 -6.1270409857 43.8066772304 9.57315
1277 1 -4.44931 45.0090158455 13.7047
236 1 -0.811521 40.3356772304 7.34318
6029 1 3.58524 40.3366772304 13.0707
3066 1 -0.683041 45.0486772304 13.0559
7017 1 6.108 45.7660158455 15.129
4443 1 9.46892 41.3646772304 13.1572
4665 1 -3.42349 40.3996772304 14.0329
6070 1 6.93417 41.1456772304 14.0215
7211 1 -10.9449 38.5904386152 10.1086
2324 1 4.9235 43.4216772304 7.37291
6154 1 -1.98062 44.2066772304 7.82669
647 1 -4.70324 43.6146772304 7.23179
1762 1 4.4176 40.6726772304 7.80325
2771 1 7.50722 43.8306772304 7.10368
3638 1 -0.818155 37.2556772304 13.7962
4759 1 3.60912 36.7286772304 12.8947
1845 1 -4.1262409857 42.8556772304 15.3004
6495 1 -4.29764 36.2186772304 11.3248
5649 1 -5.59046 37.4086772304 15.1792
1258 1 4.96707 36.9199386152 6.9757
7814 1 -2.85275 37.9476772304 15.5404
7632 1 -2.19822 43.2850158455 16.986
3026 1 -10.4965409857 41.4243544607 23.128
2589 1 7.01211 48.5270158455 19.971
4377 1 6.2503 38.0930158455 16.2629
4613 1 3.49247 41.2940158455 18.4552
2983 1 6.05724 40.0490158455 18.169
5366 1 -3.212 44.0820158455 19.4403
369 1 7.38035 44.6110158455 22.2665
2587 1 -1.37209 44.0170158455 21.435
5915 1 6.27563 44.2300158455 17.3113
3830 1 6.6753 45.5430158455 19.8369
6666 1 -7.1064409857 41.9980158455 19.0765
4042 1 -0.449038 41.4990158455 20.814
6557 1 -5.32614 45.9740158455 19.1093
6357 1 9.95597 43.5350158455 23.0333
2715 1 -9.0746409857 38.8120158455 17.4709
4609 1 2.33546 41.0730158455 21.0559
3230 1 -0.727634 41.2820158455 18.1492
3642 1 10.0788 39.4250158455 19.8931
3901 1 7.66915 41.9250158455 16.658
6559 1 -6.53469 42.0116772304 16.4927
7064 1 -7.58353 44.5550158455 19.5707
7461 1 9.33863 45.0110158455 19.1712
1921 1 -8.8722409857 48.0026772304 17.4263
5290 1 3.25487 43.2960158455 22.3372
6263 1 -4.7220409857 41.9430158455 20.3494
5719 1 3.6165590143 43.8460158455 17.878
720 1 3.79431 45.1660158455 20.4349
2892 1 -2.15962 38.9360158455 18.071
843 1 -9.39903 45.1410158455 17.5934
2391 1 -1.66208 46.0560158455 17.6149
6994 1 6.66668 40.2863544607 23.2009
790 1 -9.09387 45.0083544607 21.7191
212 1 -8.91115 40.1090158455 19.947
5335 1 1.17082 47.0750158455 17.6072
6825 1 10.1405 42.7180158455 17.9195
7911 1 10.0409 46.8736772304 17.1698
1078 1 1.5305 40.0950158455 16.8236
7827 1 -3.90577 39.3010158455 20.1617
7347 1 -6.24589 46.9910158455 16.6954
4159 1 2.17462 45.0946772304 15.9686
4757 1 -5.19777 41.9073544607 22.9541
7398 1 -7.75198 39.1660158455 22.2552
7183 1 -8.94908 47.6140158455 21.8589
4075 1 3.71375 38.4890158455 19.1437
1093 1 7.38081 39.2940158455 20.5834
2265 1 9.14107 37.8390158455 16.109
7995 1 -5.56028 47.3433544607 23.5138
7690 1 -2.19455 47.4860158455 20.0493
747 1 -4.83371 48.0770158455 20.8681
4029 1 4.46645 48.6353544607 23.3053
2960 1 -7.18595 39.5706772304 15.5585
6733 1 5.73734 42.7893544607 23.3859
2918 1 1.88707 46.9770158455 20.4509
4592 1 -0.321659 46.7240158455 21.9378
459 1 10.0544 40.5406772304 15.8322
2897 1 -1.63312 39.2180158455 21.8035
2237 1 -3.36903 39.9503544607 23.8105
6262 1 6.79064 46.8200158455 23.9525
2742 1 -2.47858 44.5970158455 23.8443
3741 1 -10.9915 41.6480158455 20.4148
930 1 -8.65305 43.4816772304 15.4551
5598 1 8.51141 41.9613544607 26.6753
1709 1 8.59031 49.1003544607 24.2371
3297 1 1.84262 43.1593544607 24.6217
2418 1 -6.65009 42.5053544607 30.29
5117 1 -0.430593 42.0643544607 30.3409
2105 1 -9.99611 41.1633544607 27.3324
6965 1 6.09029 43.2843544607 26.1085
787 1 -0.754531 43.1470158455 25.4737
525 1 -5.72803 42.0193544607 27.5942
7947 1 -9.7179409857 43.8493544607 26.6775
811 1 0.322471 43.6396930759 32.3665
6560 1 10.115 45.8093544607 31.8717
1798 1 -7.68428 50.6850158455 27.6109
470 1 -0.0355233 48.4600158455 24.0485
4319 1 2.51125 40.4993544607 25.6774
2217 1 -8.00079 48.3363544607 24.2842
7003 1 -1.71051 40.6863544607 25.8164
6012 1 -10.5029 48.4443544607 29.5784
1692 1 2.42527 48.2030158455 25.1043
3368 1 -4.90806 50.1373544607 30.285
4978 1 -5.07 46.5166930759 30.5478
673 1 -4.16281 48.6883544607 25.5095
2886 1 1.86386 45.2086930759 28.4949
4905 1 4.08301 43.3966930759 28.3246
1878 1 9.9457 50.5463544607 28.5267
6233 1 10.4914 43.6363544607 25.7039
7443 1 8.26821 47.7383544607 31.4
2765 1 -11.0223 47.3373544607 27.0542
4373 1 6.84797 42.8463544607 31.7427
2490 1 -6.56633 46.1483544607 28.0876
284 1 6.14222 47.6423544607 28.334
136 1 -0.644271 50.9910158455 29.6783
5781 1 3.46723 50.9823544607 31.2247
6576 1 -8.62078 46.3680158455 26.0196
4082 1 -4.86747 44.5103544607 26.7028
6522 1 2.8394 45.6660158455 25.9925
1203 1 5.57677 50.3023544607 27.7535
3065 1 5.54525 45.9283544607 26.3522
1947 1 5.60773 46.9983544607 30.9849
3099 1 -5.6299 48.8183544607 27.8309
5052 1 1.79611 49.7526930759 29.3737
6133 1 0.66799 47.1956930759 30.0199
51 1 8.82028 48.0193544607 28.681
1791 1 2.97042 50.0910158455 26.9996
2326 1 10.2626 46.1423544607 27.1906
7688 1 4.80955 44.3786930759 30.8255
1499 1 -9.3867409857 42.6003544607 31.2693
531 1 -2.06793 44.9966930759 32.3401
4405 1 -0.448728 43.7933544607 28.1383
6516 1 -2.48419 45.6490158455 27.6959
4328 1 -9.9644409857 46.0836930759 30.9212
2193 1 -2.01597 47.0543544607 25.2894
4024 1 -2.48591 49.4146930759 31.038
3329 1 -2.18045 46.7883544607 30.1131
7629 1 -4.59767 43.9076930759 31.5061
5645 1 -8.40041 44.4763544607 29.216
1663 1 -8.74432 50.3813544607 30.1058
4913 1 -8.19314 44.1223544607 24.1036
688 1 -5.35143 44.4873544607 24.0297
6469 1 8.52026 51.6143544607 30.8501
5463 1 3.97441 48.5826930759 32.3395
6658 1 8.08329 41.6023544607 29.4524
2511 1 -7.13292 49.9266930759 32.246
5023 1 1.76252 47.0933544607 32.4764
4299 1 -7.77095 41.4420158455 23.9908
4343 1 -6.77313 53.1676930759 36.5755
4011 1 -11.0197409857 47.9636930759 34.3467
493 1 -10.0138409857 53.1306930759 39.2428
4821 1 -4.13337 51.7266930759 39.5359
2775 1 8.07868 51.0786930759 37.351
4103 1 5.89044 50.5856930759 38.8954
3586 1 -6.6920409857 51.0896930759 38.4076
4175 1 -0.350111 52.0406930759 36.4955
3610 1 -8.78778 50.9136930759 40.385
2384 1 2.09914 53.7376930759 40.3848
1478 1 -10.7328 46.8660316911 40.7963
2678 1 -2.07755 51.9966930759 34.1852
1314 1 4.64444 53.0346930759 39.295
5832 1 -1.55799 50.9566930759 38.7139
7047 1 10.1771 49.5650316911 40.15
7756 1 9.36407 47.8686930759 34.7491
6725 1 0.908043 47.9236930759 40.1158
4611 1 -4.3061 47.6846930759 37.989
1915 1 -1.35535 48.1496930759 38.3888
6491 1 3.04798 47.6000316911 38.3213
2896 1 -0.637571 46.6126930759 36.2339
7034 1 6.71733 46.3546930759 35.0315
634 1 -4.39325 43.7496930759 36.2787
4876 1 -2.96951 45.7566930759 34.8927
597 1 3.18728 44.9946930759 37.3251
3192 1 -10.7584409857 45.6506930759 36.0693
7793 1 -7.0216409857 46.9776930759 37.8639
5193 1 7.47351 46.5636930759 37.721
2354 1 -2.50175 49.3796930759 33.6933
7554 1 -6.98186 49.3726930759 36.1147
7712 1 -10.3041409857 50.4526930759 35.4206
6212 1 8.33141 44.4016930759 33.6115
3874 1 3.88258 49.6496930759 36.8407
1566 1 0.689896 44.2526930759 36.6502
2428 1 1.74626 50.8116930759 35.2476
1973 1 0.197289 48.5083544607 34.3634
6230 1 -7.93541 51.3983544607 34.4905
4842 1 9.13147 49.8896930759 32.9466
3800 1 -6.30031 47.4046930759 32.7588
2759 1 5.51608 47.8216930759 39.5381
2394 1 2.8891 44.6656930759 32.8358
4540 1 -10.6958409857 49.1750316911 39.4178
2246 1 4.75815 44.4816930759 35.0814
4455 1 -9.6346409857 48.1856930759 37.1407
3443 1 -6.9169409857 44.2936930759 37.3398
6069 1 7.09866 51.0466930759 34.6643
3432 1 -0.117296 52.1890316911 40.6405
2701 1 -8.8343409857 46.6446930759 33.2151
3922 1 5.39916 48.9266930759 34.6797
4800 1 -7.97145 46.8730316911 40.4454
2053 1 9.69571 48.5316930759 37.583
7555 1 -3.79448 45.6780316911 40.0621
3062 1 -4.63476 48.1256930759 35.165
4699 1 -8.408 44.5016930759 34.9508
1184 1 8.83316 44.5126930759 38.6887
7686 1 -4.47274 49.1090316911 40.3371
6139 1 -5.9229409857 43.5936930759 33.9439
329 1 9.62151 53.2800316911 37.1017
4530 1 3.08001 52.4426930759 33.5141
17 1 -6.31631 48.5520316911 47.025
7976 1 5.3766 54.2290316911 41.7678
2399 1 -7.07055 49.0950316911 44.236
2616 1 -3.98259 51.9860316911 42.3518
591 1 -9.9534409857 55.2530316911 48.0136
2149 1 3.39835 50.7850316911 48.2341
4873 1 1.46704 54.1810316911 47.8814
3171 1 -1.88245 53.6440316911 42.4367
2226 1 9.26291 54.3650316911 47.7696
3802 1 -9.59963 48.8680316911 45.5645
2952 1 3.87646 48.2403703063 48.932
3889 1 -1.02084 50.4360316911 47.4961
523 1 7.46604 52.3210316911 47.6237
4546 1 -9.6882409857 52.2310316911 47.3473
2371 1 -7.10691 51.1870316911 47.8385
1080 1 0.0959642 49.8590316911 42.0638
6899 1 -4.23978 47.7620316911 48.8785
1497 1 3.24823 51.0600316911 45.4046
1940 1 -6.0784 51.7040316911 43.9737
3285 1 5.21665 52.6763703063 49.1313
2577 1 9.14556 49.9990316911 47.126
7216 1 -5.35317 52.8010316911 46.3384
4224 1 -8.6516409857 52.0686930759 42.7911
7518 1 1.63621 49.2770316911 44.3348
5942 1 -9.56294 54.7300316911 43.2472
6121 1 -4.7025409857 55.5860316911 48.5866
4596 1 6.94082 48.8990316911 45.6959
5804 1 5.94012 51.4540316911 45.2741
839 1 -0.52902 48.4340316911 45.7513
7576 1 6.84466 52.2780316911 42.8334
3387 1 -10.6484409857 51.3430316911 44.8455
57 1 -2.62453 49.5750316911 42.3798
1433 1 -2.69279 52.5730316911 46.8449
58 1 9.00525 53.5170316911 43.7084
2817 1 -11.0866 55.2800316911 45.4673
7092 1 2.00704 53.4920316911 45.2661
1646 1 -0.945735 53.8940316911 45.0687
1966 1 -0.803742 55.5960316911 48.2081
6554 1 0.913672 51.6983703063 48.9687
3476 1 -5.88646 55.5960316911 45.7744
4264 1 -10.6053409857 47.0390316911 49.2474
1772 1 -1.71911 45.6430316911 42.1304
3525 1 -5.05013 47.2380316911 44.7838
6629 1 -6.93598 49.1450316911 41.4831
1170 1 5.15006 46.8670316911 41.9632
5586 1 3.80952 55.1153703063 48.9029
1923 1 9.44102 46.4360316911 42.6816
4770 1 7.64306 50.1606930759 41.1336
4132 1 -8.9361409857 45.5240316911 44.797
6847 1 5.34857 47.0460316911 46.8831
6701 1 -2.60508 53.8510316911 49.4101
6476 1 -10.8773 47.0770316911 43.6836
6336 1 1.02715 45.6686930759 41.5887
1290 1 -8.4847409857 46.8190316911 47.2458
387 1 -6.2346409857 44.9760316911 41.2131
3600 1 -2.4662409857 47.4620316911 44.0601
2979 1 7.3453 48.2050316911 43.0225
2665 1 2.72379 46.9500316911 43.2868
7718 1 -0.151552 46.4360316911 47.4761
46 1 2.7822 54.7680316911 42.922
585 1 10.3134 51.5910316911 45.1173
898 1 1.78722 46.7100316911 49.4749
56 1 9.22149 46.6893703063 48.6937
7109 1 -9.39198 56.3593703063 52.5104
4236 1 -9.00497 56.0453703063 55.4471
120 1 7.43081 56.8463703063 54.0181
4851 1 4.79988 54.4627089215 57.16
5859 1 3.68315 56.8143703063 51.1186
3298 1 -5.02818 56.6317089215 57.0943
2068 1 -0.807959 56.5127089215 56.0651
4909 1 9.54588 57.8123703063 55.339
5360 1 -7.5917409857 57.5713703063 57.2506
4483 1 3.70429 58.4533703063 56.9054
4179 1 9.26078 49.1943703063 49.8218
7447 1 5.86006 56.9187089215 56.5188
3057 1 1.55843 57.8143703063 55.2794
1766 1 2.31573 55.9873703063 53.3431
6945 1 6.29743 52.4503703063 51.6741
789 1 8.00211 49.9023703063 54.5759
4702 1 7.40542 49.8700316911 51.8324
3776 1 -10.0452 54.0417089215 56.9801
5178 1 -10.474 52.2740316911 51.3786
4922 1 -1.25869 53.9903703063 55.2098
1619 1 4.92303 48.6950316911 51.5611
7116 1 3.0256 53.9393703063 55.0119
5380 1 -6.3077409857 50.6350316911 50.3588
3427 1 -3.45616 52.8263703063 53.5699
4861 1 -1.95425 55.5813703063 51.5909
4421 1 -5.39615 48.1163703063 51.3189
2680 1 -1.26738 48.6253703063 51.9956
61 1 -4.9508409857 50.6167089215 54.2339
3030 1 -3.61655 48.3933703063 53.3933
4836 1 8.1498 54.5150316911 52.5657
7615 1 10.0698 53.6023703063 54.2247
791 1 -2.90331 58.2833703063 56.1403
5215 1 -7.76163 52.2303703063 51.8811
2612 1 -1.85567 49.1223703063 55.6394
7167 1 9.2895 51.7583703063 56.0233
3506 1 -0.995176 51.0153703063 53.528
1453 1 9.21838 55.4770316911 50.2934
1361 1 4.48088 52.3183703063 53.531
6809 1 -7.55175 52.8443703063 56.0372
1853 1 -3.7298409857 51.8023703063 50.8901
4196 1 0.95092 52.0280316911 51.7635
7954 1 -5.12247 54.2533703063 55.4279
6073 1 5.79352 51.0353703063 55.6581
1868 1 0.0809126 54.3433703063 52.8696
2475 1 -3.09741 53.2497089215 57.1681
3435 1 -7.374 54.5733703063 53.6233
148 1 -4.64188 55.4883703063 52.7259
6460 1 -10.2873409857 50.0413703063 53.187
7315 1 4.46933 49.7093703063 57.7206
6837 1 -7.70296 50.6683703063 54.3999
3017 1 2.47862 49.8253703063 55.5775
6614 1 2.94844 50.1803703063 52.774
4954 1 0.934884 52.2023703063 55.4837
4736 1 -6.59153 56.1243703063 50.4555
7849 1 -5.02175 50.0793703063 56.9353
70 1 -8.7676409857 54.5470316911 50.4345
4838 1 6.99926 52.8567089215 57.6229
1820 1 1.45362 48.0133703063 51.8253
1962 1 -10.6478409857 47.6303703063 51.9824
986 1 -2.46467 50.6567089215 57.8842
7582 1 -3.68137 58.0313703063 53.6097
7982 1 0.264326 51.7387089215 58.0432
3739 1 -2.40011 49.5923703063 49.6465
6660 1 2.48137 51.0667089215 63.5221
2953 1 -5.27481 51.1741718527 63.6964200594
6947 1 -6.28729 53.4664104678 65.1239600594
5674 1 4.62979 59.8521718527 61.6316100594
7507 1 -3.67957 55.4403703063 59.0657
3632 1 3.30186 52.0451718527 61.0221600594
795 1 -8.27269 60.5831718527 63.4518300594
1887 1 -6.55693 51.7357089215 58.6337
1907 1 0.215641 54.8584718527 65.4275000594
8 1 8.48062 54.1439718527 59.8865400594
5898 1 -2.12484 56.2217089215 62.485
5956 1 2.36971 54.5666718527 61.3239400594
3768 1 6.68844 55.5230104678 63.4656000594
594 1 -2.17817 56.2032718527 65.1897400594
6628 1 -4.65798 55.2937089215 65.9928
2812 1 -10.7022 56.9898718527 64.2514100594
7004 1 -8.1944 58.0517089215 59.8816
1057 1 9.61158 58.8303703063 62.724
7237 1 -6.78502 54.2283718527 62.5087300594
2634 1 -10.8924 57.8333703063 59.7754
4225 1 -9.06759 52.8697089215 62.0395
1138 1 4.06622 55.7613703063 59.6139
6879 1 -10.8302409857 54.1657089215 63.9351
7832 1 6.97165 52.6977718527 63.7786300594
813 1 -4.35503 57.3313703063 61.0683
7191 1 -8.04153 57.7907089215 64.1769
5183 1 10.2596 56.0175718527 58.5255200594
7669 1 -6.8467 56.9433703063 61.9937
3910 1 1.60801 61.0400718527 65.4928300594
694 1 0.180362 57.7207089215 62.7635
1312 1 -0.879029 56.1523703063 58.7145
1775 1 0.0461363 53.9387089215 59.7922
6208 1 0.30056 58.2687089215 60.0979
4234 1 8.94047 55.9905104678 65.0955900594
7014 1 4.70664 51.8377089215 64.9239
4469 1 2.11318 55.9317089215 63.639
4880 1 3.08484 58.4473703063 59.6439
6185 1 6.60396 56.2051718527 60.6906900594
6084 1 -3.42221 59.8677089215 61.4381
5338 1 -0.61954 59.7203703063 64.691
6365 1 -1.48011 53.5640718527 61.8893000594
5362 1 9.67697 58.7091718527 65.7532800594
3656 1 4.35289 55.6709104678 65.0521000594
1870 1 0.15407 52.5837089215 63.962
2021 1 9.43091 52.2337104678 65.5316700594
2574 1 6.97277 58.4317089215 62.7144
646 1 6.72068 59.2127089215 65.5126
4552 1 2.19074 50.1347089215 59.2431
5917 1 7.9657 51.6017089215 61.3275
309 1 10.5136 53.1567089215 61.7654
6092 1 -10.2285 49.7737089215 59.3988
2610 1 -9.47753 52.4977089215 59.2184
4444 1 5.78262 51.3867089215 59.6184
4017 1 7.78978 57.2147089215 58.3104
3519 1 -5.18995 53.4507089215 60.1993
4685 1 -3.47159 51.7407089215 61.6747
5370 1 -6.25473 57.4854718527 66.1240600594
1861 1 -7.87191 50.5237089215 62.9847
5231 1 -1.35438 51.3403104678 65.7658000594
2488 1 -9.60522 44.9756386152 4.9123
2385 1 -6.98 49.714 1.07396
2568 1 -10.7847 44.9110386152 0.153932
2273 1 -6.57632 54.4291386152 6.86268
3445 1 7.84875 45.9855386152 5.53335
3720 1 3.13648 45.0976 0.841188
5963 1 4.35649 52.2920370688 1.0683399406
4841 1 -2.96421 46.7750386152 5.09101
545 1 5.20724 48.586 -1.30448
6814 1 -5.38306 44.53 -0.52832
7879 1 -0.773838 49.7656772304 5.21487
5980 1 -0.16483 46.5390370688 -0.9484600594
5749 1 -5.6162409857 48.3070370688 -1.0105600594
2598 1 -4.24595 47.6458386152 2.83674
5893 1 -7.39611 49.1182386152 5.4213
7510 1 -1.53209 44.5503386152 2.14056
6599 1 5.26175 46.7534386152 0.587133
2039 1 7.81935 49.3651386152 2.20045
1881 1 3.57905 49.4186772304 4.37101
2231 1 0.904097 49.3060370688 1.4571399406
1727 1 5.7745 45.3142386152 3.95338
4397 1 -7.09753 45.0167386152 3.61586
2730 1 7.15241 48.4114386152 6.30973
5900 1 -2.85998 47.6470370688 -1.2336600594
1319 1 7.58232 45.2748386152 0.0461318
7760 1 -2.22686 50.2621 -1.05152
1052 1 1.48101 48.8446386152 -1.18221
2991 1 1.08706 48.0620370688 4.0550399406
5571 1 5.42842 48.0041386152 2.99915
6541 1 0.737391 46.375375684 1.6741399406
3595 1 -6.83212 52.4224 1.68983
4143 1 -9.8182409857 49.3664386152 0.215391
3864 1 -3.40701 45.9650370688 0.6786399406
4044 1 -9.8279409857 47.8518386152 2.48915
5398 1 2.50703 51.2141 2.67643
1376 1 10.1861 46.1126772304 3.91992
1967 1 -2.93791 50.1036386152 3.50698
3324 1 -6.97979 47.8355 3.10719
6877 1 3.50297 50.9160370688 -1.1483600594
6485 1 1.39156 45.708375684 5.4385399406
3396 1 -1.41561 50.8180386152 1.33297
2362 1 8.53044 51.8030370688 -0.3561600594
5393 1 -9.5918 47.0250370688 -1.2901600594
3276 1 6.08771 54.5016386152 5.65989
3331 1 6.93575 51.9650370688 1.9471399406
2992 1 9.27668 47.0633 1.57272
5520 1 8.87849 49.7183386152 4.63661
6321 1 -0.54486 53.4490386152 1.60897
5258 1 -10.2378 53.5951 3.89747
6869 1 9.64789 52.2388386152 5.17623
7857 1 -4.53696 51.5623386152 5.31993
5547 1 -0.0842365 52.2386772304 6.05101
3294 1 -5.3905409857 45.5821386152 5.62841
6344 1 1.19751 53.2719386152 3.74712
5557 1 -9.0493409857 51.3242386152 5.15525
751 1 -6.88438 52.9988 4.38308
5298 1 -2.54105 53.3474 6.02996
7277 1 2.3151 54.0556386152 6.23132
2609 1 -9.1220409857 53.305 0.411676
2585 1 7.8203 53.7451386152 3.77527
3246 1 -10.8476409857 49.2968386152 4.71767
2186 1 -9.47374 47.2329386152 6.39626
231 1 -10.7120409857 54.8999386152 6.33098
5269 1 -4.74994 53.4710370688 0.4287399406
1912 1 -1.07977 44.7296772304 5.10168
4794 1 -8.91297 51.3620370688 -1.5770600594
5638 1 -5.01869 49.7189386152 11.5338
5906 1 -8.57665 46.7776772304 12.5064
267 1 5.06274 48.2436772304 14.7649
7824 1 -10.9331 55.8836772304 11.9445
7841 1 -2.33563 56.5456772304 15.2625
7736 1 2.35416 49.3816772304 8.50755
4645 1 4.71607 49.9248386152 6.9203
1459 1 2.8219 48.2586772304 13.0727
6330 1 4.11521 49.3176772304 10.7682
5701 1 -1.18858 46.7680386152 8.85638
460 1 8.90378 48.0616772304 12.8422
5807 1 1.45042 46.7336772304 8.05353
3515 1 8.66406 48.6872386152 8.56521
1792 1 7.84439 46.8576772304 10.5793
2171 1 -6.60264 47.2376772304 7.43529
2567 1 -10.3943409857 53.6286772304 13.7846
7406 1 -1.76477 47.0696772304 11.4761
7571 1 -5.11851 56.2196772304 13.2003
6294 1 -4.48324 46.9446772304 11.5342
5328 1 8.34608 52.9336772304 12.2681
1485 1 3.85577 51.6446772304 12.378
6105 1 0.725099 51.5396772304 8.47014
265 1 10.1671 57.1836772304 14.1717
5858 1 -1.43582 53.7221386152 11.4381
874 1 3.72186 56.1866772304 12.7774
3409 1 -2.61141 51.0846772304 11.4198
4039 1 3.35702 53.9496772304 11.2229
3242 1 -6.5209409857 50.4280158455 13.7575
4892 1 7.39872 49.8446772304 14.4737
2434 1 0.990716 53.7286772304 10.0119
7729 1 5.50329 54.1866772304 9.30194
4575 1 -6.14886 50.9656772304 9.45185
4788 1 -0.978197 49.3726772304 12.9057
7960 1 1.48398 50.6676772304 13.6885
3633 1 7.67271 52.5416772304 9.58768
5969 1 -0.536589 52.8626772304 13.9487
4750 1 -8.74469 54.9823386152 10.176
3424 1 -2.67407 53.7560386152 8.81579
3648 1 -2.60261 56.3296772304 11.8669
3212 1 8.29169 55.6086772304 12.5743
2264 1 -5.3565 53.5446386152 9.11112
4219 1 -6.35638 54.3416772304 11.5076
4386 1 5.13874 46.6566772304 10.5227
486 1 -1.98297 51.0236772304 8.77928
4942 1 6.42667 50.1372386152 9.36606
5959 1 -10.1693 51.6066772304 7.75619
2768 1 -8.88619 49.4450158455 13.5293
224 1 -6.35931 53.1276772304 13.9252
3510 1 -10.0618409857 51.4466772304 12.0962
7958 1 1.79923 55.743375684 8.3269399406
4126 1 6.21683 52.0806772304 13.7528
5845 1 9.91627 52.8236772304 7.922
1556 1 6.02777 56.2366772304 14.0447
5312 1 -8.70125 52.0906772304 9.95067
6395 1 2.19535 56.5996772304 15.0842
7710 1 -7.0485 46.3796772304 10.1013
7959 1 -9.5774409857 46.4616772304 9.12677
7303 1 -2.4407 48.6976772304 7.17792
6030 1 -4.17393 54.3476772304 15.1803
4375 1 -5.10868 49.5420386152 7.31269
1585 1 -2.37425 49.2940158455 15.1511
7015 1 -6.87022 57.0676772304 15.2638
1941 1 4.58307 52.6335386152 6.98225
417 1 -8.2749409857 54.4036772304 15.3724
5613 1 -10.3484 51.5113544607 22.6248
7765 1 6.77795 49.9290158455 22.3404
1332 1 2.89759 49.4950158455 21.1179
5040 1 -3.55643 56.0663544607 21.766
4462 1 -3.82196 50.5810158455 21.774
2388 1 -8.1733409857 51.5856772304 20.7111
3605 1 0.348155 50.1340158455 21.8548
3691 1 8.19043 55.5620158455 17.1369
5275 1 3.63134 55.2110158455 17.1661
1282 1 3.30185 48.6936772304 16.8287
4475 1 6.2266 52.8403544607 22.7069
6723 1 6.41325 52.1950158455 18.0169
252 1 -7.33019 53.1396772304 17.6285
2512 1 9.33711 49.2120158455 18.6468
1250 1 -10.3208 54.5150158455 21.9749
5745 1 1.9988 53.5620158455 20.1293
1406 1 1.07055 55.5440158455 18.1196
3279 1 -3.28783 58.3476772304 17.1954
2529 1 1.57832 51.0030158455 16.3348
3399 1 -4.97569 54.9660158455 17.6105
2939 1 -5.16636 49.2346772304 15.7528
5960 1 -1.79075 50.3360158455 19.8754
7130 1 7.41797 53.4770158455 20.229
6240 1 -0.310852 52.9690158455 17.4797
7405 1 -3.6494409857 51.6090158455 18.2169
42 1 5.96716 54.2106772304 15.857
844 1 -5.69442 52.5663544607 21.2488
352 1 -5.87491 57.6396772304 17.8154
6227 1 3.01982 55.8776772304 21.4943
1535 1 4.73912 49.8420158455 18.9036
6511 1 -0.8229409857 52.9730158455 20.2984
5606 1 -2.42453 52.2173544607 15.788
7818 1 -0.17919 55.1876772304 15.6095
3325 1 7.32311 56.1550158455 19.5989
4079 1 8.55779 50.8966772304 16.7231
4390 1 -7.55229 48.8683544607 19.7004
4749 1 -3.57754 54.0070158455 19.6711
7620 1 -0.535259 49.3816772304 17.2837
4032 1 3.45305 52.3696772304 17.8958
3527 1 4.74422 55.0400158455 23.579
5554 1 10.0295 53.2680158455 16.9336
6415 1 3.61927 51.9300158455 22.0198
7606 1 -6.12607 50.6260158455 17.9438
696 1 -9.93092 55.5416772304 17.6174
3850 1 -9.6521 53.3440158455 19.2383
1975 1 -0.0643328 52.6593544607 23.0995
2363 1 -10.7891 59.3203544607 23.6749
3341 1 -6.7365 54.2573544607 23.1609
2596 1 10.0176 56.9770158455 23.0093
6627 1 10.054 53.2090158455 20.7703
1462 1 1.17875 57.6510158455 22.4336
2168 1 4.47474 56.6730158455 19.3481
3583 1 -10.9706409857 49.2730158455 21.089
7844 1 -8.13454 56.3060158455 22.0135
6774 1 -9.5123409857 57.3100158455 19.641
7411 1 -1.6095 57.4833544607 23.0925
6894 1 0.573248 57.9450158455 19.637
7235 1 -5.76203 57.2776772304 20.6823
1893 1 9.08408 57.8520158455 20.6368
7203 1 8.52714 58.0716772304 16.1553
1565 1 -10.7266409857 49.6530158455 15.5394
5932 1 2.27536 55.6116930759 30.7399
7263 1 2.49951 53.3360158455 24.1802
5374 1 -10.4334 52.2753544607 31.2655
800 1 -8.47148 53.3853544607 25.0996
5742 1 7.69724 53.0670158455 25.1892
6361 1 -6.27037 52.9973544607 27.9133
5116 1 2.33621 52.6503544607 26.7829
5544 1 -0.359956 52.1113544607 27.2354
785 1 -4.13675 53.1513544607 26.2511
3094 1 -3.68619 50.9970158455 24.4735
996 1 9.17577 53.8706930759 32.2461
2552 1 -0.290264 59.0236930759 31.9197
3746 1 -1.1479409857 52.8413544607 31.7129
5432 1 8.05642 58.3400158455 24.5523
169 1 -4.47648 55.1163544607 24.4107
7438 1 7.25592 56.9063544607 30.3225
5588 1 5.77662 54.5983544607 28.9818
3152 1 8.88771 59.2733544607 26.9379
4436 1 5.83779 56.8960158455 25.3004
721 1 -2.98721 54.3083544607 29.8592
2969 1 -3.27548 56.6423544607 31.3951
403 1 -6.41681 59.4210158455 24.5741
141 1 -2.589 58.4810158455 25.504
3518 1 3.05243 54.8643544607 28.284
7855 1 2.5572 59.7723544607 28.8216
4551 1 5.12903 61.2593544607 29.1992
7709 1 -10.4138409857 55.2593544607 24.7404
1004 1 9.18888 56.9443544607 28.1663
6124 1 -1.8822 54.4320158455 27.3103
6910 1 -8.31358 54.6303544607 27.623
4677 1 -9.3695 50.7143544607 25.1922
5595 1 7.37993 55.2293544607 26.7808
5522 1 -1.04899 50.8100158455 24.9833
7496 1 -10.6826 56.6283544607 31.2526
3908 1 1.10422 55.7883544607 24.5693
2973 1 -4.66798 59.7563544607 30.8175
4425 1 -10.5014 54.5856930759 29.474
1457 1 -1.30201 57.0983544607 27.5303
3735 1 10.171 56.9373544607 30.7931
5549 1 -8.45785 58.1653544607 31.1113
5361 1 9.79283 61.3873544607 30.3162
5063 1 -10.1758409857 60.6383544607 27.924
568 1 -7.88162 59.0053544607 28.6889
2200 1 -5.1273409857 57.3903544607 25.8393
2967 1 4.06509 58.6053544607 26.6129
3839 1 2.22735 60.3883544607 31.5856
3216 1 -8.77531 57.6203544607 24.3922
7660 1 1.64777 56.8370158455 26.9527
6889 1 0.808436 57.6713544607 29.6224
1082 1 -2.15213 58.5403544607 29.8311
333 1 -1.48511 54.8273544607 24.4645
1794 1 -7.70048 57.1263544607 26.8918
153 1 -6.20327 61.1183544607 29.1916
1178 1 -5.19536 52.8836930759 30.2991
1740 1 6.14972 59.2540158455 31.0455
3871 1 -1.72765 61.2293544607 29.2975
2971 1 -5.87463 57.5106930759 32.134
7376 1 -6.53339 54.7226930759 32.0193
4902 1 5.80815 52.0673544607 29.9018
6697 1 10.3095 53.5773544607 25.7132
1688 1 8.015 60.7723544607 32.3103
2229 1 7.94201 50.6423544607 26.4736
2555 1 7.88033 61.3270158455 28.3188
5172 1 -9.40989 62.5013544607 32.074
1514 1 4.1822 56.5443544607 32.4442
7304 1 -3.2839 61.7556930759 39.8868
3210 1 5.05662 61.4566930759 38.6148
7375 1 3.35984 62.0443544607 36.4271
1322 1 -6.30878 62.5996930759 36.4967
4331 1 6.53017 63.6866930759 38.7587
7630 1 -5.7511409857 62.6516930759 39.2282
3316 1 -9.29826 62.5846930759 36.5888
1356 1 -2.81438 61.7366930759 35.5965
7528 1 0.188195 60.2626930759 38.3685
5612 1 9.0328 62.1043544607 38.5589
431 1 -3.91872 61.5863544607 33.0057
5757 1 -11.0525409857 54.8560316911 41.0024
5783 1 10.2854 57.4266930759 33.6321
4605 1 -10.7155 55.5856930759 33.7272
1952 1 5.36335 58.7846930759 38.3366
6272 1 -9.92643 56.1906930759 36.2654
4016 1 6.82687 55.4216930759 32.6969
6116 1 2.55126 57.8856930759 34.7571
1111 1 -4.78242 54.1410316911 38.4475
1240 1 1.09537 54.2446930759 32.7195
3756 1 0.475455 57.8916930759 39.8384
5792 1 7.81613 56.7533544607 34.8455
2043 1 -3.36498 58.0736930759 35.8043
2463 1 -2.80612 55.8416930759 37.3833
7464 1 9.75744 60.2176930759 36.678
6547 1 3.15935 58.7626930759 40.2316
3604 1 0.914432 62.2936930759 40.255
3441 1 10.2881 56.3626930759 39.4186
498 1 -0.360873 54.8516930759 36.9584
1360 1 4.2274 59.3183544607 32.9804
4401 1 2.43864 63.8966930759 38.5815
7907 1 1.58591 55.7616930759 38.5229
5803 1 5.45677 61.1143544607 34.7277
3348 1 -1.82026 57.1633544607 33.677
7209 1 -2.35403 57.9106930759 39.4263
7157 1 -8.45667 60.0883544607 33.2147
619 1 -2.50526 60.0773544607 37.5882
4521 1 7.64604 57.6806930759 39.5731
6785 1 7.94023 55.6506930759 37.4568
615 1 -8.0067 58.1816930759 36.5827
7172 1 -5.69309 54.9626930759 34.6194
6978 1 0.467675 56.0486930759 34.6633
3854 1 1.43389 60.2313544607 35.8752
4069 1 -6.12941 60.7093544607 34.579
4797 1 -8.35636 54.9136930759 38.1601
6003 1 -7.6579409857 57.4366930759 39.2917
922 1 3.79272 56.8306930759 36.9348
7921 1 -0.565718 60.9853544607 34.0182
4062 1 -5.87939 57.7936930759 34.9047
7549 1 7.12218 59.2783544607 36.017
6819 1 -9.75013 60.0356930759 35.7168
963 1 5.45851 54.5706930759 36.9586
6493 1 -3.03228 54.6746930759 34.6158
1684 1 10.31 60.1183544607 33.8052
4785 1 8.70003 60.1526930759 40.4849
6841 1 -10.3004 57.2890316911 40.2363
4772 1 -8.8601409857 53.5866930759 33.1171
1999 1 -7.53548 61.7676930759 40.9798
2579 1 -9.88755 64.0966930759 38.7743
7081 1 4.38411 64.6346930759 40.3816
947 1 -10.3025 62.5066930759 40.9224
7029 1 5.60035 53.4236930759 34.1832
3745 1 -5.85132 55.6416930759 40.5901
1467 1 10.4722 64.1356930759 39.8536
1569 1 6.50474 56.8226930759 41.8312
1863 1 -3.4846409857 58.1250316911 48.5753
1335 1 10.0449 61.3260316911 48.288
362 1 -5.58887 59.7450316911 45.6148
7788 1 -8.05894 63.6430316911 44.7647
5691 1 -6.0691 65.9650316911 48.9105
2343 1 -0.846592 61.7630316911 48.8651
5308 1 -0.081715 60.2980316911 44.6096
2458 1 3.93521 60.9560316911 46.2274
6718 1 7.92265 64.1420316911 46.4863
6822 1 1.93715 62.1310316911 44.7242
6613 1 -8.76407 60.7500316911 48.0301
911 1 6.40203 59.8610316911 45.5937
7661 1 -9.52874 58.7740316911 45.8781
7123 1 -1.18154 56.6120316911 45.7086
6858 1 -2.34617 62.0150316911 44.9567
4640 1 1.07926 64.7856930759 45.2142
1438 1 -9.7910409857 61.6090316911 45.4725
3738 1 0.605469 58.4900316911 46.4679
6668 1 -7.85263 57.0290316911 47.1576
6715 1 -7.52659 58.7170316911 43.9687
1958 1 -6.14484 63.1940316911 42.8745
4946 1 -2.86824 62.9730316911 47.3983
6974 1 10.2061 61.1950316911 44.3313
2481 1 -4.48899 61.1070316911 43.5465
5639 1 7.65319 61.9720316911 44.6882
5933 1 3.17546 65.5176930759 43.4957
40 1 7.22938 58.1230316911 47.5246
1370 1 -9.48131 60.7110316911 42.8911
7452 1 0.515055 59.3370316911 49.0012
3719 1 -5.36557 61.6570316911 47.79
5498 1 -1.17442 64.1866930759 43.8298
7764 1 4.65264 60.8320316911 48.9395
7410 1 2.78069 63.0226930759 42.1488
7739 1 -1.72857 66.9080316911 48.5502
1579 1 3.95265 63.4880316911 47.8898
1146 1 -8.26388 65.2000316911 46.9738
993 1 -10.0039 64.5236930759 42.9667
4028 1 7.12226 62.0706930759 41.9402
5902 1 6.42817 64.5550316911 48.6407
5786 1 -3.9121409857 59.3946930759 41.4363
3958 1 -7.37978 63.1580316911 48.8789
7735 1 -10.7986 65.9040316911 48.183
4875 1 1.34021 63.5550316911 49.1576
7214 1 10.4137 64.0200316911 47.4206
827 1 9.08923 56.5720316911 46.2806
4624 1 4.43472 65.7186930759 45.9016
3857 1 0.907021 65.9880316911 47.9409
4492 1 -3.0886 55.8036930759 41.355
2532 1 7.43388 60.5293703063 49.2265
7955 1 3.3006 58.2900316911 45.5324
3559 1 -3.84134 57.7870316911 45.9158
5285 1 5.15268 58.8250316911 43.1125
2686 1 0.0898582 58.5120316911 42.5204
3660 1 4.85584 56.7550316911 47.1523
1342 1 -2.5534 57.7210316911 43.2912
1951 1 8.54712 56.2340316911 43.6057
4065 1 2.58039 57.4370316911 42.8793
598 1 -7.05846 56.0620316911 43.1491
6886 1 -3.37773 65.0360316911 49.2794
2289 1 4.65086 60.9140316911 41.3364
1862 1 7.89798 64.7256930759 41.0842
3615 1 9.34583 65.4846930759 43.3103
6246 1 -7.31865 58.8220316911 49.3672
7331 1 -6.74462 59.2566930759 41.1633
3048 1 10.5251 65.8760316911 49.479
3104 1 -11.0382 61.5520316911 49.3996
7828 1 -1.33397 63.4766930759 41.1458
3831 1 3.32994 66.8523703063 54.7289
3640 1 -1.29998 57.7933703063 50.2117
290 1 6.31249 66.9610316911 52.3408
7266 1 -9.8032409857 66.6723703063 55.7031
7396 1 8.75828 66.0440316911 53.5616
6409 1 -7.78957 67.1400316911 50.7461
2847 1 9.78384 65.9593703063 56.0971
4687 1 -2.5982 67.5663703063 57.0314
4541 1 0.198882 67.3783703063 52.0358
1216 1 -11.132 68.0033703063 57.6309
7989 1 8.64872 68.2283703063 57.3847
326 1 -2.97072 65.0363703063 55.9976
1234 1 -5.86713 67.3183703063 53.0265
2292 1 2.3098 66.9820316911 50.3519
7445 1 0.811715 66.8393703063 55.8028
1609 1 6.75201 64.6490316911 54.9639
2815 1 0.523702 60.1680316911 54.0916
7095 1 -4.4718 64.8663703063 53.8227
4524 1 -2.83292 64.2080316911 51.7426
7525 1 -5.9097 61.2103703063 54.9107
3120 1 -4.77604 59.9750316911 49.9017
6295 1 -4.09784 62.4653703063 56.6562
1310 1 -8.12874 63.7153703063 51.5796
4746 1 7.46865 62.9673703063 50.5178
4026 1 -9.7370409857 61.4860316911 51.8441
5464 1 -8.39578 58.9853703063 52.0373
1532 1 -10.1703 65.6860316911 51.0001
4557 1 8.31011 58.0383703063 50.3725
3574 1 1.98918 63.4800316911 51.9137
5992 1 3.88702 65.5070316911 52.3638
6472 1 4.94526 60.5733703063 55.9128
5417 1 0.271401 61.9143703063 56.225
5779 1 4.4442 64.9443703063 56.4196
903 1 2.80241 59.3120316911 50.3648
6109 1 -2.60127 61.4863703063 51.002
3465 1 -1.51528 59.3393703063 52.5435
69 1 5.18888 60.6383703063 53.2596
6653 1 -5.7424 59.6550316911 52.6715
2438 1 -2.03586 60.7763703063 57.345
650 1 2.89193 62.5053703063 56.6504
2626 1 -8.04958 60.0333703063 56.2871
3758 1 -0.234477 64.6513703063 52.6735
908 1 2.56542 60.9610316911 52.4925
1112 1 -0.441878 64.5103703063 55.4391
7343 1 9.60346 64.2830316911 51.5425
488 1 8.42273 63.5853703063 56.7884
1631 1 7.07402 61.3483703063 57.5383
537 1 -6.93075 63.6653703063 54.1044
2560 1 -8.45472 64.2583703063 56.2952
3636 1 5.73389 63.3293703063 52.7789
2443 1 -10.6999409857 59.4313703063 55.4983
4361 1 6.04484 58.1503703063 51.99
7246 1 6.07171 67.9403703063 57.9581
3337 1 9.10325 59.4903703063 57.5161
3209 1 6.75441 67.1190316911 49.7002
5923 1 -7.81292 68.4133703063 54.5953
7742 1 4.67646 69.0153703063 55.7145
7497 1 -0.105128 68.4613703063 57.9335
2038 1 3.56731 63.1743703063 59.3109
397 1 3.24941 66.5678104678 65.1811300594
7923 1 -9.18675 66.4663703063 60.8139
1882 1 -10.1322 70.1131032375 64.1898900594
612 1 10.1407 67.1923703063 66.0321
7610 1 -9.4471409857 64.5327089215 62.6207
5985 1 -8.68873 68.8353703063 62.1835
5206 1 1.23437 65.5083703063 63.6274
2949 1 6.69681 64.2587089215 63.5755
5436 1 7.79858 68.6907089215 66.2148
6057 1 1.37913 71.5107089215 66.1551
3147 1 8.3819 64.9267089215 65.6445
1087 1 -4.87091 61.5947089215 65.6902
7142 1 0.525571 63.6437089215 65.4492
1738 1 -6.36851 69.5213703063 65.7965
4832 1 6.54451 68.9117089215 63.8642
235 1 -11.0429 62.5523703063 58.5113
7942 1 -4.99653 66.3283703063 62.6446
2661 1 -0.856589 67.6957089215 60.7512
1062 1 -1.58946 63.3793703063 63.5831
4404 1 -2.81804 61.0637089215 63.8007
3493 1 8.29517 68.9063703063 61.6294
2872 1 -5.59968 61.4713703063 60.8106
4996 1 -6.87657 64.7696718527 63.6992000594
7381 1 -2.6556 69.8733703063 60.9664
5990 1 -6.24117 68.7623703063 63.2109
5580 1 -1.97522 65.3373703063 59.8806
1755 1 -2.90952 65.7183703063 64.2978
2893 1 -4.62354 65.5977132375 60.0270400594
5106 1 2.11834 63.6663703063 61.6485
5723 1 3.61066 66.1473703063 61.1556
3993 1 5.16495 65.6523703063 58.9773
2807 1 5.29784 66.6127089215 63.3914
777 1 1.82978 68.1333703063 61.2312
6382 1 -0.851878 67.2217089215 63.5444
5474 1 2.2862 68.9270718527 63.8939200594
2630 1 7.74921 64.8743703063 59.3428
5608 1 -4.01727 68.2433703063 59.2369
4510 1 9.24159 67.1573703063 59.758
3520 1 -7.28831 65.7663703063 58.7103
906 1 4.45829 70.6847089215 64.6415
4271 1 -8.1993409857 60.7493703063 60.6997
449 1 -0.295716 69.2997089215 65.4674
573 1 3.44688 61.7167089215 63.3459
804 1 5.20273 62.7487089215 65.2231
2396 1 5.91799 61.6523703063 60.0025
1180 1 -1.25965 60.6947089215 59.9156
7704 1 -6.19747 62.2697089215 63.5686
583 1 -5.78581 63.1471432375 58.6529300594
1633 1 3.12072 64.1412104678 66.3085800594
7720 1 7.84536 62.9603703063 61.4004
7951 1 -10.529 62.2887089215 61.3003
5304 1 -0.548454 63.1923703063 60.972
7636 1 -9.7436409857 61.6454104678 65.5838400594
2981 1 5.92735 69.7073703063 60.196
7110 1 -1.54169 70.8987089215 63.4904
3455 1 10.3788 62.3097089215 61.0022
4544 1 -7.09157 65.1596718527 66.3596900594
4828 1 -4.0639 71.0643703063 66.4735
2846 1 -11.0104 65.6417089215 64.6251
3469 1 -8.2782409857 62.0993703063 58.1661
2684 1 20.2254 15.4733772304 5.34072
5163 1 24.9424 19.1954386152 3.90688
1552 1 32.0807 14.019375684 1.3099399406
5039 1 26.1669 19.387375684 -0.4755600594
883 1 20.3192 18.7156386152 -0.816296
4118 1 28.5183 15.184375684 4.0890399406
6903 1 21.011 22.4396772304 6.55099
4726 1 31.5323 20.7395386152 2.49001
5029 1 29.8773 15.3413386152 0.1578
7645 1 11.1652 14.7261386152 0.0663024
2251 1 20.3376 14.8410386152 1.17965
6201 1 17.6639 19.4380386152 4.42949
4131 1 21.7883 17.0911386152 0.868185
4136 1 14.5613 20.5258386152 1.59767
3319 1 12.2445 18.863375684 1.6754399406
640 1 26.4288 17.7566386152 1.93996
6587 1 14.6409 15.8953772304 4.15554
1549 1 15.9028 21.2546772304 3.94124
1065 1 12.3893 17.6967386152 4.21022
278 1 29.0204 17.224375684 2.3142399406
2539 1 18.9614 12.9314386152 -0.301373
3454 1 22.9042 21.3564386152 0.961661
7179 1 22.235 19.148375684 2.8138399406
7325 1 18.4738 15.0868386152 3.26107
3025 1 14.0329 15.2109386152 -0.270946
4005 1 32.1373 22.5045386152 4.65137
7165 1 25.8934 15.3834386152 5.02467
3502 1 25.0652 21.6354386152 5.04869
3415 1 18.7368 20.5806772304 0.38484
5435 1 25.819 15.310375684 0.8178399406
7390 1 21.8608 17.8246772304 5.27799
7628 1 19.6192 20.3538386152 2.96458
4191 1 30.4553 20.3176386152 -0.00489229
7163 1 16.3573 16.7066772304 0.279434
5014 1 30.5929 18.8057386152 4.13178
7459 1 16.7467 17.2368386152 3.06966
230 1 32.0612 16.6173386152 5.22547
2462 1 25.6087 21.872375684 0.7289399406
3923 1 16.2237 13.5165386152 3.35108
423 1 24.5682 14.2086386152 3.08553
2325 1 12.2009 17.343375684 -0.7108600594
7111 1 12.7541 19.0236772304 6.62403
3262 1 28.0825 21.536375684 -0.8240600594
2350 1 23.9154 16.3816386152 -0.756521
729 1 13.2598 22.9069386152 1.24991
4284 1 16.3401 19.359375684 0.0113399406
4189 1 24.5015 17.582375684 6.1899399406
6633 1 28.9185 18.0946386152 -0.556523
7290 1 27.6948 13.8510386152 -0.417054
797 1 31.3856 14.3955772304 3.85938
6442 1 26.7557 22.4610386152 3.11179
7713 1 14.2689 15.2129772304 6.71672
7899 1 14.6008 12.932375684 1.1654399406
1386 1 19.6216 23.0429386152 3.98563
3275 1 11.8971 23.0796772304 5.36178
7771 1 23.0174 23.3628386152 4.86348
4055 1 13.9553 21.2647142992 5.7196399406
1622 1 29.3432 22.7885386152 2.53438
7249 1 29.7111 20.5466772304 6.33281
935 1 17.9558 15.2492772304 -1.39435
1885 1 22.1582 13.2856772304 2.42337
7659 1 29.8224 23.9006772304 4.98627
658 1 28.8387 15.9480772304 6.86326
2055 1 28.1418 22.857375684 6.8557399406
5620 1 16.6585 26.5330158455 15.0253
7362 1 31.476 16.0396772304 12.0234
3843 1 21.86 16.0686772304 9.76718
168 1 26.5026 14.5095772304 7.73099
5006 1 18.4123 15.3230158455 7.33493
3844 1 28.506 18.5766772304 7.71588
6765 1 14.5656 17.7050158455 8.31519
2657 1 13.2828 16.8630158455 12.5703
6770 1 17.9508 17.3036772304 12.7074
3394 1 23.6277 15.3530772304 7.89521
3416 1 17.3205 17.5946772304 8.27844
7031 1 26.8447 18.0836772304 10.7901
2515 1 21.1055 19.7766772304 7.20451
4337 1 21.3079 18.8926772304 9.91583
771 1 17.2562 21.6536772304 8.68638
7364 1 17.1382 25.4996772304 11.6481
1519 1 31.2867 24.7546772304 9.76115
3591 1 25.87 21.7696772304 7.79858
7380 1 25.9325 18.4210158455 13.4762
6306 1 29.3562 23.2506772304 13.2834
3237 1 22.4077 23.9776772304 8.32666
5601 1 28.6596 25.5930158455 14.4764
4608 1 17.8417 21.1266772304 11.2011
2175 1 11.387 24.8936772304 11.6915
3986 1 25.0952 22.1016772304 12.243
1165 1 14.033 19.9056772304 9.98797
84 1 18.6801 23.8036772304 7.63679
6277 1 21.2262 21.1800158455 14.0152
4060 1 13.1277 24.1636772304 9.52202
846 1 23.1704 18.2446772304 13.2498
7784 1 27.7996 22.0487142992 11.1821399406
7631 1 30.4808 18.5986772304 12.8089
2696 1 27.2073 15.5196772304 10.257
5447 1 18.6507 18.6936772304 10.4638
3963 1 15.2152 21.8216772304 14.824
3000 1 18.3847 24.6570158455 14.0543
6250 1 15.373 20.7590158455 12.285
714 1 28.7518 24.0218386152 9.31793
1625 1 19.5306 18.9170158455 14.475
5840 1 15.0321 23.6026772304 11.8513
1187 1 14.5456 21.9446772304 8.26356
4070 1 15.5003 18.2306772304 13.3482
2764 1 31.7829 23.6886772304 12.3101
672 1 13.8633 15.7951772304 10.1223
3653 1 19.758 22.7316772304 12.3682
395 1 29.0123 19.6976772304 10.3276
5924 1 14.5817 24.6770158455 14.557
6 1 12.0292 25.8396772304 14.1378
7413 1 22.7433 20.5636772304 11.7907
4525 1 24.571 24.3480158455 13.8331
7090 1 21.1761 24.3956772304 10.7462
7999 1 25.9759 20.9416772304 14.8804
900 1 11.0018 23.1166772304 7.94954
6184 1 11.2499 20.0886772304 10.7448
7802 1 31.6711 19.9636772304 9.6381
7481 1 26.2549 26.4730158455 13.9922
5104 1 24.8097 23.3246772304 9.70863
1914 1 25.729 19.0356772304 8.24213
2597 1 20.6569 25.9570158455 14.7012
6756 1 32.2574 21.118375684 7.0307399406
5376 1 29.3528 18.7490158455 15.3333
2592 1 23.0861 15.7360158455 12.2568
4741 1 28.7182 21.4660158455 15.269
6737 1 10.9372 18.1720158455 13.0173
6585 1 10.8345 19.7860158455 15.2423
6609 1 22.6974 26.1106772304 12.7147
7791 1 10.8266 20.1776772304 8.05266
6940 1 32.1839 26.7270158455 15.415
6075 1 18.2971 19.7986772304 7.05454
3121 1 17.4867 26.4720158455 23.2848
1960 1 13.6726 27.3300158455 17.7944
7968 1 21.2779 20.0006930759 21.5358
7733 1 19.1795 20.6466930759 23.4472
4537 1 15.5805 17.7500158455 16.18
1834 1 21.948 18.1720158455 15.7801
3173 1 23.3506 20.8646930759 23.0077
6356 1 17.5091 22.8720158455 16.1598
2127 1 26.2277 18.6260158455 17.9335
7460 1 25.2022 25.6670158455 18.1092
869 1 30.3209 23.4030158455 21.0676
2913 1 25.08 24.2640158455 21.5292
7156 1 20.349 21.6263544607 19.3657
741 1 15.5431 23.6203544607 22.0415
4889 1 30.1205 22.8100158455 17.2621
3553 1 25.2791 19.7813544607 21.2786
2823 1 27.3317 19.5523544607 22.9346
4195 1 13.0099 21.0926772304 16.1956
4332 1 31.2068 25.5350158455 19.5777
5682 1 17.8319 20.1210158455 18.7585
6713 1 29.5937 19.1953544607 21.472
1504 1 11.4521 24.4543544607 22.0196
2830 1 28.3015 22.1850158455 19.2773
7547 1 11.2564 20.7643544607 21.0725
4567 1 25.4665 22.0970158455 19.7766
5964 1 13.307 18.6630158455 17.5585
1414 1 20.0258 24.2733544607 20.4156
5004 1 17.4997 25.2820158455 20.7422
4735 1 31.485 20.9883544607 21.5733
7837 1 14.2567 24.5443544607 17.4001
728 1 16.4611 23.5930158455 18.7123
5011 1 20.7971 24.3633544607 22.9986
1324 1 27.7718 24.9880158455 18.7876
6636 1 28.6028 19.5273544607 18.9221
7979 1 23.3465 23.4966930759 23.492
3546 1 24.6218 20.9660158455 17.3175
7160 1 24.2445 23.6300158455 16.484
4992 1 21.9308 20.2820158455 17.5127
7997 1 29.9391 25.7113544607 17.03
3145 1 15.9863 21.3200158455 20.5673
3284 1 13.6613 19.7123544607 20.1161
2281 1 30.8456 18.4710158455 17.6305
1221 1 17.2282 20.0370158455 16.0385
5976 1 11.9125 23.1660158455 17.5858
1996 1 28.9375 23.8803544607 23.3298
3240 1 16.7604 19.6473544607 22.7222
7099 1 21.6819 24.5410158455 16.7209
6111 1 12.8639 22.1306930759 23.083
6076 1 20.2278 22.1830158455 16.4455
2035 1 11.0517 26.8310158455 17.7569
7227 1 21.4897 26.0790158455 18.8658
2845 1 13.7049 25.8550158455 22.085
372 1 22.736 27.2483544607 22.964
5213 1 27.165 25.8293544607 22.3949
1395 1 30.5793 27.8303544607 20.7575
3340 1 17.2998 27.7603544607 19.7997
1056 1 23.6901 26.4700158455 20.3356
3637 1 28.0704 27.2123544607 20.2317
6187 1 31.1411 27.9376930759 23.3831
2849 1 14.6691 27.8523544607 20.4269
1422 1 27.1291 17.1065772304 15.8631
4710 1 16.616 28.9823544607 23.9442
1844 1 20.1239 26.8956930759 23.9297
7641 1 13.8723 27.9383544607 23.9644
7419 1 15.557 21.5456930759 24.0948
1675 1 20.4154 20.5146930759 27.7893
909 1 30.1489 20.8873544607 25.9694
6753 1 21.7438 22.8446930759 27.3231
215 1 18.357 21.9406930759 28.9809
5627 1 15.6923 21.1776930759 28.6638
6253 1 27.8872 21.7136930759 24.7361
2877 1 30.0754 22.8413544607 28.1107
4184 1 25.9649 22.3116930759 26.6484
5194 1 10.8786 27.2943544607 28.2552
2774 1 12.0011 21.2486930759 25.5918
680 1 32.0404 26.5586930759 28.9855
3983 1 24.3959 22.3776930759 32.1924
1214 1 13.249 26.6193544607 26.3944
4280 1 23.1771 19.3676930759 25.1593
539 1 24.7137 20.0613544607 27.3744
3577 1 19.4592 29.7236930759 27.4013
6734 1 32.0817 21.0696930759 29.2012
1678 1 26.7659 27.6736930759 31.3566
7680 1 23.9523 25.4046930759 28.7705
2230 1 16.5938 24.2833544607 24.5886
1811 1 30.6597 30.2136930759 31.2762
295 1 19.9366 26.9716930759 26.8372
6530 1 29.3689 29.4623544607 27.1936
2639 1 15.4137 25.0673544607 26.9499
1210 1 19.9601 30.3246930759 31.2563
1107 1 24.0793 26.7606930759 25.2733
588 1 26.5265 26.0576930759 28.963
3470 1 28.0412 27.0656930759 27.0258
3761 1 24.6931 29.6126930759 31.0301
7562 1 13.5487 28.4486930759 28.5583
6055 1 13.4916 29.0056930759 31.2779
3037 1 27.0543 22.4633544607 31.5815
6968 1 15.1538 24.3176930759 31.6018
3140 1 20.0491 22.9206930759 31.0028
765 1 26.7694 27.2183544607 24.7135
5079 1 22.0376 28.3756930759 30.8697
7494 1 19.0635 23.1483544607 24.5644
2994 1 16.3557 28.6376930759 28.6617
4652 1 31.3423 26.7686930759 31.9376
3582 1 23.8906 24.0346930759 26.1719
6596 1 23.6019 29.2046930759 26.523
2705 1 31.6779 29.2346930759 28.8899
2690 1 31.285 24.2823544607 30.4848
7269 1 30.2976 25.3286930759 27.098
2729 1 27.3097 23.3116930759 29.0475
448 1 17.3241 25.9566930759 31.1528
663 1 14.5169 20.2006930759 26.3696
5392 1 22.6383 23.0606930759 30.056
2622 1 11.7614 23.5833544607 29.409
1327 1 30.7867 25.3993544607 24.4043
2728 1 22.2134 27.4706930759 28.2035
1119 1 19.3303 24.1496930759 27.2949
3260 1 17.2767 29.9456930759 30.8464
2881 1 14.3906 23.6506930759 29.0846
7468 1 17.5196 26.1476930759 28.3887
529 1 10.7086 25.4033544607 26.0847
7687 1 10.9808 22.1106930759 31.4218
6457 1 19.4929 25.1616930759 32.4586
2824 1 32.1674 21.2236930759 24.2543
2493 1 15.9729 28.1236930759 32.4173
244 1 20.24 31.9016930759 33.5934
475 1 25.9077 31.9120316911 40.1398
7544 1 22.4038 32.1126930759 37.1578
5534 1 13.321 31.8456930759 36.3893
6059 1 21.4053 30.3956930759 39.1896
6385 1 30.1767 31.7236930759 39.1325
1720 1 18.3237 31.8366930759 37.6834
3661 1 13.3941 33.1236930759 38.882
924 1 14.4501 30.9440316911 40.1825
4716 1 17.8423 31.5816930759 34.9185
4664 1 24.6789 30.6136930759 38.0269
1318 1 27.9363 24.2846930759 33.4501
7 1 14.5542 26.5136930759 38.4886
6096 1 12.9508 21.5256930759 33.2215
3228 1 23.2746 28.3150316911 39.0948
7257 1 32.1465 25.5416930759 35.288
1697 1 11.0753 25.4750316911 38.9695
5306 1 21.8138 26.3426930759 32.8239
7328 1 17.5586 33.2636930759 39.7953
1489 1 32.1669 28.2766930759 35.7295
1869 1 10.7066 31.3926930759 35.8622
7605 1 18.5759 25.0746930759 35.0473
1734 1 13.9322 23.7400316911 34.9054
7768 1 26.7327 23.4420316911 39.6897
274 1 20.2637 24.2650316911 37.0277
4666 1 21.3484 26.6900316911 40.3404
3090 1 22.9168 23.9536930759 36.5926
7973 1 27.0155 25.7310316911 38.0841
6604 1 19.3291 26.4450316911 38.5138
4602 1 16.4446 23.5296930759 36.0699
1617 1 29.3396 27.1980316911 38.6252
4457 1 10.9642 27.2066930759 36.8868
7016 1 27.6672 23.6666930759 36.0597
1551 1 23.6938 24.6136930759 33.8215
1257 1 25.5991 27.1240316911 40.0956
4805 1 31.6349 21.8396930759 33.9086
2122 1 11.3901 32.5896930759 40.9014
4614 1 23.4179 26.8346930759 36.7966
6025 1 19.0711 27.7366930759 36.0124
1931 1 25.8963 26.2096930759 33.6212
4207 1 29.0702 29.9546930759 34.9391
1424 1 14.1372 26.1726930759 33.53
2901 1 26.3795 30.3026930759 35.7133
894 1 31.8709 32.6606930759 37.3302
1118 1 16.9554 25.5130316911 39.7604
336 1 30.5733 24.3456930759 33.3568
5143 1 13.533 27.2130316911 35.9898
3075 1 30.991 25.2080316911 39.6415
949 1 14.9349 29.4756930759 36.4878
863 1 30.1723 29.4806930759 37.3486
1313 1 16.0571 29.0626930759 38.9762
6244 1 24.6618 30.8346930759 33.6
4021 1 25.9694 27.4896930759 36.0203
7914 1 16.9887 28.9896930759 34.7967
5448 1 12.809 27.1560316911 40.5033
5816 1 21.6616 27.8716930759 35.0371
5835 1 18.7627 29.3036930759 38.4856
2900 1 13.1819 24.0976930759 37.5806
1415 1 22.2149 30.6056930759 34.8208
7169 1 32.3873 30.0406930759 33.4406
4778 1 11.7587 27.2416930759 32.627
7337 1 27.8403 33.3546930759 39.0538
1246 1 26.8631 29.4250316911 40.9789
4717 1 15.6528 21.6956930759 32.5676
6224 1 22.2858 24.1530316911 40.9856
5637 1 29.1535 28.3096930759 32.6936
1219 1 24.7193 27.1593703063 47.8398
2767 1 19.7249 29.8300316911 46.7908
6642 1 30.7137 28.5293703063 47.6956
2638 1 14.3135 30.6080316911 48.1488
2413 1 25.6433 28.9560316911 43.3561
1249 1 23.9281 30.0683703063 48.2269
3102 1 27.5135 29.7190316911 45.5152
4338 1 18.1563 31.2610316911 45.0528
609 1 16.3914 29.3660316911 44.0639
13 1 31.2887 33.0553703063 48.0243
4229 1 13.339 27.5450316911 46.6296
7809 1 23.0183 29.8300316911 43.5491
7585 1 14.0681 29.8840316911 45.3391
5028 1 21.7714 31.5400316911 47.2678
2859 1 11.9392 27.7730316911 48.9608
6112 1 30.2538 30.3480316911 45.2552
5676 1 31.152 29.3830316911 42.6631
2840 1 21.2223 28.4163703063 45.0514
2321 1 12.2437 29.7946930759 41.4292
3018 1 17.2191 33.6650316911 46.8333
6168 1 26.0264 31.5730316911 46.8984
5713 1 15.0395 33.3300316911 48.6263
331 1 23.5387 34.3830316911 43.8444
3714 1 21.3397 33.9583703063 48.4437
3126 1 30.6639 25.1333703063 44.2728
6649 1 23.7178 33.2946930759 41.2905
6981 1 27.0052 27.1233703063 46.1763
5873 1 15.9352 33.1600316911 44.2881
4174 1 23.7665 32.0310316911 45.2503
5894 1 27.2218 34.1753703063 46.3845
480 1 13.3106 32.6440316911 45.2771
1888 1 19.34 32.1680316911 42.6603
4751 1 18.6494 29.5330316911 41.3095
243 1 29.8356 33.1580316911 45.6128
2984 1 24.9597 24.6610316911 41.5767
5879 1 16.5765 31.4950316911 41.9647
2810 1 11.7479 30.6060316911 49.3924
4960 1 13.3053 35.3860316911 47.8816
7040 1 11.5376 29.4900316911 44.0446
2985 1 21.8779 31.3850316911 41.7345
4107 1 20.4563 26.3153703063 48.9572
5542 1 27.1015 35.6380316911 48.9336
1783 1 12.0208 33.9480316911 43.2656
1227 1 18.2143 27.6673703063 48.0375
948 1 15.431 26.2893703063 47.9003
3856 1 10.7101 34.6700316911 48.2204
7831 1 30.8612 33.8210316911 43.1249
7062 1 18.6806 33.4013703063 49.1693
332 1 32.3083 25.9430316911 42.1024
6772 1 11.2392 32.2470316911 47.1259
6386 1 26.234 26.2250316911 43.5916
5925 1 16.3977 27.7750316911 41.6277
7483 1 22.1586 26.3440316911 46.7299
1307 1 14.1627 26.1620316911 42.6248
5186 1 20.1626 27.5910316911 42.5246
5857 1 17.0636 27.0773703063 45.5518
2726 1 29.5739 26.2440316911 46.6648
5082 1 12.5682 25.7220316911 44.7316
4532 1 18.7859 25.6600316911 43.8979
6353 1 28.7155 25.6810316911 42.3965
5413 1 29.2317 28.1430316911 41.1898
1658 1 31.5771 31.7976930759 41.4662
4115 1 18.9335 30.6970316911 49.2998
6967 1 25.0569 33.4420316911 48.8479
7371 1 23.3486 35.9823703063 57.4083
6611 1 13.4228 36.8613703063 52.2205
5568 1 29.5584 30.3241104678 55.6088600594
5776 1 22.9279 29.9457089215 53.9333
5662 1 32.3508 36.1113703063 51.9477
6142 1 25.3941 38.0233703063 57.3616
6686 1 29.4365 35.9457089215 52.738
4700 1 27.7523 37.0257089215 56.4427
3100 1 21.2227 37.8157089215 57.44
5946 1 15.6109 35.3883703063 55.9446
2762 1 25.6337 36.6243703063 53.3752
5496 1 19.2487 35.9493703063 53.3643
5007 1 24.9965 29.9537089215 55.7595
7865 1 18.6618 27.8897089215 54.7008
2224 1 13.4419 38.6097089215 57.8445
3764 1 32.0956 35.9737089215 56.5024
6883 1 27.8897 34.2907089215 56.4291
4023 1 14.6304 29.0053703063 52.7509
424 1 31.7197 33.2223703063 52.7124
2118 1 13.0876 31.8597089215 57.0729
2212 1 25.3843 28.6223703063 50.4445
5882 1 23.3259 31.8277089215 57.0198
1661 1 30.5271 34.4647089215 54.9236
6271 1 31.3375 28.7207089215 52.149
7455 1 27.6879 28.6827089215 51.9997
5354 1 16.5833 30.8110316911 51.9069
6757 1 15.4021 27.0113703063 50.7668
1283 1 14.3206 34.4457089215 53.5575
277 1 17.9925 35.2260316911 51.1291
5950 1 18.1552 34.4303703063 55.6488
2717 1 21.6526 34.6403703063 53.2403
6141 1 23.4198 34.1123703063 55.3774
1251 1 25.9595 34.1387089215 54.3848
1090 1 22.449 31.9603703063 52.0509
5513 1 24.7368 31.4063703063 50.6719
3697 1 30.158 32.3433703063 50.4177
3463 1 14.2686 28.3007089215 55.5009
3835 1 15.7361 33.4923703063 51.3537
1849 1 22.9585 34.4343703063 50.4867
4413 1 18.1814 31.7637089215 55.8737
89 1 18.7343 30.5083703063 53.5003
3508 1 23.7999 27.8883703063 52.4688
6665 1 12.8033 32.3857089215 54.3867
222 1 20.4608 31.2047089215 57.6292
1573 1 15.7229 30.4607089215 56.8256
4783 1 29.7803 29.6257089215 50.211
7626 1 31.9035 30.7927089215 53.9912
1840 1 20.507 30.2683703063 51.4663
5281 1 12.3975 30.6047089215 52.1531
1463 1 26.6269 32.3583703063 52.4462
2179 1 12.2997 29.1857089215 57.5331
4864 1 27.1946 30.3077089215 54.0875
7527 1 28.0921 34.1083703063 51.0307
7897 1 21.4427 27.7097089215 51.1853
1099 1 21.0862 29.0777089215 55.9023
5526 1 22.9114 36.9413703063 53.3712
1408 1 10.7542 34.1573703063 54.2267
5434 1 15.319 38.0633703063 55.9937
2724 1 10.7939 36.2343703063 52.4936
5548 1 19.178 35.7017089215 57.9286
1933 1 29.4534 31.4167089215 58.0255
7901 1 18.58 38.5407089215 58.0473
4679 1 16.4411 29.4753703063 49.5701
7860 1 27.9798 40.1217089215 64.7547
2291 1 22.0564 38.7299104678 65.6511300594
4109 1 10.9935 39.0756104678 64.2313900594
1058 1 10.8106 33.3807089215 60.5976
2060 1 20.5201 33.6037089215 59.1719
1809 1 25.7986 38.6030475366 63.8354
3161 1 16.7895 35.4227089215 59.4403
5863 1 31.1428 38.0580475366 61.8968
7903 1 26.4645 31.4090475366 65.6997
793 1 24.7537 31.0567089215 61.64
1363 1 11.9468 31.8826104678 64.9524200594
3186 1 12.5204 36.0417089215 58.554
4545 1 22.6888 29.7090475366 62.6018
4346 1 25.679 37.0987089215 61.4756
6675 1 29.6572 32.2827089215 63.6452
7766 1 23.07 34.2397089215 59.7722
2861 1 21.2409 35.1557089215 63.6205
7551 1 13.5329 35.5137089215 63.1484
5019 1 19.3059 36.0067089215 65.4683
7344 1 13.3404 33.1877089215 61.5775
1344 1 29.0127 36.2570475366 65.0471
7937 1 14.0087 33.5694104678 65.3328500594
7599 1 30.3109 38.6800475366 64.2916
5087 1 19.9036 33.2607089215 61.9169
1248 1 25.2691 33.0600475366 63.4776
4313 1 17.2727 33.5337089215 62.3635
3896 1 27.7706 34.2827104678 63.3771200594
3930 1 23.2196 33.7400475366 65.3063
467 1 18.8532 39.1537089215 62.2657
7112 1 30.8141 34.0177089215 65.6361
1800 1 23.7299 35.0967089215 62.1754
5401 1 29.8316 36.4867089215 60.0229
943 1 17.5939 37.4807089215 64.0441
1272 1 23.1743 38.6167089215 61.3791
919 1 16.7977 38.2417089215 60.256
3395 1 15.7409 38.7207089215 65.5682
3373 1 24.4452 37.5997089215 65.9688
4780 1 16.502 32.7691104678 64.7813700594
29 1 27.542 35.0860475366 60.8747
1224 1 11.8647 36.7653703063 61.124
3744 1 27.2701 33.1907089215 58.7985
2227 1 16.2668 36.0457089215 62.2073
6148 1 29.0947 38.5507089215 58.5508
5566 1 13.2253 37.5237089215 65.097
6451 1 21.21 37.9137089215 63.1518
2367 1 16.6711 30.0797089215 59.3575
6126 1 19.3754 29.6127089215 59.599
2651 1 32.2513 39.3020475366 66.1367
5171 1 12.743 30.6777089215 62.6477
6257 1 20.2004 30.5507089215 62.1212
5043 1 24.7715 32.1547089215 59.2286
1443 1 31.9338 32.2057089215 59.0214
2706 1 31.7746 31.8557089215 61.9094
4020 1 31.9612 34.9417089215 58.9371
6089 1 15.7505 32.6147089215 60.2754
1671 1 26.537 38.9497089215 59.7014
2871 1 28.4552 29.1547089215 59.3403
7966 1 26.8642 29.3727089215 61.523
6904 1 23.7159 31.3450475366 66.532
1705 1 12.1219 39.5347089215 61.6011
810 1 14.5408 34.1597089215 58.1489
4491 1 16.6828 30.1393386152 5.43723
5223 1 25.4912 32.1848386152 -0.333619
4471 1 19.7269 27.251375684 4.1171399406
5358 1 10.8283 27.7518 -0.61862
2017 1 23.944 29.2786386152 3.98371
2936 1 18.0294 25.9204386152 2.62154
2571 1 28.2082 26.5610386152 1.89158
4564 1 26.5418 30.2323386152 4.60047
7945 1 19.9144 29.9079386152 3.36212
6973 1 16.763 25.4796772304 6.60415
6562 1 15.4872 27.0686386152 2.02364
1098 1 26.5671 25.2866772304 6.03138
4448 1 30.0663 31.9917386152 -0.40355
285 1 19.8177 24.9910370688 0.9066399406
3775 1 28.9301 24.1020386152 -1.45974
6417 1 17.4694 31.0302386152 2.98536
2928 1 28.7856 28.730375684 3.6200399406
2727 1 16.9249 23.9688386152 4.24851
2826 1 13.3281 31.196375684 1.4243399406
5536 1 29.8782 26.6452386152 5.18521
7164 1 29.7776 29.4725386152 0.82024
6309 1 26.1989 25.211375684 3.1942399406
2008 1 30.0518 24.7694386152 0.890188
2221 1 25.1962 29.472375684 -0.4446600594
4955 1 21.8156 22.2590370688 -1.4218600594
7399 1 15.3164 26.4650370688 -0.7858600594
4742 1 13.3059 28.0345386152 3.34894
1985 1 29.1502 32.5861386152 6.05552
2469 1 27.5639 27.9077386152 -0.499227
401 1 30.4474 30.4646772304 5.13063
5065 1 19.7664 27.4191386152 -0.708436
213 1 16.8633 31.1200386152 -1.22107
495 1 20.9635 29.469375684 0.7611399406
7226 1 15.6836 29.7778386152 1.01342
1751 1 11.5294 29.1970370688 1.7241399406
6948 1 19.4127 22.939375684 -0.7144600594
1194 1 24.5547 24.356375684 -0.3422600594
7540 1 23.4734 28.499375684 1.2562399406
5773 1 14.3457 24.5492386152 3.11744
763 1 23.6163 25.7132386152 1.89935
6624 1 13.9646 30.1102386152 5.03268
709 1 20.9587 32.170375684 -0.1338600594
142 1 12.2487 25.7596772304 4.46392
1391 1 18.0024 27.8436772304 6.19203
2472 1 32.2772 28.4582386152 0.186978
1550 1 12.9375 32.4433386152 3.8978
3716 1 22.5566 26.9315386152 4.26905
6867 1 21.9022 23.570375684 2.3947399406
2275 1 14.1432 23.8740370688 -1.1239600594
3069 1 25.1332 34.2576772304 6.09762
5738 1 23.4737 33.4836386152 3.91573
7750 1 27.0652 33.0557386152 4.30775
2916 1 21.9673 31.1496386152 4.75182
3816 1 23.8287 25.5980386152 6.53744
7985 1 26.7343 25.5140370688 -1.5404600594
6845 1 31.2318 33.1674386152 1.74528
3401 1 14.5659 34.1756772304 5.36407
2997 1 32.486 31.469375684 3.4891399406
4870 1 23.1821 32.3838386152 -1.5608
1326 1 32.1572 32.2076772304 10.1745
1851 1 28.0295 27.3786772304 7.39497
2842 1 27.1594 26.1496772304 9.68281
3698 1 15.3211 28.1386772304 10.1352
3451 1 28.6034 31.6636772304 14.153
5736 1 12.5613 29.5486772304 7.29632
371 1 30.2174 28.7236772304 8.47022
4731 1 23.8566 27.8696772304 8.11329
5283 1 26.4575 28.1156772304 11.7142
5815 1 19.3722 27.9781386152 8.60192
6891 1 14.5864 26.1068386152 8.31688
4688 1 18.9011 25.5926772304 9.55112
4829 1 32.0395 27.2916772304 9.73752
6957 1 20.8358 32.7940158455 15.1925
4738 1 25.8175 31.4146772304 9.0274
4758 1 20.1458 30.1636772304 14.3197
767 1 29.9213 34.2236772304 13.682
1375 1 22.5739 28.7406772304 13.5707
1444 1 17.0827 32.8516772304 11.5389
3482 1 19.3803 33.3256772304 8.30126
3594 1 12.3053 26.8184386152 7.06244
4307 1 25.3211 30.7666772304 11.7953
1447 1 24.4223 26.2626772304 10.4107
2831 1 29.9118 30.7886772304 10.1807
3309 1 22.697 30.4496772304 11.5324
1175 1 17.314 31.5506772304 7.84691
2836 1 17.6617 29.5946772304 9.71408
4980 1 16.2315 28.0506772304 12.6795
6610 1 12.7026 33.3926772304 12.8837
4226 1 14.3874 34.3956772304 8.10524
595 1 12.0958 28.6050158455 14.7093
6120 1 30.3288 27.5536772304 13.4933
7503 1 21.5039 31.757375684 7.3937399406
4705 1 27.7039 35.2116772304 12.4445
1970 1 11.6599 31.2396772304 11.3119
1160 1 18.0124 30.3707142992 12.6061399406
1674 1 23.071 35.0416772304 12.3004
1856 1 14.6486 29.5886772304 14.2617
5890 1 21.7485 29.5456772304 8.97873
234 1 15.4111 32.4156772304 9.50986
7478 1 19.5095 34.1586772304 11.0563
5114 1 25.3421 34.9526772304 13.8825
7975 1 28.01 35.0277386152 9.78144
7946 1 12.0402 34.8056772304 9.35719
4754 1 31.5871 34.5336772304 11.2785
6839 1 21.4602 32.8046772304 12.4027
293 1 28.7559 29.5676772304 12.3195
7170 1 15.1047 32.3550158455 13.3697
6804 1 32.0397 32.4256772304 14.7145
1797 1 28.2201 32.5006772304 8.88661
2057 1 23.8486 32.9886772304 8.13023
7070 1 13.7305 30.2396772304 9.69224
4183 1 26.0601 32.2146772304 13.8971
65 1 11.1521 33.3936772304 15.0485
7568 1 26.0541 29.3606772304 7.16632
4182 1 23.4354 35.2386772304 9.60139
1676 1 12.7439 35.8936772304 11.7803
5221 1 32.3942 28.5306772304 12.0104
2141 1 32.3332 29.5536772304 6.96804
4914 1 11.1059 31.3390158455 19.1064
2205 1 26.6556 29.6870158455 20.9475
938 1 15.257 34.4380158455 21.3858
7815 1 23.5931 29.3786772304 16.2278
5707 1 23.074 34.0080158455 23.8121
5936 1 14.9512 32.3280158455 17.5817
6327 1 28.3434 28.1410158455 17.5031
5103 1 19.3212 29.4533544607 23.1462
4850 1 31.6206 32.5203544607 21.6835
7600 1 28.3136 35.2360158455 17.3354
7356 1 18.2955 34.5083544607 18.5521
964 1 29.3442 30.6680158455 16.6254
5806 1 13.2837 30.3610158455 20.8389
5 1 23.8369 29.3983544607 20.3501
1220 1 21.7987 32.2203544607 22.102
5503 1 25.3069 31.7950158455 19.3419
7950 1 19.0576 32.1656772304 22.407
4937 1 15.6824 32.0510158455 20.2929
425 1 12.1722 29.8333544607 23.1574
3974 1 12.0471 35.7583544607 18.7858
3397 1 22.6966 32.9540158455 19.5222
6688 1 26.2592 33.7660158455 21.3637
5017 1 16.3718 31.6060158455 22.9456
80 1 31.3456 30.3883544607 19.8064
3570 1 18.5943 31.9670158455 19.6846
6564 1 28.7156 31.2830158455 19.9865
225 1 21.7219 28.9300158455 18.3986
873 1 17.4462 27.9980158455 17.0656
3074 1 20.7989 31.6620158455 17.8904
3159 1 12.3971 37.3453544607 23.5461
6580 1 12.2588 33.4210158455 17.5626
4288 1 26.1649 36.4066772304 16.2126
1473 1 22.7757 35.2700158455 18.0378
7424 1 27.0538 29.7840158455 23.7729
3960 1 22.9271 29.9500158455 22.9137
690 1 29.0699 33.6020158455 21.6448
6648 1 23.3621 33.9410158455 15.7394
5128 1 15.1165 29.4996772304 16.8564
358 1 25.2262 31.8156772304 16.4966
3268 1 19.997 28.1800158455 16.1127
7990 1 25.7274 27.6840158455 16.4303
2533 1 27.7024 32.5140158455 17.7326
3686 1 19.4372 29.2993544607 20.3731
973 1 18.6955 34.3730158455 15.8002
7174 1 14.9107 36.3446772304 15.4704
1048 1 30.4601 36.2456772304 15.7793
253 1 16.4452 38.4243544607 21.5652
1286 1 30.3703 35.1093544607 23.7224
705 1 19.0187 38.5103544607 22.5886
5387 1 22.9105 36.3463544607 22.4708
5174 1 31.5849 36.1660158455 21.359
2423 1 25.0459 36.2450158455 20.7384
5591 1 20.2385 36.2280158455 21.6347
6481 1 29.0158 36.0303544607 20.0368
3829 1 12.7451 35.3750158455 21.4029
6220 1 32.4396 38.3280158455 23.1852
5581 1 19.0317 34.6043544607 23.5046
3671 1 20.3285 36.2633544607 18.9454
341 1 31.2094 37.8030158455 19.0191
3310 1 27.1922 37.7943544607 21.4055
181 1 16.4703 36.2640158455 19.8726
2595 1 24.595 37.3590158455 18.2729
7670 1 14.3813 36.9846772304 18.1589
2645 1 19.4127 37.0496772304 15.6532
5405 1 32.1605 30.9610158455 17.1508
1530 1 14.7587 38.6773544607 23.7599
1758 1 28.6047 37.2923544607 23.8512
1015 1 16.4704 35.1443544607 23.7845
7113 1 15.9696 33.8400158455 15.4738
7655 1 31.1047 41.5306930759 31.4855
968 1 16.8919 30.1226930759 26.4202
5149 1 12.1064 38.9666930759 28.2492
966 1 25.2418 38.8283544607 25.444
6074 1 29.8367 30.1193544607 24.5395
4013 1 18.532 38.7023544607 25.3707
6376 1 26.3198 36.2983544607 25.0955
1255 1 29.0872 32.4136930759 30.661
3929 1 22.6833 38.1963544607 24.6234
845 1 27.073 36.0796930759 27.7393
7236 1 21.1988 38.7786930759 28.8134
6670 1 27.0063 36.4066930759 31.8472
2783 1 20.793 37.4983544607 26.5083
1470 1 31.0966 38.9576930759 32.2896
1597 1 25.416 40.0296930759 27.9425
255 1 19.7229 38.0436930759 31.1241
3122 1 19.7599 34.9896930759 26.1687
1679 1 29.2077 37.8643544607 28.5054
3177 1 13.6232 37.0816930759 29.4723
1133 1 31.0367 34.5206930759 30.8101
6450 1 29.5579 37.0966930759 31.0733
3170 1 14.088 32.7906930759 29.3804
7432 1 12.0919 34.8696930759 29.3059
4669 1 31.2047 33.9426930759 26.214
2007 1 16.5223 32.7446930759 31.0224
6909 1 23.9876 38.6106930759 29.7747
7840 1 17.5469 34.6623544607 27.642
1890 1 16.1973 37.1223544607 25.5447
7701 1 12.432 34.8410158455 25.0171
7583 1 23.198 34.4786930759 30.5156
7482 1 16.2143 36.9223544607 28.2938
5033 1 18.7411 33.7446930759 29.9598
2096 1 17.2862 38.8286930759 30.248
5084 1 28.2541 40.3753544607 28.6198
2605 1 20.6771 35.4566930759 31.1183
840 1 25.0166 30.5756930759 28.5147
6192 1 25.2584 36.1726930759 29.7785
12 1 31.5086 38.0493544607 26.9976
1021 1 11.0145 37.8423544607 25.9458
4472 1 23.4222 40.0836930759 32.0706
6157 1 30.0456 39.2903544607 24.7608
1864 1 20.4268 31.7806930759 29.0188
2466 1 23.1194 32.7286930759 28.444
4232 1 31.8637 31.9963544607 24.4367
3995 1 21.2105 30.3313544607 25.1817
5577 1 21.8335 32.9610158455 26.0466
5453 1 12.2301 31.9903544607 25.1345
1765 1 14.8718 33.1593544607 24.6353
457 1 13.7816 37.5196930759 32.1598
7882 1 27.657 31.4006930759 28.2955
2923 1 28.3426 33.8153544607 26.8419
5690 1 12.5832 30.9573544607 27.7485
2998 1 12.9044 31.7996930759 31.6842
2064 1 15.8454 32.5923544607 27.0399
4912 1 24.7659 31.0126930759 24.7156
4168 1 11.1011 38.6356930759 32.1736
1823 1 28.2513 32.5886930759 24.3106
3495 1 16.4285 41.5626930759 31.3132
512 1 32.4924 33.4276930759 28.7014
1515 1 25.7444 33.6600158455 24.1436
7472 1 31.0997 43.2596930759 39.9513
2833 1 22.8446 42.9500316911 40.1123
6054 1 25.6961 37.4946930759 40.9461
6375 1 19.9432 41.6176930759 34.3747
3188 1 26.992 32.9566930759 36.5298
5724 1 28.4541 42.7306930759 40.0846
3036 1 19.0365 37.6810316911 39.7484
7514 1 32.1202 36.6386930759 40.0952
3406 1 27.4671 40.6636930759 38.1043
7804 1 17.4794 42.1920316911 38.0738
762 1 15.5937 40.4896930759 39.3142
6707 1 23.5491 42.8246930759 37.4768
4769 1 12.1746 42.6036930759 36.2112
933 1 27.4021 41.7766930759 33.573
5381 1 31.4545 38.9426930759 38.729
1420 1 24.5275 34.1166930759 36.8282
2191 1 32.3331 34.3206930759 33.1916
5061 1 12.9009 37.6056930759 39.9357
2600 1 21.4163 38.9060316911 40.2146
4450 1 20.2255 33.8796930759 37.422
3274 1 16.2896 33.4396930759 33.5932
5540 1 11.7741 35.4636930759 38.6162
7221 1 13.7169 32.9836930759 33.9556
2925 1 27.9111 36.1426930759 39.8923
5480 1 19.8 36.0146930759 35.6567
3789 1 28.9994 40.9326930759 35.6959
2935 1 15.9442 36.4506930759 36.9178
2776 1 19.7791 35.0350316911 39.9692
4812 1 12.5195 35.3296930759 33.5848
7861 1 28.5921 37.1846930759 35.6836
6616 1 13.2932 40.0256930759 33.4752
3127 1 28.8136 34.3076930759 34.8716
1717 1 24.2819 36.3796930759 38.5657
3818 1 12.4042 39.7336930759 36.2213
2164 1 18.4385 37.9856930759 37.0295
4790 1 21.2415 34.4626930759 33.6671
867 1 22.4219 35.4926930759 40.5012
2117 1 14.2463 38.4926930759 37.7907
4100 1 16.1338 40.2116930759 33.744
7617 1 31.1706 36.0126930759 35.235
7780 1 30.7719 38.8246930759 35.0038
4598 1 26.1546 37.4236930759 34.2446
6689 1 21.09 39.3196930759 33.2251
4019 1 28.837 38.1896930759 38.2776
4555 1 11.0399 36.0046930759 35.9755
7186 1 25.3017 40.0896930759 34.2285
6803 1 23.0153 38.5036930759 37.7719
3814 1 18.0209 40.4896930759 35.8398
6931 1 23.8027 35.4716930759 34.5663
7305 1 15.4359 34.7566930759 38.9754
6113 1 17.0616 35.8606930759 34.5453
752 1 21.9583 37.5930316911 35.4285
551 1 24.6957 40.4246930759 36.9872
4559 1 24.6968 33.5496930759 32.6378
3305 1 16.3433 37.6836930759 32.702
5457 1 32.3896 40.9440316911 40.4522
3528 1 26.5676 40.3940316911 40.9167
5296 1 10.7815 40.7010316911 40.8718
3549 1 27.4319 33.7246930759 32.556
256 1 16.6958 38.6650316911 40.986
984 1 18.3817 42.6046930759 40.7655
4607 1 30.7691 32.2626930759 34.761
5249 1 13.5616 41.6520316911 40.9914
2977 1 19.0759 45.2720316911 44.5586
3663 1 30.7074 38.1606930759 43.7985
3282 1 20.0771 38.9040316911 44.2691
7621 1 25.3981 37.6240316911 49.1156
38 1 13.6042 39.9660316911 46.3428
4639 1 20.4553 36.0080316911 46.7154
5687 1 24.867 42.3906930759 42.0787
7435 1 17.8121 39.8380316911 48.4162
708 1 16.8585 43.8670316911 49.262
2987 1 21.3283 36.2430316911 43.9126
6268 1 28.5953 41.4480316911 42.7538
3565 1 29.9586 43.7916930759 43.9763
2196 1 27.6107 41.5710316911 48.2902
1616 1 28.1541 39.2430316911 44.58
5120 1 23.7489 40.1330316911 43.3568
7859 1 16.3151 40.3030316911 46.1245
1787 1 25.6351 40.1190316911 45.4014
7572 1 24.5139 37.9170316911 46.5057
6778 1 16.0219 42.0326930759 42.5473
5839 1 12.9761 42.6540316911 46.0096
677 1 21.154 43.0760316911 48.1436
6329 1 29.3728 37.3390316911 48.6177
678 1 17.4232 39.5870316911 43.4916
4633 1 32.126 40.5010316911 46.9003
4897 1 21.284 41.3740316911 43.9353
7071 1 29.378 39.8050316911 47.0684
905 1 12.6001 39.4050316911 48.9145
3156 1 20.7997 40.3740316911 48.5307
2736 1 17.1912 42.9760316911 46.6582
2677 1 27.0772 43.6630316911 43.7531
7908 1 31.2876 40.7006930759 42.9
14 1 23.4678 44.0560316911 47.0728
2974 1 26.1297 42.8683703063 46.3224
6103 1 13.0608 44.6780316911 48.0764
2261 1 23.0966 43.4890316911 44.2804
2509 1 27.6254 45.0260316911 47.2863
4091 1 15.2984 43.7656930759 44.6889
1094 1 19.7372 42.8700316911 45.6492
967 1 21.6094 38.4803703063 46.777
2447 1 30.0067 36.0896930759 41.891
4202 1 19.2514 34.8676930759 42.7734
1088 1 13.1256 36.3810316911 43.2064
276 1 10.826 45.2986930759 44.5973
2278 1 11.305 38.3446930759 42.2049
616 1 17.8542 36.3643703063 47.1043
4712 1 25.5355 35.8890316911 44.9274
2484 1 32.2664 42.4000316911 45.0307
3225 1 20.8328 41.4466930759 41.1735
1390 1 13.1555 44.6140316911 43.1695
3779 1 23.1373 37.6530316911 42.1869
3692 1 27.4337 36.9930316911 43.2739
3925 1 16.6286 35.4000316911 43.1364
7761 1 13.6927 37.0390316911 45.7782
3679 1 16.3367 37.4140316911 45.1235
3183 1 11.2541 39.8170316911 44.7593
6175 1 14.9922 36.3696930759 41.13
6677 1 23.2491 46.3730316911 48.6606
3834 1 31.1215 35.8240316911 47.4655
1672 1 32.3512 36.7180316911 45.3576
589 1 13.7612 42.9393703063 56.4446
7423 1 17.0451 37.4500316911 49.6899
3153 1 16.2133 45.5850316911 54.1544
2551 1 24.9411 46.4533703063 52.3765
4247 1 18.4604 46.9593703063 53.4298
2785 1 27.2721 44.9403703063 55.9891
7223 1 31.2979 46.2853703063 53.8716
4910 1 28.6159 46.5863703063 54.1078
7178 1 31.5626 45.6813703063 56.632
251 1 19.6392 47.4093703063 55.8588
4827 1 11.9576 46.1193703063 52.5088
1494 1 14.939 46.9443703063 56.1565
6331 1 12.6929 45.3443703063 56.3123
5562 1 24.7365 46.0773703063 56.4507
676 1 16.7273 38.9923703063 52.0175
3227 1 32.4746 40.9647089215 56.9878
7146 1 20.8185 40.8713703063 53.0791
5770 1 14.573 42.3413703063 52.0019
2932 1 31.414 44.0983703063 50.1107
5725 1 15.4886 41.5063703063 54.5878
5404 1 27.6779 38.1943703063 53.8233
4360 1 28.7674 42.3407089215 56.5332
6985 1 27.1127 42.7943703063 54.0516
639 1 21.748 38.8453703063 54.8714
102 1 31.7051 38.7237089215 55.6941
7168 1 11.4427 41.5343703063 55.7894
2366 1 28.5777 39.7260316911 51.6903
2502 1 31.1578 43.1393703063 55.8065
7069 1 29.0574 39.6703703063 55.762
5321 1 12.5213 40.9823703063 51.1494
3581 1 18.7928 42.3143703063 52.0168
413 1 11.7829 40.1373703063 53.6299
357 1 17.9422 42.5063703063 56.964
1651 1 21.9908 43.3173703063 53.7337
1913 1 30.5278 38.0323703063 50.8951
888 1 19.9563 44.5767089215 55.5207
5185 1 24.196 40.0453703063 55.9074
2106 1 29.2969 42.1863703063 52.3184
3438 1 24.5883 41.2443703063 51.4505
6363 1 17.5612 39.8637089215 55.7962
7906 1 27.7599 45.9933703063 51.5394
1561 1 16.6119 41.3563703063 50.5556
2252 1 31.6861 43.6893703063 53.0075
7777 1 24.7291 43.7023703063 52.7232
6343 1 22.1506 39.8703703063 50.8346
1547 1 14.4651 38.9773703063 53.6273
5826 1 20.6148 45.4183703063 52.2561
7091 1 14.3706 44.9703703063 52.1677
7586 1 22.6296 44.1233703063 56.4308
7338 1 17.5301 43.2763703063 54.3001
3326 1 18.9257 38.6623703063 53.8038
5943 1 25.7632 40.3613703063 53.8005
4172 1 23.4123 41.8493703063 57.7328
7101 1 28.5582 43.6723703063 49.8207
3875 1 26.4355 39.9373703063 50.0177
6241 1 23.0855 37.2403703063 50.47
2503 1 19.5543 44.3100316911 49.9864
2395 1 11.0154 45.1850316911 50.1321
6754 1 10.8489 39.4617089215 57.6733
3400 1 14.1954 37.2523703063 49.7056
1536 1 15.054 45.7890316911 49.606
2883 1 22.5247 47.0843703063 51.2661
3869 1 14.1637 50.2036104678 65.6359500594
2667 1 17.9435 42.5107089215 65.2401
1875 1 22.8917 44.1773718527 60.9969500594
7588 1 16.5983 49.4387104678 64.2073400594
2044 1 22.9683 46.7367089215 61.9688
6802 1 12.7586 45.2157089215 66.2522
645 1 17.7037 45.2375104678 66.0975900594
7717 1 27.5198 42.2367089215 63.1791
2449 1 12.3122 48.6221718527 64.4953400594
4286 1 11.2984 46.3297089215 58.3513
5412 1 27.977 47.2719718527 65.0005900594
7217 1 13.0804 44.4567089215 62.0785
1713 1 32.2872 42.6217089215 62.6898
2995 1 15.2979 41.4377089215 65.2465
3809 1 20.5982 46.7797089215 63.3279
1832 1 16.633 46.7887089215 64.0703
5744 1 22.9986 49.7440104678 64.4616500594
3616 1 25.5647 46.7037089215 63.5591
15 1 13.8552 46.3337089215 63.8513
4382 1 12.9853 46.6227089215 60.3939
4120 1 21.7107 45.7350718527 65.6759000594
4164 1 19.3752 41.7614718527 63.1611000594
604 1 22.1683 42.4247089215 63.1669
263 1 18.2927 45.9507089215 61.9118
3314 1 22.2552 39.6987089215 58.897
4877 1 23.8327 47.3797104678 65.4902700594
4105 1 22.3681 48.2305104678 59.6694600594
116 1 11.8406 43.3247089215 64.5094
2166 1 26.6696 46.8747089215 60.7296
6896 1 21.1909 44.4863703063 58.7853
5347 1 14.6194 39.8547089215 60.0606
6402 1 22.9967 43.3770475366 65.4901
1271 1 29.9831 43.1850475366 64.1852
1924 1 27.2169 45.0687089215 58.8033
2508 1 24.9911 43.3557089215 59.3969
7254 1 30.0603 45.9480475366 63.8567
1900 1 27.7753 49.9377104678 64.3650200594
4895 1 17.7205 43.3457089215 61.4197
7984 1 30.6455 43.9977718527 60.7853100594
1114 1 15.3721 46.4657089215 58.8611
6650 1 25.5933 44.0287089215 64.3543
2260 1 20.2057 47.0787089215 58.6165
6041 1 19.4256 51.0007104678 65.8294000594
6130 1 24.9954 47.7727089215 58.6238
2076 1 11.7381 48.6522104678 61.7601400594
1208 1 17.796 47.5657089215 59.7464
825 1 20.1345 49.5240475366 63.7487
3715 1 31.2215 49.0306104678 61.2019700594
5901 1 29.5548 46.6627089215 61.1127
706 1 15.0377 42.6027089215 60.8641
6989 1 28.7009 42.5867089215 59.2488
1601 1 27.2543 49.4777089215 61.5273
4580 1 13.5686 41.4237089215 63.1127
3193 1 24.3809 40.7397089215 62.5776
3657 1 31.9099 50.9013104678 65.7243900594
7312 1 30.8004 40.7687089215 59.2317
6936 1 26.4787 41.4034104678 60.7694300594
876 1 19.2402 42.6903703063 59.2934
3780 1 19.78 40.0987089215 59.8624
687 1 15.6186 43.5833703063 58.3082
3353 1 29.5179 46.6743703063 58.3102
6219 1 30.4133 50.4965104678 63.4571800594
5820 1 32.3946 40.4130475366 61.2687
1230 1 32.4727 45.1157089215 59.2327
6322 1 17.1642 37.6200386152 3.37799
5307 1 22.8886 42.0623386152 1.04123
7108 1 18.729 38.7810386152 5.30377
7495 1 12.426 35.5594386152 -0.0490195
6654 1 10.7139 41.7966386152 1.30855
6507 1 28.7153 36.2127386152 5.01714
2337 1 13.9276 40.421375684 -0.5782600594
6786 1 25.1475 36.321375684 1.0906399406
5605 1 19.5424 36.2510386152 -0.353401
536 1 30.1761 38.7947386152 2.15597
5062 1 21.5551 38.0088386152 -0.397602
5440 1 19.7469 44.0276386152 6.66782
4058 1 11.9859 34.803375684 2.5532399406
7673 1 26.1506 40.8637386152 4.16361
7816 1 19.063 40.0086386152 1.5152
5844 1 29.3933 36.5130386152 1.1234
6413 1 24.8446 38.5502386152 4.96344
7271 1 15.1875 36.4547386152 -0.443788
7972 1 14.5082 38.5474386152 3.39684
6876 1 21.7433 39.4678386152 1.9087
4570 1 29.454 41.4131 1.22737
113 1 20.2543 34.322375684 1.3875399406
1534 1 27.1463 37.9427386152 0.0955843
5673 1 26.4958 36.8826772304 6.27587
4081 1 30.0645 38.6325386152 4.80819
2924 1 17.0306 35.0308386152 4.33552
1879 1 20.8521 42.4642386152 -0.730364
802 1 18.0075 40.9879386152 3.72133
592 1 23.4928 37.5177386152 2.90754
731 1 17.4036 37.8205386152 0.613726
3345 1 23.9902 37.112375684 -1.3136600594
440 1 20.3484 36.5656772304 5.87911
830 1 25.5251 33.7073386152 1.93881
3808 1 16.6057 40.0681386152 -0.885066
564 1 29.0091 34.4079386152 2.78822
1102 1 13.133 38.178375684 1.0849399406
4558 1 13.1166 36.3786772304 4.37741
7624 1 20.9906 40.2980386152 5.95803
669 1 21.6221 35.5073386152 3.58266
5653 1 31.5738 36.287375684 -0.6861600594
1656 1 26.786 40.339375684 1.4009399406
3623 1 25.1172 41.5480386152 -0.500723
969 1 16.5923 33.8949386152 -0.47819
489 1 31.7007 41.2360370688 -0.7378600594
232 1 11.5789 37.8132386152 6.03133
570 1 28.5046 40.7625386152 5.57931
3342 1 15.2005 41.1561386152 4.25511
2180 1 24.1144 43.7406772304 6.77163
7365 1 21.7487 41.848375684 3.7313399406
4326 1 19.3874 43.3064386152 4.11531
1723 1 13.1769 42.7569386152 0.767855
2722 1 14.2664 43.3783386152 3.11088
3945 1 18.1762 42.2845 0.0756202
3806 1 24.3364 42.964375684 4.1694399406
6602 1 30.0441 42.444375684 3.9170399406
3728 1 17.702 33.5806772304 2.04024
4258 1 30.6131 34.9146772304 6.45731
3957 1 12.5448 44.5660386152 4.73795
3498 1 13.7966 33.0473 -0.518343
5383 1 18.1597 35.1845386152 6.76549
2777 1 30.2004 44.9466772304 6.89217
1429 1 22.0888 37.1576772304 8.17416
7820 1 25.5278 38.6626772304 10.9651
7905 1 14.9061 37.4586772304 10.799
4839 1 21.0119 38.4986772304 10.1266
2919 1 26.7316 44.4386772304 7.2072
7252 1 19.4822 36.9076772304 11.7382
3044 1 30.2268 38.6946772304 8.90119
7553 1 16.4002 36.4236772304 8.59722
712 1 25.7928 36.4376772304 9.13401
6935 1 17.1217 38.9436772304 7.5691
292 1 32.2915 42.3266772304 10.8778
6223 1 27.5308 38.0776772304 12.6432
6371 1 27.7674 39.1353386152 7.61357
1769 1 30.5716 35.9396772304 9.06606
7076 1 14.501 46.0586772304 12.4171
6543 1 12.6799 39.6966772304 7.70507
950 1 17.7964 41.1563386152 11.746
3849 1 15.3236 43.2746772304 8.04509
1621 1 18.8347 46.6076772304 14.7037
5085 1 19.4181 43.2416772304 10.4801
2279 1 25.7982 42.8046772304 12.4244
7471 1 29.802 42.3086772304 12.0149
3827 1 12.6464 43.6286772304 7.45704
2022 1 11.414 44.9876772304 9.33595
5672 1 13.2569 39.6866772304 10.3846
6817 1 21.8363 39.6356772304 13.9227
5623 1 21.4537 36.8536772304 13.7136
998 1 26.6807 45.1116772304 9.88009
6710 1 17.7346 44.6446772304 8.4365
5266 1 27.7054 42.6087386152 10.3411
703 1 13.9456 41.8466772304 15.0168
3277 1 24.9502 46.8976772304 13.8154
4406 1 27.0088 45.3036772304 12.6942
3627 1 31.2429 41.2846772304 8.55911
3597 1 26.1676 40.5706772304 9.21101
2788 1 22.8241 46.3700158455 12.327
794 1 21.3546 43.7470158455 12.743
3032 1 23.8416 45.3386772304 10.1008
7372 1 25.9567 41.2176772304 14.8557
5057 1 16.7912 45.8586772304 10.8029
5951 1 17.0503 38.0196772304 14.8251
4426 1 15.9021 43.0086772304 10.985
6832 1 23.39 42.5386772304 11.1415
4787 1 13.6942 42.0060158455 12.1938
1009 1 12.3035 44.3380386152 11.8817
5944 1 19.7551 41.6126772304 13.6929
7049 1 23.0448 39.6390158455 11.4223
1607 1 23.635 41.6986772304 8.49825
1201 1 20.8231 41.9936772304 8.23501
1850 1 28.8229 42.5834386152 7.69512
155 1 29.8142 39.5036772304 11.5495
346 1 15.9669 46.0960158455 14.8138
4894 1 30.3765 43.2896772304 14.5958
2934 1 19.2539 45.5896772304 12.0277
6155 1 17.1291 38.3146772304 12.2078
7097 1 18.9582 40.0096772304 9.23953
7055 1 27.1 38.7076772304 15.1553
2946 1 10.8971 41.5436772304 7.56169
7107 1 12.5805 37.1936772304 14.2849
7021 1 32.3879 38.7596772304 12.2629
3819 1 32.0732 38.5606772304 15.0031
2345 1 15.1872 40.7286772304 6.9218
110 1 23.4175 39.2736772304 7.22321
6314 1 28.3177 41.7063544607 22.8968
2079 1 22.0027 45.7193544607 20.7145
5339 1 31.4475 45.2403544607 23.0457
3879 1 12.116 41.2480158455 19.4933
2737 1 11.5221 41.3620158455 22.3722
2333 1 23.2246 41.7190158455 19.8859
3195 1 18.7588 41.0490158455 18.4193
624 1 14.7725 45.0433544607 18.2426
5189 1 20.4713 38.7250158455 17.6712
6061 1 31.0809 40.8313544607 22.5351
2707 1 14.3542 39.7676772304 18.3547
1735 1 18.2653 45.5643544607 21.4948
2723 1 12.1317 43.7536772304 16.1606
5750 1 25.9818 41.6250158455 19.0411
4988 1 28.8197 44.3110158455 16.7453
6525 1 20.1434 41.0793544607 22.6575
7427 1 22.0451 45.9410158455 23.5774
2389 1 20.6656 49.1900158455 22.0479
6448 1 24.0081 44.5530158455 19.5558
7488 1 24.539 44.4473544607 23.2006
90 1 26.5019 43.0436772304 16.7411
7358 1 19.031 47.5650158455 18.7418
7666 1 19.7968 44.7710158455 19.2717
3453 1 13.2827 43.7870158455 20.1506
2629 1 26.1272 45.6826772304 21.2775
7944 1 31.5172 42.0210158455 18.2536
625 1 27.5489 43.1960158455 20.7606
2693 1 16.8187 44.0760158455 23.3688
1155 1 23.0443 39.6720158455 18.0046
3333 1 23.3309 40.9716772304 15.7125
3865 1 26.9708 39.0543544607 18.867
2110 1 24.743 47.3940158455 16.4416
4761 1 12.8471 46.4320158455 16.998
7469 1 15.3737 42.6740158455 21.5406
1935 1 19.8223 44.5056772304 16.3665
3207 1 11.2224 45.1280158455 21.2301
4496 1 26.2635 39.9213544607 23.1289
2102 1 24.2874 44.7546772304 16.8799
3410 1 16.1268 40.3596772304 16.2187
5385 1 16.4547 40.7020158455 19.9643
33 1 29.6141 43.7070158455 19.1822
5386 1 24.1015 41.7983544607 22.5503
5431 1 20.4988 42.1520158455 20.1406
4542 1 15.7594 43.7276772304 16.0481
7931 1 18.1883 42.2796772304 15.943
3352 1 30.735 40.8260158455 15.917
2156 1 32.1162 40.1460158455 20.0866
7719 1 16.3925 46.8020158455 19.8116
1701 1 25.2777 47.7686772304 19.3747
6850 1 12.1196 47.1980158455 22.7738
3151 1 14.7759 47.1310158455 22.2549
5099 1 22.2287 43.5000158455 15.5643
7813 1 29.14 38.7160158455 17.1819
4968 1 27.1282 47.9190158455 22.7659
5466 1 21.7346 48.1950158455 19.7378
5631 1 30.7465 45.9590158455 20.4566
5377 1 29.7291 48.2343544607 23.936
4882 1 19.5304 47.1373544607 23.5147
2254 1 29.2148 46.9316772304 15.8457
3001 1 13.993 41.2220158455 23.4906
971 1 29.8798 48.5306772304 19.9774
3907 1 12.5997 39.5516772304 15.8694
2945 1 12.2063 42.2943544607 29.892
515 1 24.2571 49.9183544607 31.534
4858 1 31.7861 42.8023544607 27.3366
5208 1 23.0248 42.5506930759 30.8988
7385 1 28.3893 41.9896930759 30.9056
3005 1 18.0081 49.3070158455 24.4053
3442 1 18.5708 41.0113544607 26.6529
6466 1 24.2767 42.4806930759 28.4833
6866 1 22.6133 42.5953544607 26.2567
7927 1 18.8748 42.7733544607 24.5772
7068 1 13.1216 42.7663544607 25.731
7653 1 29.6389 41.3493544607 26.476
815 1 28.3896 43.3813544607 25.0612
4464 1 20.9032 41.4413544607 28.1985
4362 1 12.0476 51.6753544607 30.3419
7853 1 29.3032 51.9413544607 31.6176
3041 1 27.4928 44.4976930759 30.0485
3619 1 13.7414 45.9923544607 29.2476
2368 1 13.8132 42.5666930759 32.1098
4147 1 14.547 48.2683544607 30.5755
2295 1 14.7263 50.2560158455 27.0915
7842 1 12.3526 46.9700158455 25.509
738 1 11.2858 44.8883544607 29.5698
1804 1 31.406 45.4983544607 27.6529
4853 1 29.6729 49.8693544607 25.9787
4476 1 16.5049 48.2880158455 26.6384
4080 1 14.5746 50.8793544607 29.6727
6320 1 13.6014 41.2293544607 27.8331
753 1 12.0585 49.4363544607 26.871
6200 1 26.9037 49.7803544607 26.1124
5697 1 29.856 45.9253544607 29.8089
7268 1 22.105 49.0103544607 27.0075
6198 1 14.3338 45.1353544607 26.5548
150 1 15.9138 46.3143544607 24.6866
4078 1 25.9269 44.6603544607 25.5622
7795 1 20.5522 43.5456930759 30.0943
318 1 26.0203 45.9136930759 32.1384
1555 1 15.5712 44.1913544607 30.4465
4986 1 25.0627 47.0903544607 29.5173
1461 1 25.6217 44.6823544607 28.194
5408 1 31.5354 45.7153544607 31.9119
3047 1 22.52 48.4283544607 29.844
2308 1 19.9825 47.2503544607 26.4911
960 1 18.1862 47.5203544607 28.6506
3883 1 29.2677 48.6963544607 29.6556
5134 1 25.7878 47.4163544607 25.055
849 1 16.4547 43.7916930759 27.8698
921 1 31.4952 49.5723544607 28.0578
6573 1 19.8332 49.1793544607 30.1903
1393 1 19.0014 44.8343544607 27.9979
5373 1 26.6188 49.3513544607 28.7663
6467 1 23.2507 48.1443544607 24.5927
1486 1 16.8908 46.5453544607 30.9308
7285 1 21.4592 46.1463544607 31.1599
1381 1 29.8732 45.7023544607 25.3433
4694 1 20.8206 44.6093544607 25.664
4104 1 28.5927 49.3963544607 32.2731
4981 1 22.2908 40.8380158455 24.2575
355 1 16.2371 41.0283544607 28.364
1105 1 31.5834 51.5833544607 30.1007
4269 1 18.7968 42.9156930759 32.1939
6763 1 25.223 51.4483544607 29.4855
5101 1 18.4065 52.3816930759 38.419
3882 1 21.4059 51.8366930759 36.4722
2835 1 30.536 52.4296930759 40.0044
6914 1 24.2978 51.4016930759 36.4027
5954 1 26.2378 49.5866930759 40.1261
7143 1 16.17 51.9566930759 33.3726
4612 1 14.2753 50.6366930759 38.2549
6380 1 22.6154 53.1636930759 38.9399
7027 1 25.7979 46.9060316911 40.8327
3754 1 23.8088 50.5276930759 39.0635
1634 1 29.6088 51.0346930759 37.8126
2557 1 14.5579 52.6626930759 36.4318
859 1 12.3841 51.3020316911 40.1602
400 1 16.4263 51.0876930759 39.859
3076 1 28.3422 52.5386930759 35.9979
3894 1 11.7406 46.6546930759 33.9143
6094 1 31.8499 43.3723544607 33.3833
5589 1 13.4923 48.4336930759 32.9554
2821 1 17.183 44.7910316911 37.6456
2584 1 18.1469 45.3736930759 33.1754
4766 1 30.5059 43.1836930759 35.6805
3471 1 21.204 45.1196930759 40.3074
5224 1 13.4 44.4036930759 40.2977
6597 1 27.6302 49.1186930759 37.8249
7104 1 20.7781 51.8196930759 33.6101
6090 1 17.3095 49.9346930759 34.6199
247 1 15.3717 48.0406930759 34.8779
7578 1 23.4831 51.4253544607 33.602
4925 1 17.5856 48.4836930759 39.6928
1603 1 26.1127 48.6496930759 33.0166
7602 1 19.1058 50.2846930759 36.6718
6374 1 14.3229 48.1086930759 37.3965
7607 1 25.6784 48.9833544607 35.8003
1570 1 11.295 53.7146930759 39.1711
7287 1 29.2908 45.6656930759 35.3048
4394 1 21.3164 43.5556930759 36.1419
3753 1 20.3461 46.9216930759 33.4796
3539 1 31.6769 47.3556930759 38.4516
3477 1 29.0385 46.7696930759 37.6466
5005 1 30.2927 47.5546930759 33.5445
5922 1 11.5555 44.4646930759 38.1979
1825 1 11.9057 46.7086930759 36.8036
7829 1 27.1648 45.1570316911 39.0568
7727 1 16.0648 45.2216930759 35.0955
3219 1 13.4233 44.3406930759 34.2658
1618 1 22.3332 48.1480316911 38.7782
6143 1 25.3607 44.8616930759 36.8378
2800 1 19.7185 47.9586930759 38.0974
6122 1 26.8887 44.4006930759 34.5139
5355 1 22.2802 45.6736930759 34.9238
5848 1 15.4628 46.4490316911 39.3013
4074 1 23.7078 47.1816930759 36.5933
3967 1 19.9495 45.3310316911 37.8538
5968 1 19.4124 49.3796930759 32.9462
4273 1 32.0506 49.8496930759 37.1277
5997 1 11.8023 50.5993544607 32.8304
1166 1 20.0434 53.8170316911 40.0513
241 1 32.0302 49.4023544607 34.2918
3598 1 32.3893 43.7626930759 37.6265
7466 1 23.6586 44.8336930759 32.5576
6195 1 11.152 54.0010316911 41.9459
6695 1 19.3681 51.7900316911 44.2096
881 1 13.1148 52.3790316911 42.6667
5862 1 25.8906 47.1940316911 47.7844
540 1 27.4908 52.6170316911 46.3074
1103 1 22.3814 50.6263703063 47.0596
166 1 31.318 54.3080316911 46.147
4881 1 29.9922 48.8030316911 45.9622
7086 1 21.1002 54.8830316911 46.6987
6131 1 23.0474 47.1340316911 41.2642
5935 1 13.2756 52.9860316911 49.0615
1468 1 13.3548 54.2076930759 44.7949
4509 1 21.4608 48.1520316911 47.6051
4190 1 15.8208 54.3700316911 45.8595
1159 1 12.4356 50.1120316911 44.1903
6824 1 15.1309 50.2000316911 44.9761
7699 1 11.7216 53.1810316911 46.7961
3545 1 25.2773 52.2940316911 44.7318
2627 1 22.7695 49.5610316911 42.5628
2989 1 31.1402 56.0370316911 48.2394
5775 1 16.7004 52.1820316911 44.2768
7019 1 26.6571 53.6930316911 48.7915
1595 1 15.9321 49.9280316911 47.7198
7848 1 29.1853 51.9316930759 42.43
4599 1 23.9832 50.0580316911 45.03
7608 1 26.2976 51.8180316911 42.1696
1267 1 24.4075 55.1230316911 48.3381
4468 1 20.2688 49.3120316911 43.5063
2112 1 18.1801 51.4880316911 48.5253
1506 1 27.1633 49.3380316911 48.8563
4683 1 20.2739 52.3190316911 46.7678
1331 1 29.0646 50.7900316911 47.5818
2411 1 30.8694 49.8276930759 43.5089
5777 1 32.4448 50.6016930759 41.1836
7318 1 23.7973 54.4026930759 45.6305
2130 1 15.7773 53.0896930759 41.8583
5684 1 29.0687 53.9170316911 44.5499
6632 1 21.0682 53.0156930759 42.4994
4528 1 13.5122 50.1113703063 49.2083
1998 1 11.973 49.1200316911 46.9584
4508 1 15.7306 54.3540316911 48.7154
6352 1 19.1926 46.9340316911 48.8003
5100 1 11.3302 46.4800316911 46.8697
4353 1 31.1254 45.1776930759 41.9253
6242 1 30.7773 46.4710316911 48.6924
1948 1 16.6181 46.1540316911 45.3685
3812 1 20.9602 47.1310316911 45.2534
2486 1 26.8694 46.4380316911 43.1956
671 1 23.2331 46.1990316911 43.973
5856 1 15.7501 47.9060316911 43.4828
1383 1 16.5949 47.3100316911 47.797
5214 1 18.2249 47.9920316911 42.2428
344 1 29.575 47.2086930759 43.4357
3935 1 25.2671 47.5890316911 45.1288
2565 1 13.9829 46.9460316911 41.8465
4334 1 11.4923 48.2650316911 42.2542
6072 1 18.8747 45.1830316911 41.8169
758 1 23.5398 52.0296930759 41.4632
4453 1 27.2488 54.5546930759 41.4914
1305 1 31.6483 47.8990316911 41.1999
5180 1 28.6362 55.4860316911 49.3928
6026 1 20.1464 55.1550316911 49.5574
4259 1 30.9172 51.6913703063 49.4759
5201 1 29.892 45.9116930759 46.0995
6726 1 21.5786 55.2570316911 43.8762
4365 1 32.299 48.5850316911 47.3708
435 1 23.1984 51.2673703063 49.5595
5656 1 21.9299 50.0593703063 57.7165
5173 1 17.5143 58.6137089215 57.0365
1449 1 32.1588 52.8443703063 53.5405
5336 1 13.9159 57.8593703063 54.4639
5090 1 25.5339 57.1233703063 56.0566
6299 1 30.7632 57.1663703063 53.2915
2635 1 16.4358 56.0397089215 56.7824
7417 1 13.9607 55.2799718527 55.7209600594
7581 1 18.1099 57.5273703063 52.9089
3085 1 25.703 56.3380316911 53.4813
6492 1 30.6692 55.1263703063 57.0437
7639 1 11.2736 55.6317089215 55.9084
3 1 28.281 56.8083703063 56.858
781 1 19.1919 49.4400316911 49.9688
4094 1 21.4637 57.4747089215 57.201
1939 1 26.0154 50.2183703063 54.864
3755 1 15.3993 50.8153703063 55.9824
5931 1 22.644 53.9860316911 50.0743
317 1 11.503 50.4903703063 50.9894
7878 1 27.0432 51.4013703063 52.5942
6512 1 14.7335 52.9053703063 54.1737
7811 1 11.5532 50.7117089215 57.2332
798 1 18.0342 49.7977089215 56.1389
6853 1 13.3697 49.2513703063 55.5711
87 1 23.2802 55.1703703063 52.7312
7001 1 24.7089 52.5713703063 55.6432
1071 1 17.4074 49.0023703063 52.0543
510 1 12.2857 52.7173703063 52.7099
5010 1 27.3569 53.9853703063 53.4518
6286 1 31.3089 53.7583703063 51.1811
5869 1 25.9365 51.3863703063 50.0156
3138 1 17.8883 53.5280316911 50.2945
5096 1 21.8842 49.0533703063 55.2255
1583 1 29.495 50.4783703063 51.65
2203 1 11.9414 54.7593703063 50.8347
4610 1 32.326 55.4110316911 54.6371
7917 1 29.0997 49.2983703063 57.7943
5972 1 14.9727 48.3620316911 50.9563
4437 1 31.0912 50.3083703063 54.073
4896 1 31.4752 50.5933703063 56.8859
3561 1 21.1652 51.1947089215 53.5412
1033 1 18.4082 51.1113703063 53.6477
3370 1 20.6757 54.8283703063 56.0123
6601 1 29.2753 55.3500316911 51.9879
3880 1 18.2726 55.4953703063 54.6901
5329 1 28.7283 49.1523703063 54.9881
5459 1 17.2706 53.4583703063 53.0683
337 1 21.7369 49.6433703063 51.2408
6519 1 12.7597 48.8213703063 52.7829
3970 1 22.3536 53.3693703063 54.4021
4254 1 26.3037 50.0763703063 57.7626
7969 1 26.8577 54.3693703063 56.1898
3702 1 29.0853 48.0210316911 50.3877
5054 1 22.1657 57.8573703063 52.6397
4831 1 32.468 48.5073703063 52.6097
5036 1 15.1266 56.9190316911 49.6042
6589 1 24.4379 48.1603703063 54.6133
1029 1 26.0101 60.0857089215 62.2846
6235 1 18.5604 53.5821104678 65.6607600594
607 1 23.2596 54.3703703063 59.2717
7862 1 24.7853 53.9317089215 61.4826
405 1 20.7017 59.5263104678 63.0793200594
1341 1 18.6616 56.6923703063 61.4928
2671 1 25.3031 51.3230475366 63.8433
2803 1 20.7967 54.4669718527 64.1421000594
3842 1 25.1208 58.8693703063 59.8177
6028 1 15.4615 55.5598104678 64.9692000594
5821 1 25.6658 53.9537089215 64.184
261 1 13.9886 56.2763703063 61.0794
6760 1 17.108 57.8432718527 64.9520600594
321 1 20.834 54.9303703063 60.4421
334 1 22.7709 58.4737089215 61.3132
6280 1 22.0537 50.2157089215 61.8392
4918 1 24.865 56.6221718527 64.2055100594
5349 1 16.2843 60.2987089215 64.0106
835 1 27.4891 54.0677089215 60.7552
6745 1 30.6049 59.1057089215 64.0921
4987 1 28.4551 56.4717089215 65.7876
5904 1 21.0736 59.0067104678 65.9632100594
5870 1 18.5547 58.8827089215 59.7078
7310 1 23.0437 53.7147089215 65.5496
7692 1 32.1391 58.2813703063 60.2977
5791 1 22.8582 55.6937089215 62.4096
5530 1 32.1913 54.6587089215 63.0695
3989 1 27.2614 57.7504718527 63.6776900594
837 1 16.5982 53.4857089215 63.5227
5365 1 31.216 53.5787089215 65.468
39 1 13.1346 56.4362718527 63.9072600594
5614 1 12.1816 53.0528104678 65.5508800594
1660 1 23.5886 60.2311718527 63.5456700594
5841 1 32.3137 53.3973703063 60.4013
3247 1 13.8356 59.0263703063 60.8479
7526 1 28.5832 53.8907104678 64.5112000594
1428 1 31.0229 56.9227089215 62.4022
3061 1 16.9952 54.2043703063 58.7254
5679 1 31.0957 57.6997089215 66.3935
2201 1 16.4282 55.1082104678 61.3015100594
7676 1 12.2684 54.6467089215 59.8448
857 1 28.0347 60.4337089215 64.3691
1050 1 27.9203 58.3053703063 59.2321
6252 1 19.7565 56.9847718527 64.1722800594
3290 1 12.4931 58.7227089215 65.3737
4479 1 11.0427 54.9299104678 63.8395400594
6123 1 21.1794 59.3343703063 59.2076
2032 1 23.8802 58.8549104678 65.9377600594
7048 1 28.2844 56.6323703063 61.3241
5356 1 27.6487 52.5826718527 58.3067900594
2999 1 13.6189 60.3607089215 63.347
18 1 29.7775 52.9943703063 62.0758
7618 1 14.0381 52.2097089215 63.7137
3250 1 17.3686 50.4187089215 59.9387
3009 1 20.4904 52.5562718527 61.8862800594
4403 1 24.772 51.0993703063 60.8976
6548 1 13.0925 52.0877089215 59.0467
7933 1 18.0389 51.1086718527 62.4735000594
7316 1 12.7097 51.1987089215 61.5858
5711 1 29.2486 50.7310718527 60.1427300594
3423 1 19.6805 53.8323703063 58.3059
5030 1 15.653 51.8783703063 58.3425
5280 1 10.9854 58.2537089215 60.3435
7180 1 24.001 51.8603703063 58.2102
7433 1 27.818 51.7540475366 66.4224
4389 1 23.9857 56.7257089215 58.2595
7480 1 19.5722 51.0817089215 58.2449
6166 1 30.4228 52.6643703063 58.221
2670 1 11.5431 47.526 0.236694
2712 1 15.043 49.304375684 2.1265399406
3721 1 15.6746 50.5561386152 5.54369
2361 1 12.7678 45.0330370688 -0.7787600594
4427 1 14.4599 46.9948386152 0.448207
1742 1 29.2486 49.822375684 5.5857399406
3135 1 18.1887 44.6014386152 2.03708
4351 1 18.3985 50.7099386152 5.40093
6243 1 18.106 48.0183386152 5.22196
3897 1 27.2238 45.9894386152 5.01725
1813 1 28.8359 45.9606386152 1.39921
5572 1 30.3913 49.1477386152 3.13772
7197 1 20.0869 52.0274 -1.42156
5319 1 11.4105 48.6360386152 4.42795
1606 1 13.2322 47.0456386152 5.74633
7928 1 21.8194 50.4297386152 2.22998
4680 1 16.9017 50.757375684 0.7419399406
5634 1 29.8794 45.3377386152 4.12723
4366 1 28.1948 50.7455 -0.702207
4690 1 12.3357 49.6227386152 2.03196
7139 1 11.0274 51.8930370688 0.9676399406
487 1 12.032 54.1737 2.182
2755 1 24.5003 51.3439 1.36966
7151 1 14.954 52.175 -0.850573
6887 1 32.2677 46.8349 3.22617
4819 1 23.6641 44.7536772304 2.00539
740 1 23.5244 48.5656772304 3.47058
3694 1 25.7364 48.7068386152 1.5172
819 1 25.5031 51.377 -1.20649
1544 1 28.5687 48.7470370688 1.1273399406
1005 1 29.3159 43.873 -0.478164
2358 1 22.249 52.7944386152 0.47696
7542 1 22.0962 46.2716772304 3.90091
2307 1 15.4936 47.7686386152 4.43753
4571 1 15.6477 45.582375684 2.5657399406
2988 1 20.6888 48.1322386152 0.908098
6615 1 19.0128 49.6020370688 -0.6857600594
4423 1 22.5307 46.2777386152 -0.183783
3378 1 24.9562 47.5760370688 -0.8918600594
1325 1 19.6169 46.7546772304 3.01892
342 1 32.1779 51.1957 2.69516
686 1 26.1665 45.9255386152 2.42179
5592 1 24.6007 49.5806386152 5.86453
2083 1 27.0728 48.3536772304 6.30981
6237 1 31.647 52.7868386152 0.568986
1778 1 20.9773 54.2078386152 4.98634
5855 1 25.7076 53.0449 3.2571
462 1 18.0288 53.0086 1.88392
2242 1 24.7796 52.2965386152 5.79021
749 1 28.8503 52.5195386152 5.81377
4151 1 28.2845 53.8670386152 3.43607
2126 1 12.7496 50.7697386152 5.67147
262 1 12.2283 53.4115 4.9618
5344 1 28.8261 53.0348 0.791042
5875 1 19.9474 51.9933386152 3.57231
4493 1 15.0545 53.4273386152 5.30003
4748 1 22.0906 45.5653386152 6.39944
6975 1 23.1559 54.1981386152 6.78556
9 1 32.4014 53.2389386152 4.59136
6885 1 12.272 52.0450370688 -1.5582600594
976 1 12.2121 55.9926772304 15.4261
7589 1 17.8534 47.2293386152 7.78932
1192 1 11.2407 49.0756772304 9.54656
433 1 20.7535 48.0666772304 11.6531
2335 1 12.833 47.2646772304 8.37836
2739 1 30.317 47.1706772304 8.67992
5903 1 27.5372 47.5866772304 8.86633
2507 1 15.4616 47.9054386152 9.19628
7118 1 31.5419 47.3426772304 11.1185
4093 1 20.03 48.5436772304 8.90591
3771 1 22.381 47.2865386152 8.51916
2194 1 23.6649 49.7306772304 8.49694
7522 1 14.6134 52.7020158455 14.9825
1691 1 18.2053 56.1046772304 11.6768
6508 1 26.848 53.1186386152 7.56851
5698 1 31.5335 51.4275386152 8.77869
3572 1 19.7872 55.6077386152 9.45448
5751 1 14.579 56.0806772304 13.87
4249 1 29.5237 51.4136772304 10.9412
2441 1 17.0149 51.8746772304 11.374
7594 1 29.5837 49.7806772304 13.2022
5372 1 29.6575 55.8546772304 10.7926
474 1 31.0737 53.4140386152 7.04675
3668 1 15.8611 55.4758386152 10.2875
736 1 26.2697 56.1396772304 14.5467
5499 1 27.0623 51.8256772304 9.99565
1989 1 25.2118 49.3636772304 12.7521
6145 1 21.7046 50.7456772304 12.0175
3064 1 12.3992 53.1356772304 10.7167
5218 1 15.8252 49.3746772304 11.7134
176 1 16.9931 52.3190386152 8.79513
2178 1 11.7073 55.5984386152 9.77988
4439 1 19.3841 51.2231386152 7.90708
6311 1 18.3119 48.7840158455 12.9965
6905 1 31.0588 50.6200158455 15.2063
4725 1 13.7382 48.7650158455 13.1136
6566 1 11.8733 53.2476772304 14.9416
1626 1 23.9057 51.8290158455 13.5267
4826 1 19.1165 51.4396772304 12.9979
1805 1 12.2286 51.3798386152 8.42082
6727 1 25.4758 55.8936772304 11.9749
5144 1 31.7095 57.1306772304 14.7788
7224 1 11.124 49.4146772304 12.3063
3483 1 25.8055 49.2246772304 10.0647
4975 1 19.0681 54.0606772304 13.5572
2339 1 16.3345 54.8231386152 7.57007
5891 1 23.0292 52.0726772304 10.0069
5350 1 21.1435 55.8576772304 13.7019
6781 1 29.8055 53.6466386152 12.529
7260 1 21.175 53.3156772304 8.41982
4686 1 14.8431 53.6036772304 12.135
5762 1 11.6424 55.1003386152 7.08538
5970 1 31.3163 49.2113386152 7.20515
6827 1 14.9704 50.4456772304 8.3434
7545 1 28.4113 54.4586772304 14.7172
6527 1 25.1723 53.3236772304 11.197
2455 1 27.3062 50.2060158455 14.4751
2588 1 30.8334 55.8304386152 8.10617
4915 1 10.8387 52.0326772304 12.7415
6708 1 17.2908 57.0176772304 15.0034
1300 1 32.3776 54.0356772304 13.1679
3936 1 16.7073 54.4106772304 15.1431
6924 1 22.4373 53.7760158455 15.0494
2656 1 26.2013 52.6286772304 15.3722
2749 1 29.3693 46.9806772304 13.024
4352 1 16.4204 57.0200158455 17.9447
6951 1 21.7878 57.2650158455 22.9645
299 1 11.0677 50.6530158455 20.3931
5975 1 29.8356 56.4090158455 22.89
4228 1 15.5698 56.9470158455 20.7425
7515 1 26.5229 58.4200158455 23.4517
6319 1 17.5535 58.3830158455 21.7269
5689 1 23.2813 58.0016772304 17.5494
5506 1 11.5453 57.5780158455 19.2683
7822 1 26.2269 57.0070158455 21.0369
3969 1 20.5644 57.3090158455 18.4169
6684 1 13.3487 58.5390158455 21.1128
6254 1 31.2781 58.3180158455 21.4998
3259 1 14.4123 48.1336772304 15.7246
7125 1 18.4011 58.7360158455 19.2363
3251 1 31.9646 54.6290158455 22.538
490 1 12.3398 58.4273544607 23.668
189 1 30.5941 57.2290158455 18.8364
6473 1 11.0435 54.4130158455 23.1227
6135 1 20.1301 48.4660158455 16.3627
7731 1 22.5151 54.7060158455 22.5445
5145 1 30.9074 48.7590158455 17.2757
6098 1 20.872 52.8300158455 16.8889
428 1 24.9568 54.6196772304 21.0264
6799 1 13.7557 50.9970158455 19.347
1761 1 22.8762 51.7780158455 18.6551
745 1 28.4441 53.2680158455 20.3035
7797 1 21.9616 58.7930158455 20.7089
2344 1 22.8971 50.4313544607 23.1609
4995 1 11.5509 54.6390158455 18.8063
6505 1 29.5278 52.5850158455 16.5638
53 1 17.2487 51.6856772304 17.591
1085 1 28.6803 55.9550158455 20.4212
3039 1 15.2757 54.4020158455 21.2651
5553 1 14.2176 53.6846772304 18.8417
185 1 23.896 49.9020158455 20.4885
5403 1 24.8892 53.6256772304 18.5223
6550 1 27.2755 52.0946772304 18.0507
3968 1 13.701 57.1316772304 17.4544
649 1 29.3508 56.6856772304 16.222
4566 1 19.5408 54.6726772304 18.4119
2214 1 24.2657 55.5136772304 16.4681
856 1 26.3283 50.3360158455 21.9049
2165 1 31.8638 53.1900158455 18.057
3215 1 16.1624 50.7200158455 23.1323
3068 1 27.3632 49.6600158455 19.3853
4477 1 14.8672 50.6720158455 16.8216
7349 1 26.7485 53.0570158455 22.628
287 1 31.0428 52.7620158455 20.7489
6042 1 19.529 51.5270158455 21.595
4358 1 17.9538 50.1290158455 19.665
5310 1 27.2519 48.6430158455 16.72
7262 1 17.4825 53.1933544607 22.4918
3769 1 22.7395 49.2830158455 17.1568
1092 1 13.8637 54.6043544607 23.5858
5978 1 21.1272 53.3950158455 20.4335
1591 1 11.0065 49.8660158455 23.062
2578 1 15.5476 49.5790158455 20.8007
4747 1 30.9164 50.2110158455 22.1143
5141 1 16.7949 54.3013544607 17.9099
1759 1 19.1153 51.0440158455 15.8331
183 1 19.9827 57.5166772304 15.5132
3878 1 19.0514 57.1740158455 23.8531
3858 1 20.9259 52.6160158455 23.928
3912 1 24.5741 58.8653544607 19.8263
3486 1 24.1031 58.3063544607 24.4543
824 1 19.206 51.8963544607 29.8496
4847 1 32.0601 59.8820158455 28.0393
2763 1 16.6252 52.1823544607 30.7622
2314 1 18.8424 52.4660158455 27.3075
3160 1 12.1289 51.4763544607 24.919
477 1 22.487 53.4783544607 26.1927
7532 1 14.7166 52.3620158455 25.0164
4497 1 30.2822 51.8966772304 24.3723
2187 1 16.6849 53.8963544607 26.3731
10 1 24.6232 54.1180158455 24.556
4150 1 20.0849 50.6033544607 25.649
4650 1 24.4681 57.6843544607 31.6114
4204 1 28.6366 54.2400158455 24.0408
4945 1 20.4437 60.6600158455 25.4809
5012 1 15.2985 60.8673544607 30.8945
4059 1 19.7334 60.2733544607 31.6704
4004 1 31.4463 53.7373544607 28.3574
5089 1 17.4171 59.2703544607 30.9344
6274 1 16.0088 54.8123544607 30.8398
2058 1 25.5867 58.7510158455 27.6048
6051 1 11.2037 59.9403544607 25.6972
913 1 20.3947 55.7393544607 31.2103
3564 1 29.6569 59.6393544607 26.746
4616 1 28.6493 57.6820158455 25.0082
5313 1 13.5906 55.2186930759 32.1108
1437 1 20.7239 56.8543544607 28.7683
30 1 20.1365 54.8470158455 26.9459
5244 1 28.4415 61.3853544607 31.298
1719 1 11.4757 59.3063544607 30.2834
1628 1 29.0441 54.8823544607 28.7706
1699 1 18.697 54.5183544607 24.4993
6923 1 28.0391 59.4243544607 29.0356
1016 1 21.2309 53.1153544607 31.1715
2042 1 25.8647 60.0106930759 30.8531
5425 1 27.2529 53.2723544607 30.3724
5320 1 13.7097 56.8103544607 27.4158
1611 1 18.3935 58.8723544607 25.9541
6664 1 11.5061 55.2693544607 27.8544
1994 1 12.911 59.4753544607 27.8095
4526 1 21.6415 60.5020158455 29.6781
7949 1 18.076 57.7773544607 28.4662
7205 1 25.1588 56.3860158455 26.2401
4576 1 25.661 55.0643544607 31.8013
3541 1 32.2029 57.8460158455 29.7275
4368 1 16.1126 55.9003544607 28.3013
5908 1 29.509 57.3763544607 30.0608
1801 1 23.3354 58.2233544607 29.1844
2795 1 27.8546 55.4720158455 26.329
434 1 15.7526 59.4620158455 25.0179
7566 1 23.3014 55.5743544607 28.0496
579 1 14.3701 57.0783544607 24.8301
7782 1 11.4689 54.4586930759 30.5454
6384 1 23.75 53.7713544607 30.0773
1822 1 31.1238 61.6613544607 31.7358
1469 1 25.2478 51.3460158455 24.4722
5125 1 23.8552 51.2433544607 27.1355
5239 1 12.9464 60.0733544607 32.4697
1741 1 32.1618 53.0763544607 25.8558
1421 1 23.9439 61.8890158455 29.9691
7559 1 18.7195 56.0830316911 40.8617
2957 1 28.1792 59.9143544607 33.5968
85 1 14.2967 63.2456930759 38.7946
2376 1 21.1603 61.4396930759 37.5167
1288 1 25.3154 62.4876930759 38.9713
5949 1 17.2755 62.7816930759 34.7101
1898 1 12.0645 61.7333544607 35.691
7202 1 22.5382 63.6586930759 38.9223
4267 1 14.1115 61.0806930759 37.3544
780 1 29.1461 57.5323544607 32.817
2520 1 18.4026 60.8366930759 38.4693
3999 1 19.5266 63.5576930759 38.7815
3938 1 31.2277 62.4866930759 40.5845
2070 1 12.0957 56.3286930759 35.3928
2927 1 31.7823 63.3686930759 37.9481
5243 1 29.7937 63.3023544607 36.122
1306 1 21.8092 58.9076930759 38.4889
2853 1 25.436 59.5403544607 33.7415
368 1 14.7507 56.6420316911 38.9341
3474 1 16.8675 56.7626930759 37.2184
103 1 13.5632 59.0396930759 39.1514
4565 1 19.6863 57.0756930759 36.1784
446 1 22.0249 57.0563544607 32.7802
7856 1 19.6395 62.5936930759 33.2494
4252 1 23.4923 57.3536930759 36.9169
7662 1 15.8509 58.3016930759 35.1334
3576 1 18.2391 53.3586930759 34.4213
2687 1 24.5408 55.2490316911 38.4233
5814 1 32.0716 54.8633544607 34.2746
5091 1 30.993 58.6556930759 36.6315
1357 1 13.7225 57.5316930759 33.6085
4668 1 16.6573 60.6926930759 36.3458
2380 1 19.0043 58.0286930759 38.867
5241 1 28.6686 58.6476930759 39.2987
1115 1 25.7786 58.3746930759 36.2005
3436 1 26.9791 60.2996930759 37.7914
7366 1 27.4077 56.1236930759 36.1532
6556 1 20.3052 58.8323544607 34.0496
7444 1 30.9935 59.5226930759 40.499
718 1 32.0538 55.3313544607 36.984
6730 1 13.2135 54.7986930759 37.5502
7648 1 21.4684 61.2446930759 34.7653
838 1 24.1821 61.8676930759 34.3422
5514 1 22.7493 55.7566930759 34.9405
2107 1 17.6982 57.9173544607 33.2809
2880 1 20.5822 54.3866930759 35.8283
1388 1 24.6002 53.9656930759 34.0316
7439 1 29.5987 56.4103544607 37.8514
163 1 27.8937 55.2496930759 33.584
6742 1 31.6048 57.6583544607 33.9373
4852 1 29.796 53.3933544607 33.8283
1780 1 25.9204 53.7526930759 36.4509
5211 1 16.9714 53.9846930759 36.6566
3303 1 29.0898 60.6256930759 36.0401
7096 1 25.2591 63.6446930759 36.309
2714 1 29.6619 55.1416930759 40.3566
6207 1 25.3879 56.3696930759 40.7324
3902 1 11.4599 58.1316930759 37.4532
3706 1 29.2957 64.7526930759 40.9696
2914 1 10.8504 53.9006930759 34.6773
4073 1 10.7852 63.7963544607 36.9959
2855 1 18.1313 55.4613544607 32.5659
959 1 16.8307 64.1706930759 38.6785
1789 1 13.5077 52.7766930759 33.8509
7401 1 13.2301 60.6146930759 41.3986
3012 1 13.2802 65.7470316911 48.3979
5706 1 15.8618 58.1710316911 47.2627
5578 1 11.2592 63.4996930759 43.5985
3390 1 26.8037 60.5830316911 43.0764
4589 1 28.8809 59.8650316911 48.7021
6591 1 29.4573 63.5630316911 47.2987
2287 1 21.7561 59.2460316911 46.4896
954 1 16.2029 61.3930316911 45.023
1932 1 30.9732 60.3216930759 43.2411
2530 1 22.0304 60.5300316911 48.9793
322 1 19.4393 63.4946930759 41.7155
1054 1 22.4912 59.3736930759 41.1501
1922 1 11.7819 60.0830316911 46.4269
1496 1 23.5676 62.7960316911 45.6783
7207 1 29.6724 65.8870316911 48.7729
519 1 12.6545 64.6230316911 45.8338
3547 1 21.1792 61.2900316911 44.8863
2184 1 15.83 60.2336930759 42.5355
3838 1 21.9011 63.1920316911 48.1321
4342 1 16.6048 65.1820316911 47.2071
3355 1 25.5092 64.3960316911 47.1856
7790 1 15.3113 63.9290316911 44.9415
5508 1 18.8335 61.7190316911 46.1018
7453 1 12.8468 63.4656930759 41.1199
1718 1 27.2337 62.0930316911 47.9989
4139 1 25.7714 61.0680316911 45.7395
1 1 29.162 64.1850316911 44.7016
3405 1 14.3905 60.6220316911 47.0709
4777 1 21.6556 64.0086930759 43.4856
4994 1 20.2483 59.7260316911 42.7275
3077 1 26.4406 64.9636930759 44.6537
5483 1 24.4866 63.6856930759 43.1133
7282 1 24.5074 61.2826930759 41.4126
6691 1 19.2432 64.2180316911 47.3849
3335 1 25.1727 66.3850316911 49.1782
7652 1 18.2448 59.4610316911 47.5224
5655 1 24.3955 58.7210316911 45.9834
3736 1 11.012 56.8420316911 42.2797
1728 1 14.7798 64.8886930759 42.5042
4941 1 24.6626 57.8410316911 48.5487
2397 1 29.0312 62.4486930759 42.6418
5785 1 20.6163 65.7276930759 45.4917
1407 1 30.4143 58.3700316911 46.9099
494 1 11.5942 57.4860316911 46.5323
7322 1 18.1922 61.0740316911 41.4133
6249 1 32.0093 62.4186930759 47.7988
2818 1 25.0662 56.5916930759 44.6598
1157 1 30.9759 56.9566930759 41.8686
2372 1 13.0108 56.7610316911 44.1821
5199 1 15.42 57.4100316911 43.1564
571 1 27.6475 56.3366930759 43.8729
2648 1 19.4019 57.2490316911 43.3364
7616 1 17.1402 56.7520316911 45.2469
6323 1 27.4706 58.1906930759 41.6923
5176 1 29.8735 57.7876930759 44.1984
5493 1 23.3813 57.0760316911 42.4531
6308 1 19.7682 57.3390316911 46.3446
3650 1 10.8373 59.5050316911 42.183
7887 1 16.0034 55.7340316911 41.1686
6747 1 17.4674 65.2756930759 42.1275
301 1 27.2467 57.7760316911 49.3688
695 1 12.4126 57.0660316911 49.173
7361 1 31.2228 62.8923703063 57.5823
3273 1 12.2761 65.2013703063 56.9274
5302 1 28.3617 65.6023703063 57.5772
6349 1 27.7476 67.3690316911 52.7606
6759 1 22.9446 65.3743703063 56.8314
1655 1 17.0935 66.3910316911 51.7076
6292 1 12.9958 66.9743703063 54.9
3795 1 16.3666 68.0213703063 55.8907
4718 1 25.2614 67.5900316911 54.0003
1981 1 24.5631 68.6693703063 56.4414
3913 1 20.1597 66.7453703063 55.2868
7397 1 19.4515 67.6033703063 52.5202
3759 1 31.8718 65.8523703063 53.3832
3202 1 21.8009 68.1503703063 56.9869
7248 1 11.0556 67.5320316911 52.9605
5334 1 12.7895 67.1830316911 50.8116
7635 1 16.5397 63.7180632375 55.4880600594
468 1 30.4972 60.8653703063 50.704
4869 1 19.5367 59.9480316911 49.8682
5196 1 18.5553 65.0660316911 56.9301
4067 1 32.1703 59.0770316911 51.9981
3222 1 11.4859 58.9660316911 53.7555
759 1 11.1213 62.4963703063 56.8138
5618 1 30.6122 65.0403703063 55.792
3760 1 21.6709 59.2093703063 55.0949
6163 1 27.0489 63.2660316911 50.6601
3105 1 18.2608 61.6550316911 51.5728
6510 1 26.5214 58.4510316911 52.0067
2513 1 18.155 64.1643703063 50.1562
7485 1 15.641 65.9260316911 54.0592
7774 1 11.6682 61.3503703063 50.3681
1147 1 27.7418 60.3063703063 53.686
2885 1 30.8937 62.1993703063 54.7309
4562 1 30.9751 60.1433703063 56.8153
152 1 23.8777 59.2890316911 50.9109
4774 1 25.6399 61.6893703063 54.7513
209 1 29.1157 62.3863703063 52.4938
880 1 11.932 63.1303703063 52.5353
1572 1 28.3986 64.7250316911 53.9999
48 1 23.5487 61.3563703063 52.8362
2888 1 22.9665 64.7593703063 50.0968
806 1 18.5235 61.8903703063 54.2482
6971 1 24.4829 63.6950316911 51.8435
7651 1 24.3246 65.0503703063 54.4332
4213 1 24.3065 59.6573703063 55.9585
128 1 30.325 68.1303703063 53.6522
2420 1 15.7239 60.8490316911 51.9018
958 1 20.5225 65.6253703063 50.9722
584 1 20.8799 63.4413703063 57.0141
4156 1 12.2074 61.3493703063 54.6549
7925 1 21.4875 64.9473703063 53.6546
5772 1 21.2585 62.1493703063 54.4887
2556 1 31.5762 65.3120316911 50.6942
2401 1 27.5868 65.9790316911 50.507
5604 1 14.5311 63.5243703063 57.5344
5130 1 26.2985 64.0003703063 55.988
864 1 15.0959 59.7053703063 56.3
1139 1 18.9623 59.2263703063 54.8578
6693 1 14.0263 64.8680316911 52.0051
2268 1 10.9693 58.8483703063 51.0688
5710 1 14.9779 61.6413703063 54.3722
7020 1 15.5833 58.0783703063 52.1532
3717 1 19.9976 57.5620316911 50.9733
1262 1 32.3619 66.4843332375 57.5180600594
4349 1 30.4299 69.1893703063 56.2043
3101 1 29.4466 58.6603703063 55.1579
6411 1 15.3712 64.1300316911 49.6232
3414 1 14.3802 61.6390316911 49.5951
3107 1 29.0432 62.4373703063 62.8681
3070 1 18.9812 70.5517089215 64.2675
1268 1 29.3382 64.2477089215 65.0921
4064 1 22.2234 67.5473703063 63.6215
6214 1 31.6203 65.9663703063 62.2426
521 1 22.359 70.6547089215 65.276
7383 1 22.9291 62.8687089215 63.8078
4106 1 29.5339 69.1503703063 65.1051
3862 1 14.0037 63.1137089215 62.9669
7042 1 18.7992 63.7077089215 62.383
3022 1 18.1522 66.4967089215 65.8562
3700 1 32.239 69.3073703063 64.8124
4180 1 27.0275 61.9791104678 66.4474800594
918 1 26.5585 64.6484718527 65.7768000594
7593 1 26.2554 67.6433703063 58.2448
3976 1 11.933 65.6817089215 64.3283
891 1 23.2748 65.8027089215 61.5824
78 1 25.8643 63.2433703063 58.6489
6911 1 29.312 66.7253703063 63.7743
144 1 18.2615 66.4316718527 62.0491500594
4793 1 21.4544 63.5407089215 66.0849
3667 1 13.991 67.6897089215 64.0133
7213 1 25.2162 64.6057089215 63.2999
3478 1 18.3274 60.7213718527 62.1728000594
7597 1 15.4161 66.4687089215 66.089
7334 1 19.5478 67.8703703063 63.9352
5937 1 14.8341 70.4197089215 63.0288
1019 1 10.7162 70.1903703063 61.9271
1158 1 27.1779 66.2633703063 62.049
2878 1 11.6384 69.1667089215 64.4854
1600 1 14.6882 63.8104718527 65.4963400594
5348 1 15.5702 66.8623703063 61.9183
4398 1 28.1372 64.4513703063 60.103
6189 1 11.934 64.5053703063 61.6218
396 1 12.0384 66.3533703063 59.4712
2223 1 29.2034 68.1943703063 58.3691
5460 1 15.135 69.2923703063 60.4858
6942 1 16.8975 62.2746718527 65.8549200594
1045 1 18.7929 66.6353703063 59.3322
4667 1 14.7492 65.4123703063 59.6849
4965 1 25.6924 68.3683703063 60.8795
383 1 22.9938 68.6483703063 61.1488
154 1 20.7889 68.6110316911 59.4117
5003 1 16.4358 71.4760718527 65.1295600594
5998 1 12.4475 69.1723703063 59.9095
7229 1 24.5924 65.5803703063 59.0985
2920 1 18.7945 63.9967089215 65.1489
3112 1 31.5921 67.4563703063 59.879
7531 1 24.0984 68.4437089215 65.5481
1848 1 21.4708 63.6187089215 61.4969
1965 1 26.5076 62.7237089215 61.7212
5726 1 31.8131 61.7037089215 63.6711
7359 1 21.7776 62.1143703063 59.0603
2296 1 30.3169 62.5157089215 60.3283
2649 1 11.2907 60.6713703063 58.8726
4628 1 16.3376 60.5827089215 60.1192
443 1 16.1051 63.3957089215 61.2776
3174 1 16.3421 67.3463703063 58.5358
3007 1 10.9588 61.2567089215 63.4366
6808 1 24.2143 61.0733703063 58.4749
3562 1 28.3164 71.2973703063 63.8673
2482 1 10.6716 63.3387089215 65.4763
711 1 14.0505 60.9323703063 58.4544
91 1 31.717 62.7894718527 66.0874000594
7801 1 30.1855 59.9623703063 59.3358
983 1 34.5547 15.035375684 0.8503399406
6488 1 34.5251 23.5756772304 4.1613
5070 1 39.8746 14.991375684 5.7777399406
5560 1 47.1401 14.2120386152 1.42237
7067 1 42.1638 17.6455386152 3.54612
3306 1 41.9129 16.264375684 -1.2810600594
3050 1 45.8891 16.2558386152 5.56959
3434 1 40.1013 19.5921386152 4.21044
6663 1 42.8812 20.2728386152 -0.61909
1055 1 35.115 17.9095386152 0.568062
294 1 38.3309 18.161375684 -1.4090600594
16 1 40.1492 13.7109386152 3.27527
6719 1 45.6636 16.245375684 0.4377399406
6840 1 34.3179 18.0406772304 4.40873
3796 1 36.5196 14.4919386152 2.8052
6441 1 45.9921 19.7226772304 2.81589
655 1 51.562 14.6672772304 5.8073
3460 1 52.77 14.2557386152 1.73702
5468 1 51.0903 18.8976772304 4.12692
7521 1 49.6149 13.8508386152 0.333624
4022 1 38.7801 17.3987386152 5.6717
1777 1 42.62 13.5219386152 2.08733
1541 1 47.357 18.2903386152 1.13612
3552 1 34.1837 19.806375684 2.3437399406
821 1 46.6567 13.878375684 4.1692399406
1557 1 53.5547 17.9756772304 4.71826
2263 1 49.8999 17.8027386152 1.90516
7244 1 53.8004 17.3712386152 0.190301
1841 1 37.7855 17.6748386152 1.21567
94 1 49.2883 19.0446772304 6.13922
3593 1 36.3127 16.2523772304 4.88965
2283 1 38.8274 15.1427386152 1.41027
4465 1 43.3347 19.7589386152 2.23547
5192 1 51.3483 16.1242386152 0.275255
1714 1 43.2294 16.9095772304 5.92021
3280 1 43.0755 16.128375684 1.1940399406
2915 1 53.6422 15.4016386152 4.06134
484 1 46.6813 18.8476772304 5.33373
1757 1 43.1049 23.1066772304 6.35065
1123 1 40.018 14.2570370688 -1.0682600594
1715 1 47.5599 20.113375684 -0.8825600594
5314 1 38.1233 20.334375684 2.2614399406
2601 1 45.821 12.4544386152 -0.194116
559 1 51.8909 21.5386772304 4.38582
3664 1 39.3689 20.7767142992 6.7242399406
3906 1 48.1654 23.5029386152 4.73392
4049 1 34.7042 20.0216772304 6.28335
3654 1 37.9013 22.6796772304 5.38806
5041 1 35.9019 21.1805386152 3.92193
7431 1 40.0763 23.3026772304 3.49914
3164 1 42.1605 21.7156772304 4.11634
5309 1 46.797 22.2626772304 2.79014
7668 1 44.2579 23.3440386152 2.81389
2078 1 39.0845 22.5882386152 0.917279
131 1 49.0779 21.8266772304 6.68093
2811 1 45.1485 20.7468386152 6.60131
4396 1 47.8733 22.6047386152 0.263926
6477 1 38.6506 18.5737142992 8.3793399406
7492 1 33.0862 16.0032772304 7.78831
6929 1 44.088 19.9016772304 15.0741
7053 1 47.9706 15.8940772304 11.5275
1984 1 35.5888 18.1356772304 10.6996
4446 1 49.8956 16.5146772304 9.88881
3621 1 37.3181 16.1212772304 9.49399
138 1 51.9928 22.3257386152 7.08303
3142 1 42.1675 17.6830158455 15.0475
7796 1 35.6717 15.3705772304 7.36033
455 1 53.9032 20.9026772304 8.69022
4265 1 47.0702 15.3092772304 7.88206
5093 1 45.5987 15.9127142992 10.1190399406
980 1 49.208 19.0896772304 9.00788
1865 1 47.0627 20.1496772304 10.0402
7274 1 43.4547 19.1046772304 7.79965
6118 1 36.223 19.985375684 8.8002399406
3556 1 32.9443 21.3096772304 11.6333
6515 1 47.3701 24.4306772304 12.3211
6558 1 43.5303 22.3666772304 11.6035
5607 1 49.6405 16.2372772304 7.00926
7536 1 48.1248 20.3240158455 12.6137
4584 1 43.4858 19.6406772304 12.3492
775 1 39.6336 23.6806772304 10.3455
2056 1 40.3366 24.7210158455 14.1543
2086 1 37.0936 17.6220158455 14.4308
2437 1 36.4581 21.7526772304 12.6068
1703 1 44.6596 24.4480158455 13.0043
3148 1 52.3545 19.0660158455 13.8245
1818 1 35.9697 23.6850158455 14.424
1149 1 48.1845 24.2656772304 9.6343
3417 1 47.9258 17.8010158455 13.6588
7212 1 42.1865 21.1866772304 9.31287
3724 1 52.1465 17.8306772304 11.2386
7119 1 39.3359 19.4070158455 14.0472
1513 1 51.5783 23.6076772304 12.5572
2937 1 35.3242 22.2566772304 10.0598
3078 1 51.4732 20.3880158455 10.0243
7404 1 40.2913 19.4466772304 10.2819
3429 1 41.13 18.0540158455 12.398
5657 1 37.1829 24.3026772304 9.50441
565 1 53.1169 24.9500158455 10.6406
945 1 40.5838 22.9097142992 7.7862399406
6204 1 53.8781 23.2590158455 13.9227
7473 1 44.8279 18.5216772304 10.1995
896 1 39.1232 21.4066772304 11.9313
4997 1 50.8966 23.0886772304 9.6388
6396 1 44.2549 23.3116772304 8.88572
6581 1 46.7572 22.1966772304 8.42242
3403 1 53.9336 26.1730158455 13.184
2145 1 41.372 22.2670158455 13.3499
2204 1 33.3649 23.2356772304 8.38396
1195 1 33.6081 24.9950158455 13.656
6990 1 49.9166 25.9420158455 12.3434
4149 1 35.3813 19.3510158455 13.2316
5327 1 50.8083 21.0230158455 12.5461
1614 1 47.7721 22.5100158455 14.3459
1648 1 32.8998 17.5596772304 10.0002
3028 1 42.182 14.6843772304 7.11125
6590 1 32.7017 20.1670158455 14.1159
2808 1 49.7549 24.4640158455 14.9242
7009 1 50.3164 17.8000158455 15.1387
6782 1 37.8836 25.3696772304 15.1864
7978 1 45.8464 17.7256772304 15.4278
50 1 45.1814 18.7093544607 22.9527
7451 1 41.4578 21.4513544607 23.5445
3645 1 39.8754 19.8430158455 16.7709
1176 1 35.2479 22.3240158455 16.6997
3485 1 35.7592 24.0620158455 18.7149
6640 1 39.3575 28.2813544607 21.3051
926 1 45.5838 20.9460158455 18.7555
5740 1 46.8485 18.5820158455 17.8799
3952 1 35.5153 17.9840158455 16.6019
4369 1 39.1391 24.0680158455 20.2886
5256 1 38.1102 25.3920158455 17.9573
2192 1 50.2812 24.0160158455 17.6822
7830 1 36.9989 20.3040158455 17.3427
1299 1 51.7849 22.4953544607 19.4989
1685 1 43.737 22.5380158455 19.872
1568 1 44.4754 24.3233544607 21.9345
4033 1 41.9879 20.5913544607 20.9186
4050 1 38.5529 18.4523544607 21.3214
6758 1 40.9189 18.0783544607 19.8433
3229 1 42.6731 23.2990158455 17.6688
6341 1 39.8423 21.4760158455 19.2646
7140 1 45.0757 28.3313544607 22.9213
345 1 47.7393 22.7533544607 22.7087
4655 1 40.9498 25.4820158455 18.3496
576 1 32.9932 18.0570158455 15.7073
7306 1 41.9692 21.3530158455 15.9394
727 1 47.8225 22.3150158455 19.8676
3095 1 47.9164 24.9370158455 18.7342
2964 1 46.3507 26.1313544607 16.7104
842 1 34.5848 24.7453544607 22.0855
4527 1 44.32 24.5320158455 15.7773
5161 1 49.8453 20.8143544607 22.7697
4511 1 50.0304 21.5870158455 15.9303
7147 1 49.5252 19.2880158455 17.4161
3190 1 52.3948 25.7730158455 17.8928
4445 1 42.7825 26.5103544607 22.3417
3914 1 49.9939 20.4973544607 19.963
548 1 37.157 20.4950158455 20.1567
1120 1 52.303 23.5110158455 22.149
7477 1 36.626 23.0743544607 21.2611
7255 1 34.8537 18.7873544607 20.1149
339 1 44.2247 19.0633544607 20.38
4097 1 45.7046 22.0780158455 16.0103
6186 1 33.7789 28.6583544607 23.3755
1086 1 42.0425 26.1973544607 15.7691
2518 1 40.728 17.1003544607 17.3109
7898 1 52.0034 18.7960158455 20.821
1899 1 33.8608 25.8003544607 19.6613
2267 1 53.2573 25.8603544607 20.4593
7182 1 53.7356 21.1560158455 18.1639
871 1 40.1 25.5960158455 22.6017
77 1 41.6162 27.5500158455 19.9809
1527 1 47.0265 25.2980158455 21.6065
3820 1 51.0791 26.7893544607 22.0627
5993 1 48.7551 27.2670158455 20.3375
7185 1 52.8377 21.2070158455 15.614
1963 1 47.4402 27.0330158455 23.7685
2116 1 32.6348 21.5820158455 16.633
6178 1 54.2247 18.5860158455 19.277
86 1 32.6294 20.0290158455 19.07
5337 1 35.7285 26.6220158455 23.8948
2889 1 38.2986 27.6333544607 23.9553
4581 1 36.4395 22.0196930759 29.802
5342 1 32.9814 23.8990158455 24.142
5569 1 48.5913 23.2443544607 27.1681
5761 1 42.5824 29.7203544607 27.7647
7570 1 40.0582 20.9963544607 27.2743
707 1 51.1169 22.1086930759 26.8985
934 1 36.9179 22.6873544607 24.2604
4977 1 34.1356 19.2643544607 24.3349
5055 1 36.6703 20.1073544607 24.938
2137 1 37.3825 20.1463544607 27.6915
7866 1 44.9942 20.5726930759 28.4014
890 1 46.8528 21.0923544607 26.5504
5619 1 41.3285 19.3053544607 25.2404
5299 1 33.9164 27.7396930759 32.3617
2153 1 47.8109 31.1323544607 31.2911
1858 1 53.9678 19.5843544607 25.4073
7992 1 33.8124 23.2123544607 29.944
6015 1 40.4162 30.4156930759 31.7572
1883 1 34.5304 25.5836930759 28.3379
4391 1 40.1093 23.3503544607 31.9473
2222 1 52.1654 21.6766930759 24.4387
6394 1 35.2201 24.4146930759 25.6377
6421 1 43.9274 29.1866930759 30.0429
1529 1 46.7052 29.0826930759 29.9388
6104 1 35.5414 27.4686930759 30.1728
5064 1 39.879 23.8086930759 27.0535
1181 1 44.4581 28.6876930759 25.7859
4298 1 35.9133 30.1406930759 29.1838
2735 1 53.2914 23.2566930759 28.0407
4285 1 50.6374 23.9506930759 31.6363
374 1 47.5512 27.0996930759 31.522
466 1 48.5313 28.6643544607 27.9388
3845 1 39.9864 28.6133544607 27.6883
2741 1 43.3345 22.4263544607 29.7151
7188 1 38.6622 23.8863544607 29.7197
7873 1 42.3956 26.7666930759 30.2183
1129 1 46.5087 24.8726930759 30.256
2400 1 43.9266 24.4683544607 26.2998
398 1 42.2429 24.5563544607 28.3347
1432 1 40.147 26.5703544607 25.9842
2543 1 42.7028 26.6913544607 25.1321
3049 1 46.3852 24.8373544607 27.4619
1405 1 48.6357 22.9946930759 30.0221
6630 1 50.3536 26.7106930759 31.4671
2077 1 40.0589 28.0346930759 30.3476
1076 1 52.9236 27.8473544607 27.6175
2517 1 53.0779 30.5116930759 32.2364
3220 1 53.2786 25.4313544607 26.1173
4438 1 38.0694 26.3366930759 30.9547
653 1 46.7731 27.2323544607 26.3612
5516 1 50.8528 28.5073544607 29.3391
2820 1 48.6361 24.5473544607 24.6606
7013 1 53.4741 23.3056930759 30.8791
7115 1 44.4606 23.8606930759 31.9763
5490 1 41.5603 21.0096930759 31.358
4756 1 45.8762 21.2133544607 24.0452
7920 1 39.6089 23.4993544607 24.2827
1458 1 42.0353 25.2456930759 32.4649
5622 1 50.7047 30.9546930759 30.8284
955 1 52.9105 29.7213544607 25.6444
6304 1 51.2515 25.1013544607 24.162
3444 1 43.7026 22.8863544607 24.1294
4860 1 45.9139 21.6146930759 32.8186
4038 1 46.1744 31.2856930759 36.5331
4949 1 51.3531 31.9576930759 36.3402
7204 1 40.0684 31.6756930759 39.2965
7006 1 43.5941 32.9810316911 38.6872
3855 1 51.904 21.5916930759 32.659
7743 1 50.7143 29.8640316911 38.1435
1745 1 48.1893 30.9466930759 38.3349
6430 1 43.0904 23.6730316911 39.508
4318 1 47.044 29.6950316911 40.3124
6518 1 34.0497 31.0926930759 38.061
1517 1 44.3307 30.4370316911 39.4167
6500 1 36.5475 31.6406930759 36.8768
4634 1 33.0164 24.5070316911 37.8308
2806 1 37.5701 25.5670316911 37.7202
4053 1 36.7208 23.5670316911 39.6502
2962 1 38.4826 23.0246930759 34.2695
3911 1 39.6672 24.0356930759 36.7998
200 1 43.5587 23.1966930759 36.8005
7846 1 43.8961 25.0216930759 34.5904
2161 1 49.4243 24.2816930759 34.1684
4083 1 43.3322 26.4350316911 39.8578
809 1 49.6748 25.7110316911 39.087
4817 1 47.4066 28.1446930759 34.0882
7132 1 51.9575 23.3556930759 34.965
5077 1 53.7559 25.1886930759 35.9089
5407 1 40.3794 26.8436930759 34.0596
429 1 47.1653 25.7240316911 37.6919
6574 1 41.7597 25.6960316911 36.2477
4583 1 37.793 25.8166930759 33.6755
2003 1 33.9241 23.1936930759 32.7947
186 1 38.2046 29.6046930759 36.1453
5809 1 52.7736 24.2480316911 40.6032
5402 1 37.8052 27.6070316911 39.5775
3263 1 40.2877 29.5566930759 34.3103
5110 1 53.1155 27.9176930759 35.4648
3828 1 35.0384 27.6740316911 39.7562
7749 1 44.2304 29.1516930759 36.8828
275 1 34.4473 28.4216930759 37.2143
5437 1 36.5829 27.3906930759 35.8107
2142 1 53.2134 26.1900316911 38.5366
7770 1 47.1632 30.8126930759 33.9992
7613 1 46.3617 23.0970316911 37.2237
5353 1 49.177 26.5816930759 35.5273
27 1 35.9353 22.0576930759 34.3681
314 1 53.72 28.7896930759 39.5961
6603 1 42.0658 27.7656930759 37.8889
7360 1 45.9384 27.1790316911 39.7329
145 1 51.0855 27.4426930759 37.2682
2104 1 35.501 23.9326930759 36.432
4962 1 39.7247 29.1596930759 38.4551
692 1 45.5487 27.0926930759 35.7657
1030 1 42.5054 30.6616930759 35.3654
7329 1 53.8039 31.4786930759 34.8914
1378 1 37.5755 33.0286930759 39.0313
7851 1 34.4143 24.9800316911 40.3553
3412 1 34.7955 25.7986930759 34.1655
4412 1 47.6532 22.3290316911 34.907
6435 1 34.1306 30.9746930759 40.7382
4911 1 51.7875 30.3700316911 40.696
6679 1 41.4543 32.4736930759 37.0795
4113 1 52.7179 27.7886930759 32.7642
6750 1 44.4489 31.7646930759 33.5845
2809 1 53.8292 26.0833703063 47.5456
5782 1 49.1545 27.5363703063 47.378
6908 1 49.9705 31.7903703063 48.1887
2002 1 44.6415 29.9340316911 44.7388
2256 1 36.4843 27.7503703063 47.5383
4625 1 40.5386 28.7960316911 45.6615
4408 1 44.9349 28.9803703063 47.59
5418 1 38.2942 29.6830316911 46.7802
807 1 32.9851 27.0570316911 47.3743
3762 1 50.5585 29.7810316911 46.1256
7457 1 42.2597 30.8310316911 45.8147
2459 1 41.3468 31.9516930759 41.7686
1846 1 42.8012 27.7367089215 48.9113
1620 1 35.9181 28.4490316911 43.7362
3803 1 41.2025 33.0230316911 44.3365
4536 1 46.6357 26.9513703063 46.4787
4301 1 36.2716 32.5656930759 41.4593
7779 1 38.4438 33.4390316911 47.536
3959 1 46.8715 31.9120316911 44.7694
1814 1 34.2498 32.0960316911 45.4733
6622 1 45.894 31.8520316911 42.1609
2655 1 38.5881 33.2260316911 44.7992
2531 1 49.3914 30.9990316911 44.0736
281 1 43.4958 30.3540316911 42.1431
1061 1 47.4108 32.5400316911 47.4192
992 1 52.4067 34.8933703063 46.827
3179 1 42.6688 31.5580316911 48.4648
4585 1 50.0904 33.6140316911 44.4638
3265 1 38.6251 31.4360316911 42.4917
7442 1 36.7027 30.8840316911 44.6754
1191 1 45.4265 31.4293703063 48.8888
2135 1 49.4425 29.5610316911 41.8681
3129 1 33.7564 28.4940316911 42.1246
532 1 53.2753 29.9910316911 46.2345
3965 1 35.7366 35.8130316911 48.9782
2666 1 35.6488 33.0700316911 47.6903
1385 1 34.4022 29.1293703063 48.6664
3861 1 53.4897 28.6793703063 48.7894
4916 1 38.5828 31.0563703063 49.2527
7241 1 47.1567 35.2990316911 47.3815
7098 1 33.261 34.3530316911 44.3062
3948 1 43.259 25.3223703063 45.2163
6787 1 54.1547 32.6690316911 46.1969
4235 1 53.9391 25.7880316911 44.6236
2760 1 42.972 27.5900316911 42.384
4517 1 51.8982 25.4990316911 42.7311
5919 1 45.0876 27.1860316911 44.1846
4442 1 46.9473 26.1570316911 42.1501
828 1 40.1007 24.7000316911 42.8916
4140 1 41.4424 26.6663703063 46.8671
3255 1 40.4344 27.3840316911 43.2344
3644 1 35.8576 26.1973703063 45.5265
1273 1 49.7072 26.7720316911 41.6982
4095 1 38.2413 28.6580316911 42.1714
511 1 42.2424 34.4120316911 49.4157
7587 1 47.4132 34.6090316911 43.9166
2211 1 53.0875 32.7430316911 41.3147
7284 1 51.1167 34.1423703063 49.1266
7740 1 33.3615 25.0230316911 45.4633
942 1 32.5194 30.7833703063 47.0492
641 1 38.0272 24.7360316911 44.8367
2865 1 33.041 34.8853703063 49.4408
5390 1 53.7084 27.4377089215 51.2079
5207 1 42.4931 37.0207089215 57.6214
2448 1 44.877 37.1397089215 54.1922
3111 1 34.8391 35.7437089215 57.0325
2170 1 49.7039 35.8407089215 54.2369
271 1 39.7043 36.2437089215 55.3935
6864 1 35.4514 36.4697089215 54.5228
4171 1 44.0422 34.8557089215 57.2941
3459 1 53.6488 37.6187089215 57.2158
1992 1 48.8992 28.3913703063 50.0002
505 1 34.0903 33.0223703063 51.2848
1051 1 52.0956 28.6627089215 57.8224
5796 1 33.7563 27.7373703063 51.2621
5233 1 35.9502 33.2230475366 57.103
5774 1 43.5689 29.8837089215 55.9272
5421 1 39.8905 33.5450316911 50.186
2094 1 36.6625 30.0617089215 54.1587
6773 1 51.2393 32.2357089215 55.5538
2195 1 42.6471 32.1657089215 57.2216
5984 1 47.4852 34.7013703063 52.8789
4617 1 46.935 32.2847089215 55.4434
5929 1 41.0105 32.5267089215 52.5899
622 1 44.6941 33.7877089215 50.4457
516 1 36.2341 29.1258718527 51.6324600594
1074 1 49.1211 33.7957089215 56.2142
6440 1 37.1808 32.6837089215 54.8708
2450 1 49.5759 36.0393703063 50.1072
5203 1 43.7569 33.0327089215 52.7705
7705 1 46.8152 30.0287089215 50.8529
248 1 46.8302 35.5273703063 50.2744
2381 1 39.5319 29.9247089215 54.6754
1810 1 43.7204 30.3637089215 53.2319
988 1 39.8777 33.4827089215 54.9415
1605 1 38.5223 28.0873703063 50.365
5076 1 35.8558 34.2287089215 53.0176
6427 1 37.6594 35.0323703063 50.9907
2483 1 54.2191 35.8203703063 55.1776
7759 1 41.022 29.7833703063 49.9224
2177 1 52.7519 31.2423703063 51.8101
4603 1 52.6299 34.0763703063 51.3506
5897 1 41.2097 29.7103703063 52.65
7584 1 47.7771 31.8573703063 52.7634
7672 1 39.9137 31.3667089215 56.9371
7093 1 45.1992 34.3847089215 54.6455
7149 1 35.8394 31.2343703063 49.8333
3851 1 34.0742 30.2060475366 55.4369
1161 1 52.0541 34.4977089215 54.0463
7022 1 50.3415 30.7877089215 53.3662
3919 1 53.693 29.1023703063 53.3047
1546 1 51.1817 29.9263703063 49.8472
2499 1 49.855 28.0897089215 54.1188
7884 1 45.2268 28.1757089215 52.0773
4296 1 46.1475 30.0587089215 56.9446
4001 1 40.4355 26.9397089215 52.2994
4160 1 52.7287 31.4477089215 57.9023
1643 1 52.3456 27.8333703063 55.212
1413 1 47.9589 28.1767089215 56.1563
6462 1 34.3215 31.2097089215 58.0231
327 1 36.7599 37.3767089215 58.33
1793 1 42.9904 31.4767089215 64.0427
7357 1 46.9615 32.2826104678 65.6385800594
4127 1 47.2046 38.8977089215 61.7283
2293 1 33.4193 34.7350104678 65.3031300594
3052 1 52.0853 38.0017089215 59.4297
3191 1 41.5081 31.1017089215 66.2895
3019 1 34.1809 37.3110475366 66.2078
7402 1 43.3689 32.0577089215 59.8496
4854 1 49.2593 34.6617089215 58.8016
1640 1 53.0613 33.0647089215 62.2977
3226 1 51.2464 32.9490475366 59.8248
3718 1 36.5577 38.3020475366 65.1257
227 1 37.8659 34.5015104678 65.7438500594
6895 1 33.5012 33.9800475366 62.6595
82 1 41.3108 35.8227089215 61.8753
7240 1 50.2149 36.7570475366 64.041
7233 1 35.6031 37.7342104678 60.7818500594
1828 1 51.0151 34.6650475366 65.6557
3888 1 40.6823 37.3077089215 59.5897
4505 1 54.0866 31.3337089215 65.7116
7940 1 51.5004 30.4956104678 65.0628400594
7836 1 47.3748 34.3467089215 60.7459
203 1 36.0145 32.7627089215 61.8882
3685 1 49.6213 32.3727089215 65.8273
4241 1 39.7673 33.5760475366 61.1067
4283 1 43.2307 34.2217089215 64.7053
5133 1 53.6031 34.1347089215 64.9403
260 1 47.7283 36.3377089215 62.71
927 1 52.7533 35.3887089215 60.5342
1089 1 37.7363 34.4690475366 62.9347
6849 1 45.661 36.9747089215 64.5568
6284 1 40.9946 37.6430475366 66.2205
5491 1 45.1948 39.0542104678 66.0802600594
447 1 52.0556 40.0330475366 65.7322
7577 1 52.3255 37.6707089215 62.4026
389 1 33.3188 36.3780475366 61.2296
702 1 39.9921 37.5460475366 63.5503
1971 1 37.3334 37.1278104678 62.9102900594
5478 1 49.5461 38.9847089215 65.6093
6941 1 44.6843 34.3707089215 60.109
7685 1 43.9967 35.7617089215 62.4324
761 1 44.5266 38.4797089215 61.5454
770 1 47.181 31.6977089215 61.0296
7850 1 38.9567 29.4447089215 58.8544
6762 1 51.8972 30.4357089215 62.2258
910 1 49.6383 30.5697089215 60.5912
7728 1 38.3901 33.1587089215 58.7522
774 1 49.5752 37.3807089215 58.5673
3339 1 45.3608 30.2373703063 59.5168
2716 1 45.6934 31.0667089215 63.4467
3852 1 36.6787 31.1207089215 59.7964
4635 1 54.183 30.5820475366 60.4102
1604 1 41.3686 31.5577089215 61.7313
7656 1 35.6038 30.5487089215 63.4049
7922 1 53.8239 37.9817089215 66.0757
5148 1 45.6027 34.6157089215 66.0443
7487 1 40.6833 40.2410475366 63.9042
5720 1 49.4618 28.7907089215 58.4411
4217 1 35.5384 30.6370475366 66.1671
7389 1 35.4361 33.4970475366 66.6181
6731 1 39.0113 35.8247089215 58.1319
7715 1 41.0219 25.9066772304 4.55162
6081 1 49.8165 26.2663386152 -0.0109067
7089 1 44.4359 31.2974386152 1.93947
2745 1 49.3394 34.1866772304 5.95462
1492 1 41.7746 25.873375684 -1.3673600594
5594 1 40.5318 27.8544386152 -0.0999721
6350 1 47.3832 28.7206386152 0.147402
940 1 38.3222 27.2853386152 1.56778
6447 1 46.9914 25.9591386152 5.34842
1574 1 35.82 28.664375684 -1.1764600594
1264 1 43.2682 26.7693386152 2.85302
1284 1 52.8652 29.3953386152 -1.57337
5596 1 44.8866 27.225375684 -0.1638600594
2959 1 51.1024 27.8261386152 4.16629
4138 1 34.76 27.3216772304 3.70581
6115 1 42.8867 33.9809386152 4.1111
3359 1 52.6592 25.6215386152 4.18071
1130 1 37.1763 24.8459386152 0.647861
796 1 34.8251 25.2171386152 1.92345
5523 1 44.4516 25.1827386152 5.02716
6549 1 42.7207 26.8246772304 6.67908
5020 1 36.539 29.3023386152 1.3018
6407 1 53.2809 29.4724386152 3.51442
7781 1 39.364 27.8816772304 4.00167
7228 1 47.3664 26.2014386152 -1.36172
4947 1 49.557 28.4024386152 1.9594
6307 1 36.9793 27.5300386152 5.4775
5059 1 50.3293 23.765375684 0.6594399406
4958 1 43.61 24.7956386152 0.674052
929 1 40.7652 32.114375684 -0.5589600594
2349 1 45.3904 28.6775386152 2.12455
208 1 50.2373 31.0801386152 2.36512
2910 1 37.4378 24.9616772304 6.77045
2646 1 41.5674 28.8002386152 2.22368
4157 1 47.3857 28.3196386152 4.10632
1580 1 34.4006 24.9746772304 6.66448
6676 1 52.8153 30.6846386152 1.00952
4512 1 52.5752 22.964375684 -0.6462600594
2419 1 33.9192 29.3857386152 2.22706
7052 1 45.673 33.4351386152 3.3521
6290 1 51.4111 32.9419386152 4.1679
7776 1 39.5912 32.6893386152 1.85545
7275 1 47.2638 30.4226772304 6.01443
3299 1 48.077 32.0772386152 4.12664
451 1 36.7052 32.3986386152 4.51797
1796 1 36.9702 32.0526386152 1.65914
4840 1 48.7832 32.4719386152 0.49778
1069 1 53.3572 24.8406772304 6.79217
7353 1 41.6903 31.5008386152 3.03518
2650 1 45.778 23.914375684 -0.9674600594
5967 1 38.2278 31.0636772304 6.28603
6169 1 34.0625 32.6576772304 5.54857
5472 1 52.9953 31.1974386152 5.6848
2940 1 40.6045 30.1386772304 5.32404
1903 1 47.5091 30.9423386152 -1.32736
3182 1 43.5136 32.7294386152 -0.230691
7154 1 41.7007 22.7588386152 -0.36377
4940 1 50.6969 23.7375386152 3.39662
4737 1 32.6676 26.9546772304 5.53195
6265 1 32.5627 25.7901386152 0.489064
5556 1 51.6956 28.8316772304 6.78028
4681 1 40.0208 27.6326772304 9.4154
4890 1 37.5805 28.5206772304 9.72273
3732 1 45.2917 35.2366772304 9.80358
6389 1 40.6236 25.9880158455 11.679
1711 1 46.9351 26.2986772304 8.19163
5112 1 48.2682 28.3296772304 9.58105
6211 1 34.2684 27.4926772304 7.82756
6751 1 44.2573 25.9716772304 8.87722
11 1 53.0624 26.9236772304 8.63158
34 1 47.7887 26.6630158455 14.3429
1531 1 34.687 27.3440158455 12.7302
1681 1 39.4089 34.8566772304 7.10399
2167 1 36.2282 29.5179386152 7.39662
3080 1 35.805 26.6076772304 10.3267
1446 1 50.9544 27.7266772304 10.2325
3023 1 45.7396 31.6376772304 10.0434
5450 1 43.5362 30.8426772304 11.2386
7386 1 46.3639 29.0660158455 13.8183
5666 1 39.9112 31.9506772304 10.2872
3144 1 38.0814 32.7666772304 8.48134
3928 1 52.9631 32.6688386152 8.2126
5982 1 37.9483 28.0860158455 15.0584
4429 1 43.3753 26.3786772304 11.5554
7195 1 39.5861 28.2416772304 12.8793
6258 1 52.2793 35.2786772304 11.4625
3763 1 51.7712 27.8716772304 13.7561
3972 1 41.5479 29.9276772304 9.52775
1334 1 34.1122 31.5006772304 8.14641
7387 1 35.0338 35.2146772304 14.5745
3008 1 35.8177 32.7676772304 10.0983
75 1 46.922 33.8656772304 11.5139
2615 1 40.163 25.6196772304 7.506
392 1 45.2109 34.2480158455 13.726
5384 1 50.5256 34.1206772304 13.5105
4154 1 50.1455 32.7706772304 8.51871
4030 1 53.0266 34.0540158455 14.7211
822 1 38.2388 30.2666772304 11.6786
1032 1 47.5614 30.1096772304 11.6256
5264 1 38.8192 34.8846772304 13.7431
7259 1 43.8288 28.7756772304 12.8582
4324 1 33.5795 36.2346772304 12.453
2498 1 44.752 34.0096772304 7.25931
504 1 49.3017 30.1576772304 7.77586
4682 1 49.5935 34.1986772304 10.672
3955 1 35.9958 31.4346772304 12.6678
2301 1 49.6722 31.4446772304 13.3129
3535 1 35.5259 29.2796772304 14.5035
4133 1 42.7542 35.8556772304 11.168
4101 1 40.8019 33.9676772304 11.9503
4654 1 42.8931 32.9206772304 13.1538
6780 1 45.0592 31.3696772304 7.33158
4619 1 33.2165 31.1336772304 12.6152
2034 1 36.7993 33.1600158455 14.5361
4810 1 53.62 31.0376772304 10.5756
831 1 41.7326 28.6520158455 14.5474
7121 1 35.2119 35.3756772304 10.2985
4884 1 51.3991 29.8176772304 11.895
2752 1 53.3451 29.7290158455 15.2246
6231 1 42.701 29.7376772304 7.01766
7054 1 54.1208 33.4046772304 12.2084
4734 1 53.6353 35.283375684 8.9872399406
4636 1 44.1367 30.8543544607 20.2555
6348 1 41.2558 37.1030158455 17.2937
4072 1 46.3909 34.8080158455 20.2928
3234 1 42.9589 29.2976772304 18.3764
726 1 52.9116 35.8670158455 18.2007
912 1 53.9048 36.3800158455 15.6793
4502 1 50.3707 32.1960158455 17.7951
105 1 41.2155 30.3240158455 16.6284
4500 1 42.3154 35.3450158455 19.4062
1647 1 35.3486 32.2593544607 21.7303
5295 1 34.109 32.8500158455 18.0627
7867 1 46.3234 28.9993544607 20.5042
1294 1 33.6174 34.1473544607 20.643
3750 1 33.7088 28.8740158455 16.514
674 1 37.8888 34.5170158455 20.5609
7297 1 40.2426 34.8313544607 16.1664
3743 1 44.3202 33.4250158455 19.0972
4952 1 38.4705 29.8893544607 17.2596
3137 1 33.4633 36.7800158455 17.924
6137 1 37.9359 34.9100158455 17.7531
7679 1 37.3709 31.8170158455 20.0084
1902 1 43.4776 30.8410158455 22.86
1959 1 40.4414 34.7300158455 21.4027
1664 1 32.986 34.5866772304 16.1765
5032 1 52.9491 32.0100158455 16.6283
2026 1 36.842 32.3770158455 17.1925
1750 1 45.0913 33.1050158455 16.5272
2059 1 39.0341 30.8793544607 21.9173
6813 1 50.5106 30.2540158455 19.6516
2215 1 52.831 30.2100158455 20.9391
5532 1 46.282 30.5976772304 16.1476
6844 1 41.1466 32.4283544607 22.8991
5345 1 45.5691 28.5540158455 17.775
6193 1 42.2798 32.7270158455 15.8597
311 1 47.251 33.1970158455 22.3495
1525 1 48.2814 30.7910158455 21.399
1827 1 33.8248 29.8643544607 21.0036
2636 1 50.2573 35.1630158455 17.872
4357 1 53.6325 32.7493544607 23.2764
172 1 52.3373 39.2963544607 23.5873
6342 1 48.9959 29.3543544607 23.6862
491 1 43.4181 37.9520158455 19.2903
2370 1 36.1418 37.1210158455 18.9498
3155 1 34.9741 28.3113544607 19.0848
5341 1 48.9835 30.7590158455 15.9297
748 1 48.697 36.3463544607 19.8231
2621 1 50.0113 36.6080158455 22.236
4811 1 34.9728 38.7433544607 21.9972
1724 1 36.6962 36.8336772304 16.0002
1942 1 49.4175 39.0690158455 23.3659
611 1 43.1558 37.1463544607 23.4865
7834 1 44.9599 37.0453544607 21.4692
4322 1 35.6654 36.0150158455 21.4433
7918 1 52.72 37.0213544607 22.3139
760 1 53.2592 38.0280158455 19.8697
7058 1 46.5027 35.5320158455 16.0016
5661 1 40.5056 36.7923544607 22.9852
5467 1 38.843 38.9880158455 23.0575
6946 1 50.5548 27.8180158455 18.3025
7369 1 49.7826 28.1910158455 15.5942
6784 1 49.2238 34.5833544607 23.8584
36 1 37.7065 27.9770158455 19.1502
2862 1 51.6083 29.1153544607 23.267
6499 1 46.9837 38.9633544607 21.8433
6821 1 45.4779 37.6220158455 17.4556
3542 1 45.0817 32.8443544607 23.9662
6498 1 49.2179 35.9256772304 15.4423
1418 1 36.4282 32.3773544607 24.2949
257 1 35.4162 36.0873544607 24.263
3815 1 48.4315 36.0256930759 26.036
7833 1 51.3636 33.3863544607 24.6911
818 1 46.0273 31.2300158455 25.8842
5766 1 32.677 36.2453544607 25.0788
2550 1 38.5618 32.4546930759 31.9819
7758 1 34.4304 35.9366930759 31.9196
1722 1 41.1186 37.3036930759 31.7734
1482 1 45.3193 33.1753544607 27.8064
4034 1 43.7193 34.9830158455 25.059
2747 1 43.3262 36.0856930759 30.5216
3734 1 46.7617 39.3023544607 29.962
1475 1 39.562 33.9176930759 29.7353
4822 1 53.8883 39.3333544607 25.8198
6288 1 43.3592 41.5356930759 32.0727
7963 1 54.1642 37.8726930759 32.0082
6486 1 47.0909 37.4456930759 32.2351
4719 1 50.9653 37.9703544607 28.7773
5246 1 45.7813 35.6303544607 26.8206
45 1 40.3052 37.9583544607 26.9862
2583 1 38.095 30.3053544607 24.6046
2316 1 36.0192 38.3203544607 27.3274
1540 1 44.9441 37.4503544607 28.6464
3181 1 48.2499 38.8283544607 25.8354
3590 1 53.0091 35.2073544607 26.2291
1134 1 42.2713 33.5823544607 29.9919
6729 1 38.4607 39.2043544607 28.6775
6408 1 33.6748 38.9556930759 28.5308
2081 1 50.4247 35.4673544607 27.8092
6497 1 49.0194 39.8483544607 28.4486
5274 1 53.5515 37.5513544607 27.8067
2147 1 42.7999 38.9663544607 27.7452
5433 1 36.5544 35.8026930759 28.4281
3084 1 39.9098 35.7903544607 25.3521
5146 1 45.7108 35.1913544607 31.7329
5323 1 38.7488 36.5606930759 30.238
4972 1 33.7374 38.6346930759 31.3369
6236 1 46.7517 33.2453544607 30.1891
7441 1 34.9257 34.2246930759 29.9081
7506 1 51.44 37.9243544607 31.416
6023 1 37.3481 34.7296930759 25.8254
3063 1 49.2478 34.3513544607 30.3213
2049 1 54.1146 33.5286930759 29.8438
5731 1 39.9951 40.8006930759 30.4321
1435 1 41.4041 33.4316930759 25.4745
2288 1 36.397 38.9283544607 24.6536
1355 1 42.7586 32.3693544607 27.6943
229 1 49.6273 36.1276930759 32.4343
4192 1 35.9768 32.0616930759 31.1817
1154 1 33.6761 30.9956930759 27.884
1345 1 39.0656 32.9023544607 27.1314
384 1 48.7149 30.5413544607 26.0841
5899 1 51.3864 33.0563544607 29.0362
4276 1 34.2122 30.8493544607 25.1534
4188 1 51.2069 31.6103544607 26.6599
173 1 37.981 30.3543544607 27.4405
2432 1 43.2201 39.5413544607 24.8392
4305 1 35.4903 40.5436930759 32.3473
4593 1 42.9292 31.3706930759 31.2789
4627 1 44.8015 40.6926930759 38.0824
5209 1 34.2607 32.2656930759 33.1821
7463 1 46.7338 42.5656930759 38.3886
5668 1 41.058 43.6026930759 38.8803
5718 1 34.2193 41.9236930759 36.6344
1168 1 41.9532 41.0206930759 38.5093
7059 1 36.477 41.8210316911 38.2925
28 1 49.2664 41.9020316911 38.5805
4092 1 35.1842 41.4780316911 40.8206
4595 1 51.5126 42.3726930759 36.9088
4879 1 54.1781 42.9236930759 37.6639
4068 1 32.5376 35.3416930759 37.563
5205 1 37.2582 36.4966930759 32.501
546 1 35.0715 35.6536930759 36.7496
7046 1 48.7282 39.0376930759 38.3585
6424 1 47.8016 40.3173544607 32.5839
1244 1 36.4535 35.6756930759 39.1539
4587 1 40.6505 36.8486930759 37.6868
4676 1 48.1154 34.3540316911 36.8744
937 1 38.5863 37.4136930759 39.2322
4973 1 46.1024 38.6726930759 39.2551
3233 1 50.3574 35.1050316911 40.111
4971 1 42.5386 36.7780316911 40.0244
1128 1 45.3269 34.0226930759 36.7646
7391 1 42.1254 36.0016930759 33.9294
2310 1 51.7773 34.0726930759 38.0561
875 1 52.4957 40.9286930759 34.6966
600 1 35.7963 38.2386930759 36.0495
7726 1 39.1592 40.6576930759 34.5044
5219 1 52.8819 33.9396930759 33.9491
7476 1 35.9899 33.5776930759 35.1707
6222 1 45.2198 36.1220316911 38.9758
3446 1 50.2763 37.9000316911 40.2039
3722 1 42.2753 38.5906930759 34.9662
3647 1 49.1004 32.5606930759 34.9665
5866 1 40.292 39.4886930759 36.7586
6364 1 50.4471 33.2846930759 32.7278
7508 1 44.813 39.3226930759 35.5367
3015 1 50.5143 37.2686930759 34.882
6150 1 44.4389 34.6336930759 34.0893
5429 1 48.3747 37.0196930759 36.4055
1213 1 41.4788 39.4300316911 40.6088
6797 1 37.222 38.9316930759 33.7609
4732 1 37.6224 39.4236930759 37.6031
4600 1 50.3744 39.7156930759 33.3345
3083 1 52.4446 35.6356930759 36.0295
3772 1 38.2673 34.4206930759 34.1183
5038 1 46.0501 36.9516930759 34.8346
1950 1 45.4004 41.2396930759 33.8519
5611 1 40.5257 34.7446930759 35.8881
1285 1 33.2002 39.2506930759 36.4293
5852 1 54.3093 33.8500316911 39.2659
4781 1 48.2521 33.5696930759 39.4378
381 1 41.196 39.9346930759 32.7477
2318 1 52.9092 38.3016930759 40.9653
1824 1 52.3851 42.3210316911 44.6727
3264 1 41.4033 40.8560316911 49.0715
307 1 32.7941 41.8843703063 49.1192
2374 1 42.0254 45.1870316911 45.0466
4144 1 49.8177 35.9300316911 46.1531
1183 1 43.9788 41.2510316911 45.6926
4291 1 38.5229 43.8570316911 47.3796
4957 1 42.6507 38.5960316911 47.8396
2075 1 38.8428 41.2370316911 47.7994
590 1 38.7365 39.9570316911 45.3426
6582 1 36.0004 39.9306930759 44.7162
618 1 42.9298 35.1470316911 44.9179
6483 1 50.5918 40.4330316911 45.5897
3291 1 45.7903 45.5420316911 47.4888
1594 1 47.5569 40.0970316911 47.413
5658 1 43.4563 43.7990316911 46.7769
114 1 48.5644 42.1950316911 45.7438
7084 1 35.7768 43.9383703063 47.1062
2415 1 49.3502 38.0810316911 48.1025
2620 1 39.3036 41.4080316911 43.1112
7561 1 47.3679 42.9860316911 43.0958
4216 1 34.0642 38.7180316911 46.1923
886 1 34.7989 38.5190316911 48.8325
6606 1 39.3451 45.2850316911 45.2851
1209 1 41.7173 39.4190316911 45.0355
5747 1 46.2745 39.3420316911 41.9342
3211 1 48.9715 39.3670316911 42.2516
31 1 50.3146 38.1060316911 44.318
7288 1 38.5445 44.1690316911 42.8695
5883 1 36.085 39.0476930759 42.0223
3180 1 34.9562 42.3820316911 44.8108
5974 1 50.5784 44.1410316911 46.1278
6982 1 51.6683 45.1410316911 48.3777
764 1 45.201 38.6980316911 46.6028
3684 1 53.2833 42.1790316911 47.299
4272 1 35.7009 43.6570316911 42.3575
7714 1 51.5159 39.8543703063 48.1057
2012 1 42.2399 44.0966930759 42.5919
6694 1 44.8719 41.5940316911 42.9828
6937 1 52.1925 42.7256930759 42.0637
1204 1 37.9608 37.7610316911 48.7177
2951 1 42.0447 43.4890316911 49.1263
1729 1 49.6175 42.1496930759 41.4159
1144 1 41.7018 36.0363703063 47.153
1744 1 38.6911 39.2170316911 41.3785
5507 1 42.1403 41.2746930759 42.6288
1231 1 35.4067 34.8366930759 42.8098
1795 1 47.2076 44.9090316911 45.2562
4782 1 37.6652 35.8680316911 44.3385
3187 1 45.1006 37.0160316911 42.694
1365 1 44.956 44.2930316911 42.2076
5127 1 52.6667 36.9820316911 43.2401
4739 1 45.6908 36.3260316911 45.2899
1991 1 42.3033 37.2900316911 42.981
7826 1 51.5134 34.6663703063 42.3922
3450 1 39.4997 37.8190316911 43.6543
5579 1 53.9945 38.7190316911 49.119
5462 1 54.327 44.7410316911 47.8244
6021 1 34.7587 36.8030316911 41.0841
202 1 46.0649 34.5930316911 41.234
4921 1 32.6946 45.1430316911 45.8722
3509 1 53.9212 40.8246930759 41.0466
3011 1 35.308 42.5370316911 49.4574
6955 1 38.881 36.0553703063 46.9032
3608 1 36.9853 40.3330316911 49.5002
5632 1 43.1741 34.1736930759 41.1081
4740 1 38.5138 47.8593703063 55.4381
3315 1 45.9363 39.9477089215 57.6075
1871 1 34.1863 46.0893703063 55.9783
1953 1 46.3598 44.4540316911 50.0004
5798 1 41.9775 45.0207089215 55.455
3245 1 51.0723 47.7533703063 56.1352
1629 1 35.7551 46.4553703063 51.509
3389 1 51.091 45.4343703063 54.8131
7333 1 46.4978 47.2113703063 55.8343
2516 1 42.5997 46.8177089215 57.5463
2425 1 47.4598 42.9993703063 54.8783
4129 1 33.216 46.5950316911 50.3538
2000 1 52.3218 41.3113703063 53.6199
7988 1 37.4555 39.7707089215 57.2032
4466 1 32.792 39.6360316911 50.5935
7323 1 34.7235 40.0593703063 52.6466
4644 1 53.694 44.9673703063 54.4424
4745 1 45.8599 40.3163703063 51.5541
6138 1 41.7429 40.6547089215 55.8636
4755 1 49.9849 41.3213703063 50.1629
5889 1 46.8528 38.6181718527 55.4642600594
3752 1 50.2101 39.9873703063 52.5637
6388 1 38.6566 44.3163703063 52.1722
1880 1 43.9023 41.7533703063 52.4666
6426 1 46.2136 45.3853703063 53.8861
2154 1 45.2502 37.5853703063 51.4606
987 1 41.1992 38.0083703063 52.1976
3742 1 39.3348 45.4273703063 54.5835
96 1 47.6023 40.4583703063 53.551
7684 1 53.7314 43.3513703063 52.2906
4393 1 38.3475 43.8427089215 56.5812
4392 1 43.8693 44.0493703063 50.994
6934 1 50.9972 40.8063703063 56.2657
6572 1 50.7244 37.3963703063 52.141
2027 1 53.3384 37.6673703063 51.6429
3943 1 35.5706 43.5763703063 56.1171
7210 1 37.423 39.6723703063 52.3027
3804 1 50.2112 45.8203703063 52.0761
3071 1 34.2912 42.5333703063 53.8178
5037 1 41.4738 40.6983703063 51.7071
7412 1 39.1318 41.3903703063 55.5253
4588 1 49.8264 43.3877089215 56.1604
554 1 53.836 40.1543703063 55.9192
7201 1 43.4648 42.5877089215 55.1183
4862 1 51.3247 43.7863703063 50.7352
3790 1 35.9307 43.8733703063 51.9226
4304 1 47.2893 41.6813703063 49.7494
6962 1 43.5902 45.6113703063 53.1954
2446 1 39.1399 41.7823703063 52.7253
5546 1 45.5703 42.6017089215 56.85
302 1 38.7166 37.4243703063 51.4223
7579 1 47.4767 46.1663703063 51.6557
1278 1 40.784 43.5547089215 57.7886
5212 1 33.4022 37.8533703063 53.6363
1333 1 37.6202 38.1533703063 54.8995
2082 1 42.8786 37.0603703063 50.2925
732 1 39.8329 44.9590316911 49.7013
1484 1 34.6619 47.5283703063 53.751
5351 1 45.2054 46.4697089215 57.9678
5200 1 49.6561 38.2047089215 55.9259
3794 1 35.0706 41.2343703063 57.797
1501 1 42.1939 37.9647089215 54.9555
2869 1 37.3662 49.2086104678 65.5338400594
603 1 41.6478 45.4307089215 59.8204
4237 1 34.7504 43.7763104678 61.6950100594
6315 1 50.0524 46.6647089215 59.432
6700 1 48.8332 49.2830475366 64.5497
503 1 32.7126 46.3517089215 64.5974
2357 1 43.7777 46.2271104678 65.3790600594
1483 1 46.3729 44.1300475366 58.96
1297 1 53.6792 41.8300718527 60.5759700594
5382 1 35.0911 40.2247089215 60.4002
1698 1 36.5674 41.7357089215 62.1727
2453 1 36.1235 41.0749104678 64.8096700594
3884 1 37.6444 44.9957089215 59.071
3146 1 39.9212 48.8870104678 66.4282500594
7803 1 52.9239 49.9526718527 64.4632900594
3167 1 52.5006 47.7137089215 58.4619
386 1 33.4341 48.5160475366 66.1788
259 1 41.5507 47.7487089215 64.5091
7231 1 34.9434 43.8987089215 59.0154
6517 1 48.472 48.9067089215 59.4079
1589 1 44.276 44.4080475366 60.8086
4036 1 37.9419 45.6487089215 64.2122
3560 1 43.5368 49.6111104678 64.0145800594
3933 1 51.8543 43.0999104678 63.2620200594
2955 1 40.5773 45.1270475366 64.1677
5484 1 43.2939 40.5307089215 63.1233
1471 1 49.077 44.1917089215 58.6752
2088 1 34.6203 46.4348104678 62.7133200594
280 1 51.4521 46.4707089215 61.8135
6132 1 45.3532 45.8067089215 63.0386
4054 1 47.7376 45.0047089215 64.1035
5727 1 49.8225 46.8890475366 64.0256
5190 1 37.7537 47.6937089215 58.2721
5617 1 45.1276 48.3880475366 62.2925
7498 1 49.0673 42.7900475366 62.9844
5973 1 53.2496 44.5497089215 61.2242
6247 1 45.3705 41.4820475366 64.9652
1695 1 37.6186 44.2977089215 61.896
907 1 40.2619 42.4628104678 65.5431300594
3175 1 33.4259 47.2767089215 60.5045
416 1 40.4918 43.7790475366 61.7401
6625 1 33.4915 41.6370475366 65.2714
3257 1 36.9385 48.1767089215 63.1177
2573 1 53.0461 43.7210475366 65.7701
5119 1 40.0463 47.8017089215 59.8305
614 1 51.4003 46.0506104678 66.0943500594
1349 1 45.07 50.6560104678 65.9854800594
1563 1 45.7337 48.5067089215 59.5899
4424 1 39.7123 48.3187089215 62.4782
7870 1 53.3703 48.3237089215 62.238
4087 1 42.6268 42.2700475366 61.0017
4622 1 39.2808 41.2547089215 61.7269
1588 1 49.6048 41.9447089215 60.3266
7734 1 51.7346 40.7527089215 59.0188
2045 1 41.8333 41.0493703063 58.6443
2031 1 35.0307 51.0235104678 65.9293700594
5430 1 33.5507 44.3687089215 66.1917
6721 1 39.5052 39.8857089215 59.389
4516 1 36.3455 44.8937089215 66.3164
2604 1 52.9792 40.5840475366 63.0242
2907 1 48.0423 39.9147089215 59.366
1582 1 47.8798 40.4634104678 63.8270800594
2947 1 34.9324 47.6713703063 58.249
1079 1 54.1481 45.6857089215 58.8764
5016 1 43.7996 39.0137089215 58.877
5191 1 37.718 42.2820475366 66.6103
5042 1 47.1264 50.1117089215 62.4118
5294 1 52.1737 40.8132 -0.214974
1256 1 40.3552 38.5914386152 -1.2855
3311 1 47.1215 38.5134386152 -0.332455
4262 1 43.8471 43.8025386152 6.04627
6428 1 45.0467 38.4547386152 2.90294
1304 1 46.4415 37.6986772304 5.14172
2613 1 53.4046 33.2551386152 0.365042
7291 1 32.6413 38.0608386152 5.52103
3029 1 50.8776 34.1021386152 -0.669371
5123 1 39.6491 38.2289386152 1.47278
861 1 42.3772 41.6230386152 5.05628
2220 1 48.9457 36.2349386152 -0.458461
2331 1 51.3973 43.7746772304 4.68598
1669 1 34.4655 37.060375684 1.9068399406
4979 1 41.9407 35.8036386152 2.27601
1512 1 38.0008 35.2573386152 -0.283187
6791 1 33.2447 35.2496772304 5.7541
7335 1 43.4092 35.2928386152 0.0650944
4723 1 33.8092 40.1069386152 3.96832
6855 1 47.6655 34.7845386152 1.63934
6377 1 37.8028 34.9566772304 4.6497
5846 1 46.8865 42.2914386152 5.13951
5364 1 53.6554 34.0530386152 2.85523
4539 1 35.9785 38.6736386152 0.293376
147 1 49.8031 35.3402386152 3.401
7724 1 39.2811 35.4628386152 2.2242
3045 1 51.4027 37.1106386152 2.28162
1831 1 42.3313 38.7077386152 2.56097
4329 1 37.7221 40.0036386152 2.22385
4813 1 45.7044 36.5475386152 0.841724
1064 1 35.5997 36.5007386152 4.26229
4123 1 50.4264 39.3985386152 3.2087
2062 1 38.9087 38.6099386152 6.12577
3710 1 48.5323 40.3886772304 1.46378
1894 1 34.6444 40.9829386152 -0.455171
7501 1 32.877 39.4159386152 1.42624
3249 1 45.288 42.8135386152 0.79416
2369 1 36.3707 39.1212386152 4.39939
6984 1 33.344 34.8178386152 0.808255
1481 1 51.0383 38.1908 -0.466666
5396 1 49.0234 38.8395386152 5.47403
2348 1 46.115 41.0194386152 2.83995
3131 1 41.3316 39.1155386152 5.20787
7575 1 35.6089 33.6624386152 -0.175427
6595 1 54.2378 40.7807386152 5.90135
3917 1 42.3559 40.1480370688 -0.1414600594
7504 1 54.0521 36.7926772304 3.19777
5316 1 40.9008 43.1160370688 2.7202399406
4956 1 43.2407 41.5005386152 2.3409
6800 1 39.4544 44.8265386152 6.48934
4456 1 44.8937 41.0251386152 6.60899
990 1 37.7714 41.1072386152 6.20666
2912 1 50.0274 42.4634 0.410151
7230 1 52.49 41.2907386152 3.85259
6379 1 38.2131 42.3496772304 3.62411
7789 1 46.544 44.9796772304 6.23722
7368 1 40.6293 42.4495386152 -0.0472758
6048 1 54.2295 40.8892 1.66742
6598 1 46.5964 34.9066772304 5.49012
7198 1 32.677 42.4662386152 4.68904
7805 1 37.5692 37.6930370688 -1.5199600594
3426 1 42.1338 34.8986772304 6.55955
5660 1 54.2488 38.0486772304 5.58052
4193 1 44.8174 39.3894386152 -1.55515
1013 1 40.2176 42.102375684 6.7200399406
7087 1 42.4547 37.5459386152 6.90192
5939 1 45.5321 47.1316772304 15.1412
6998 1 33.3195 36.0975386152 8.51605
1737 1 47.4329 45.4986772304 8.87417
6987 1 49.2523 36.7216772304 9.64326
3726 1 50.6213 38.7106772304 10.7832
952 1 52.7863 37.7826772304 12.4878
701 1 46.646 37.6626772304 9.70759
3154 1 52.5958 37.2946772304 7.55089
5438 1 52.7395 39.5026772304 9.30413
266 1 37.0508 37.3206772304 10.386
2309 1 41.6611 37.6176772304 9.4864
2590 1 44.1247 36.7926772304 13.3751
2342 1 39.0406 37.3056772304 8.55711
884 1 49.6925 38.5510158455 15.2075
7200 1 46.0045 44.3016772304 10.8254
6704 1 36.1769 41.6313386152 8.3821
2286 1 34.2315 40.7206772304 12.0458
1275 1 45.0089 38.4166772304 7.34318
1533 1 40.0242 44.7386772304 13.2171
1448 1 52.8901 41.8476772304 8.05632
5735 1 40.0787 38.5706772304 12.9442
7072 1 49.0439 40.7266772304 11.3449
2015 1 43.8336 45.7996772304 11.5641
3034 1 33.0981 38.9126772304 8.1269
7640 1 37.5419 37.2596772304 13.059
7854 1 44.1192 40.7156772304 11.6263
6535 1 47.7944 43.9436772304 13.0765
2858 1 46.5464 42.0796772304 14.7501
2692 1 36.7754 43.7136772304 10.3326
4518 1 33.5461 41.9496772304 7.27316
4161 1 42.7823 44.5850158455 13.7017
5452 1 34.4536 45.0456772304 13.0205
5075 1 45.8425 38.6896772304 12.1207
100 1 43.9236 42.1736772304 13.9667
3801 1 48.1282 45.9886772304 14.786
6927 1 52.4454 38.6000158455 15.0025
7747 1 50.0171 43.3076772304 11.4116
3267 1 52.3204 43.4960158455 12.8071
1400 1 50.1313 44.8646772304 9.29795
6034 1 35.8956 39.3846772304 13.8697
359 1 45.2639 41.9606772304 9.49352
3690 1 35.3861 39.4536772304 9.78549
7517 1 52.7509 45.6506772304 8.56605
7208 1 47.7783 39.8506772304 13.6486
4454 1 47.4352 40.3246772304 9.21791
7691 1 52.453 46.4086772304 13.0242
3172 1 32.8028 44.4146772304 8.04268
6063 1 36.0413 42.8116772304 12.7303
4012 1 41.6734 39.8290158455 10.9534
2010 1 53.5401 43.3466772304 10.2186
4134 1 43.1657 43.5786772304 8.75188
3086 1 41.0326 42.0816772304 9.42513
2402 1 39.4487 43.9836772304 10.7011
4711 1 33.0498 45.0896772304 10.7877
2801 1 37.1963 41.7506772304 14.9601
407 1 39.5899 40.3416772304 15.1002
5953 1 50.6056 42.9666772304 7.18855
7351 1 32.7331 44.5366772304 15.1478
7889 1 48.7126 41.0636772304 6.94101
306 1 50.0399 36.7207386152 6.91245
3053 1 37.1979 43.4483544607 23.5822
508 1 50.9172 46.7053544607 23.9627
2407 1 38.6853 44.1386772304 15.5246
7302 1 48.6057 47.0880158455 18.2948
7030 1 52.5455 48.4560158455 20.7042
2917 1 32.8467 42.9483544607 23.3723
1548 1 49.8117 48.0163544607 20.614
4383 1 41.3629 46.9783544607 21.3202
399 1 45.0149 46.8703544607 23.0141
2020 1 53.3373 46.5410158455 22.6076
394 1 43.3338 38.1410158455 15.6203
2544 1 42.2101 48.3173544607 19.1262
2189 1 34.0868 48.8040158455 20.1057
2046 1 41.8663 43.3260158455 23.5274
5253 1 36.9769 48.6253544607 20.3114
928 1 53.1109 46.4426772304 18.7528
4422 1 44.7705 43.7430158455 18.2139
724 1 39.5472 40.5493544607 20.8917
7991 1 39.5805 45.0663544607 20.3147
2334 1 42.4233 42.2460158455 18.0291
6789 1 49.1566 44.5730158455 17.1965
7769 1 51.2111 44.4490158455 19.4394
2243 1 35.178 44.5680158455 19.661
7243 1 51.518 41.9990158455 17.8502
6749 1 53.5402 40.7500158455 16.4047
4934 1 47.0516 45.0800158455 21.9573
1136 1 52.4209 46.6756772304 16.0123
6921 1 43.2419 41.2790158455 22.6248
7511 1 34.8134 40.7500158455 20.1842
5830 1 35.1313 42.9123544607 21.7639
4833 1 40.3802 44.0530158455 17.8265
4513 1 35.5755 41.0846772304 17.2155
6506 1 37.3429 46.1720158455 19.2227
704 1 49.749 45.2850158455 21.7534
1873 1 33.2166 46.3620158455 19.312
4620 1 45.3681 43.0450158455 20.9106
6626 1 51.9626 40.6600158455 20.11
7225 1 53.4795 44.0720158455 21.2602
5977 1 42.2482 40.3850158455 19.9117
6044 1 33.3906 49.3360158455 22.8066
2182 1 38.9395 38.6340158455 17.0253
1602 1 46.2743 46.0460158455 19.2765
1330 1 33.8108 43.2750158455 17.4748
3940 1 37.3866 39.7250158455 19.2122
1490 1 50.0786 43.2933544607 23.7543
2320 1 41.5438 46.5160158455 17.3076
4487 1 47.4884 41.4630158455 20.1825
2521 1 47.3457 42.5580158455 17.3937
1211 1 53.1545 41.6243544607 22.5763
6588 1 39.4652 42.9473544607 22.1233
3108 1 49.1578 40.3750158455 17.2369
2270 1 47.5502 38.7670158455 19.0094
862 1 37.5067 46.3686772304 16.4764
7436 1 45.9473 41.3573544607 23.2606
461 1 49.7405 41.3150158455 21.719
6863 1 43.6623 45.3356772304 16.2988
5022 1 43.3716 44.9993544607 21.8569
5602 1 34.4857 38.7496772304 16.1069
1108 1 42.1884 40.7116772304 15.7576
644 1 33.0112 46.8790158455 16.6315
1917 1 39.4286 49.0440158455 21.8124
2813 1 42.5046 48.0223544607 23.8863
4696 1 51.3778 43.9596772304 15.5622
4459 1 45.6794 49.3240158455 21.7409
7403 1 44.9526 48.4650158455 19.3263
788 1 40.4953 42.6353544607 26.0359
3872 1 33.174 46.9913544607 24.2365
6861 1 35.4825 42.3873544607 30.1606
5286 1 40.4277 40.0033544607 25.1756
3046 1 36.2418 41.5563544607 25.5657
3588 1 46.4671 42.7613544607 26.9688
6683 1 45.5872 41.9276930759 29.4788
2698 1 53.1725 41.7183544607 27.3307
1126 1 42.7257 41.1636930759 29.3416
3377 1 50.8476 41.8983544607 28.749
335 1 32.8153 41.6283544607 29.3628
3826 1 49.0365 43.7973544607 27.7844
5252 1 52.8682 43.1533544607 25.0155
4874 1 33.9995 43.1823544607 25.7666
1063 1 37.1448 41.5503544607 28.1396
4802 1 54.3227 49.6763544607 24.7764
4490 1 40.3986 43.7376930759 30.5632
5994 1 39.9642 46.1703544607 26.2591
4090 1 33.9545 51.7423544607 31.419
550 1 45.7983 40.2263544607 25.8325
4458 1 46.2445 46.2170158455 25.3376
5047 1 42.0087 43.4353544607 28.1152
2689 1 36.8088 48.4013544607 25.5545
6811 1 33.9265 46.7953544607 31.0253
378 1 38.8694 49.8893544607 24.4296
4618 1 42.5021 50.9696930759 32.1317
6437 1 47.7389 48.1493544607 29.2108
7993 1 45.6944 49.3333544607 30.712
1668 1 43.8046 46.6136930759 29.1685
7408 1 34.5541 45.7683544607 26.3024
4348 1 44.456 45.6453544607 31.6287
7379 1 38.2416 45.3703544607 30.1242
3184 1 42.4067 45.5703544607 25.1646
2485 1 41.0347 46.0896930759 28.9585
6631 1 40.9012 48.9773544607 25.9237
4586 1 43.0328 49.3313544607 29.6851
6433 1 33.3261 47.3993544607 28.5113
1696 1 44.3495 44.8493544607 26.9701
5291 1 51.2421 45.8233544607 30.7739
4730 1 51.7588 49.1523544607 28.0137
2405 1 40.3022 48.9763544607 28.8651
6534 1 37.9488 48.0603544607 30.2952
1425 1 49.6331 48.9703544607 24.7263
2351 1 48.5751 45.6173544607 29.8355
1411 1 49.7996 49.8723544607 29.8023
3949 1 50.8077 45.0363544607 26.1306
3407 1 51.1556 43.0773544607 31.235
7890 1 37.2738 45.5413544607 25.5661
1988 1 51.3201 48.6533544607 31.7184
5164 1 36.0428 48.6213544607 28.1789
2660 1 47.4451 48.3693544607 26.4029
3909 1 35.9333 44.8473544607 31.3283
7864 1 52.0924 46.4153544607 28.1233
4308 1 38.4128 44.0903544607 27.6399
2386 1 46.7431 44.0333544607 31.0402
1876 1 47.1883 43.7593544607 24.396
5109 1 45.6758 50.4423544607 26.0307
1974 1 54.1121 48.5566930759 31.4231
7952 1 46.6486 51.9256930759 31.5593
1934 1 43.1845 50.3273544607 27.0988
1657 1 42.3879 44.1876930759 32.4366
2011 1 34.3909 42.6036930759 34.034
1578 1 47.3328 52.9126930759 40.0081
6432 1 34.2911 51.3443544607 37.8571
5755 1 38.502 51.1086930759 37.412
6183 1 39.0671 53.2296930759 38.9432
5509 1 35.1254 50.0116930759 40.1048
4261 1 45.0286 53.1680316911 38.6321
773 1 48.9309 51.0196930759 38.3162
5695 1 45.1092 51.8336930759 36.2246
3379 1 38.2853 49.1366930759 32.8133
4027 1 45.2108 47.9506930759 32.8902
182 1 51.6859 50.8640316911 39.1242
2740 1 36.2749 51.5276930759 36.1054
1439 1 40.1397 51.8663544607 35.2457
7339 1 47.3513 51.7546930759 34.3049
171 1 43.4842 51.8256930759 40.5447
3747 1 41.3511 48.1730316911 40.6497
456 1 38.4294 43.7286930759 37.904
4052 1 37.6179 49.2716930759 39.1588
5379 1 52.9539 50.8556930759 34.9067
3620 1 50.1371 44.8716930759 36.3519
566 1 45.9168 43.2086930759 35.7766
6291 1 45.7414 47.7406930759 36.6355
2487 1 38.7529 43.4146930759 35.1853
3113 1 53.6846 47.3036930759 37.5676
272 1 42.0009 45.3896930759 37.1004
7806 1 33.9561 45.9956930759 37.7965
5884 1 54.0378 51.6253544607 37.5106
3488 1 47.9849 44.5553544607 34.7991
6671 1 36.3797 44.5593544607 34.1034
2327 1 40.3506 47.3116930759 38.2069
6414 1 48.6699 49.5673544607 35.7622
2786 1 53.6063 42.7066930759 32.9619
2097 1 53.094 45.4276930759 33.1377
7916 1 36.1709 49.0826930759 34.5899
553 1 40.9534 45.2356930759 34.515
3258 1 44.7796 45.2886930759 37.1903
2478 1 34.149 49.3093544607 32.5923
3548 1 37.5868 46.5426930759 38.2266
5267 1 43.6208 49.6076930759 36.685
5926 1 40.7176 49.3976930759 36.6466
6656 1 52.0343 46.6546930759 35.3753
5788 1 47.3426 47.2626930759 34.5287
3994 1 47.9152 48.3546930759 38.3705
1785 1 51.5614 48.1656930759 39.2437
4045 1 40.5556 47.9116930759 34.2182
5240 1 36.0041 46.5766930759 35.8735
6913 1 43.0026 49.0056930759 33.9955
1358 1 51.0457 49.0636930759 34.5197
4648 1 37.1138 53.8286930759 40.9725
4372 1 49.652 46.1556930759 38.7265
4883 1 46.0244 45.0016930759 39.7271
4531 1 43.7519 49.1850316911 39.4073
6125 1 35.4945 45.3760316911 40.0165
4522 1 46.0495 47.8540316911 40.3716
2721 1 32.8802 53.3896930759 38.8209
239 1 40.4714 45.3836930759 41.0068
6053 1 48.5433 44.8826930759 41.0207
6980 1 53.947 53.7346930759 39.6293
1690 1 48.5448 43.0096930759 32.6196
2734 1 39.7944 51.5526930759 32.5314
3589 1 42.2407 55.5390316911 49.3155
7326 1 46.1726 53.0726930759 42.5673
4056 1 32.6939 52.3660316911 47.2883
805 1 44.445 50.9260316911 43.1336
1677 1 54.2687 54.4663703063 48.8004
2257 1 33.7698 51.9316930759 43.208
3346 1 43.4055 48.7720316911 47.5745
219 1 46.6125 54.9580316911 47.5047
5737 1 47.8911 52.9000316911 48.9591
5270 1 40.7937 54.6226930759 42.7429
4582 1 50.1779 51.8270316911 45.423
3973 1 33.6058 45.4690316911 43.2557
743 1 48.7158 53.4070316911 43.8013
7845 1 37.8118 46.3706930759 41.2419
3106 1 52.7357 50.1820316911 48.0645
1371 1 46.6162 48.9700316911 42.7416
2618 1 52.4375 50.4760316911 45.3708
3695 1 39.4705 51.7470316911 46.0122
6698 1 47.7992 49.9710316911 45.2937
6728 1 46.0185 48.4030316911 48.5286
432 1 35.7505 49.6920316911 45.0862
6261 1 36.5964 48.1670316911 47.2822
3898 1 35.7277 54.2246930759 46.1506
2703 1 50.6496 55.8870316911 47.0736
5864 1 40.5731 48.9820316911 48.2681
1041 1 33.5491 54.3410316911 44.4626
5667 1 48.4405 55.6830316911 45.5692
6810 1 41.234 53.7360316911 45.2689
7309 1 43.7875 52.7980316911 45.2159
3905 1 39.3658 51.4250316911 48.8726
5066 1 43.5575 51.6323703063 47.7029
1545 1 44.6678 55.5410316911 45.7071
2874 1 37.0488 52.1340316911 44.9565
2980 1 50.2804 53.3410316911 47.724
6086 1 52.2038 52.5010316911 41.5624
1786 1 46.4211 51.0310316911 47.508
2474 1 42.1986 49.2350316911 43.3151
6425 1 34.8225 53.6980316911 48.7444
7530 1 39.523 49.6350316911 44.1363
6709 1 51.1221 47.8400316911 48.5925
4467 1 50.3461 54.4706930759 41.8993
3563 1 54.0663 51.9180316911 43.6414
5245 1 36.9378 48.7300316911 42.6962
776 1 48.6143 48.2100316911 47.2115
4632 1 36.2961 51.5256930759 42.218
6062 1 38.4189 56.2520316911 48.0376
7994 1 39.3631 49.9180316911 41.211
5528 1 37.6482 53.8860316911 49.2874
1700 1 48.8251 47.1390316911 42.6322
5810 1 51.5735 47.2650316911 41.8482
4155 1 53.2988 45.1110316911 41.5573
1368 1 49.7282 46.5080316911 45.3005
439 1 45.547 46.6490316911 43.8146
2778 1 33.1266 50.3860316911 45.3112
1017 1 34.4731 47.3780316911 41.5107
5300 1 39.0651 47.8680316911 46.1035
700 1 52.0149 48.0340316911 44.4977
4807 1 43.334 47.5340316911 45.1095
7595 1 41.0671 55.8800316911 46.8036
7144 1 46.7938 56.7770316911 49.5357
2856 1 52.3675 52.6680316911 49.2663
6553 1 34.4274 46.5050316911 47.7102
2457 1 37.0208 49.9630316911 49.3173
5896 1 54.0915 46.5450316911 45.6613
1510 1 40.8352 52.4556930759 41.0628
2152 1 47.3462 55.2833703063 55.8855
661 1 44.1786 57.2000316911 50.5558
6744 1 48.9224 57.1260316911 51.3691
6696 1 42.7326 52.9370316911 50.0142
7557 1 39.7044 56.2820316911 56.669
1261 1 50.201 56.5923703063 54.0143
6128 1 40.5913 56.5910316911 51.1905
3197 1 43.3024 58.1943703063 57.1734
67 1 44.8907 54.4583703063 56.6867
3921 1 41.7139 57.8100316911 53.3724
4722 1 44.9356 56.1580316911 53.0649
5712 1 47.7234 57.6983703063 57.0295
6619 1 36.8455 55.8053703063 56.9361
2566 1 34.0034 56.5173703063 56.7886
4300 1 52.7809 57.0253703063 52.7282
5489 1 36.8846 56.8410316911 52.8739
4590 1 43.1113 56.1343703063 55.2307
7962 1 40.9696 54.0303703063 55.2859
7649 1 43.2454 48.0173703063 51.9816
5518 1 45.0318 51.7273703063 56.2832
5168 1 51.6241 48.0430316911 51.2775
6332 1 39.5358 52.9233703063 53.2893
6423 1 50.8379 53.9703703063 54.5405
2219 1 40.4165 49.7013703063 55.6764
3334 1 52.7121 49.5063703063 54.8756
5734 1 36.8851 49.1403703063 53.5961
5941 1 34.774 52.5200316911 52.6788
1012 1 34.6164 55.2850316911 52.7674
3366 1 52.0179 52.5233703063 52.0827
1577 1 45.9664 48.6263703063 51.3166
1891 1 47.5926 55.2057089215 53.0267
2297 1 39.6001 52.1637089215 56.7595
373 1 38.051 48.2580316911 51.2612
3073 1 40.6631 47.4860316911 50.5388
5850 1 37.1575 52.9933703063 56.5184
7871 1 41.7999 49.9923703063 53.3421
2454 1 54.2224 47.7590316911 51.5526
2146 1 47.127 52.8300316911 51.5975
6387 1 47.7073 51.1043703063 55.6006
7872 1 34.9868 51.3640316911 50.1682
6607 1 50.8079 50.1573703063 52.8592
6067 1 44.5621 53.5930316911 52.1378
5305 1 37.065 51.8853703063 54.0119
1023 1 49.1105 53.2903703063 56.5162
32 1 40.7566 51.4483703063 51.3542
2158 1 38.473 54.9690316911 51.7392
6418 1 47.8997 50.4920316911 52.8244
1205 1 53.3045 54.1423703063 55.8476
20 1 32.787 49.6040316911 49.9312
7633 1 43.1401 52.2633703063 54.2998
2691 1 50.1811 58.6023703063 56.2123
5705 1 37.0485 58.2560316911 55.2448
6533 1 33.1897 55.4760316911 50.2268
7493 1 53.3035 56.8350316911 50.101
3281 1 48.5638 48.7783703063 56.6692
778 1 33.9424 50.2173703063 58.0153
4330 1 47.8436 57.4187089215 59.7567
7296 1 35.5348 59.4145104678 65.0844600594
6592 1 53.3772 59.6752718527 65.5093800594
897 1 45.3377 53.1037089215 64.9102
1667 1 35.0065 54.6409718527 62.9706300594
6783 1 41.5937 49.3787089215 58.275
4964 1 49.4063 60.9587089215 65.9521
5947 1 50.2029 53.5147089215 64.7951
2119 1 40.055 53.2957089215 66.3711
7825 1 44.0105 50.6463703063 58.6882
689 1 40.587 56.2823703063 59.1492
6114 1 38.6588 52.5744104678 64.0816800594
3072 1 40.3499 54.5989718527 62.9796100594
4823 1 47.0171 56.1047089215 63.3137
1945 1 52.0516 56.5677089215 61.7315
4523 1 35.9961 52.2097089215 63.5586
2136 1 38.8285 57.0437089215 63.1202
1866 1 43.134 57.0367089215 59.5843
2181 1 43.5924 58.4127089215 62.1058
3431 1 35.0015 54.5117089215 60.1078
88 1 48.5446 58.3945718527 63.3014500594
3301 1 40.0556 51.4817089215 59.4516
4959 1 44.5638 57.0297089215 64.3039
917 1 34.7182 59.1383703063 60.4928
7158 1 44.9357 54.9683703063 59.393
5495 1 39.898 59.0597089215 64.5765
2109 1 53.1532 56.7729718527 66.0662500594
6443 1 47.6332 54.5267104678 65.4137900594
3347 1 50.2678 58.3977089215 60.9598
5034 1 47.3581 54.8447089215 60.8436
538 1 36.3767 56.6998104678 64.2709900594
3296 1 42.0651 60.2207089215 63.3713
2451 1 37.8308 60.9003718527 64.8953800594
5388 1 42.9133 54.5687089215 64.1447
2471 1 51.9768 54.3570718527 60.0201400594
6963 1 34.2612 60.4477089215 62.962
2364 1 45.9895 59.2353703063 60.8164
6521 1 49.2727 58.2654104678 66.0048200594
2093 1 54.0474 53.4213718527 62.7437000594
1454 1 52.2594 55.1347089215 64.093
3158 1 38.7342 57.7877089215 60.437
892 1 36.2358 56.9267089215 59.6317
5551 1 42.6382 51.9547089215 62.8901
450 1 52.2893 51.6632718527 61.1775600594
6645 1 49.1935 51.1917089215 60.8972
6651 1 49.4229 53.5220718527 59.2747800594
6823 1 43.6121 52.7707089215 60.4869
5067 1 35.6987 52.2747089215 58.5781
2931 1 45.9288 52.7067089215 62.1275
319 1 33.2987 50.7797089215 60.6092
2108 1 37.4788 50.3337089215 59.4266
2383 1 40.9303 53.8347089215 60.4343
4792 1 41.7645 55.3380475366 66.5271
1308 1 40.1523 50.8897089215 62.1869
5758 1 50.6641 51.2077089215 63.4498
469 1 53.8469 55.1157089215 58.2115
1694 1 35.7697 50.2577089215 61.6986
6088 1 53.8418 49.6547718527 59.9239100594
6918 1 45.3653 61.0637089215 66.3376
3757 1 32.5799 55.8413703063 58.9516
7299 1 40.0943 47.2940370688 0.8294399406
3998 1 41.502 49.3580370688 -0.4324600594
1206 1 36.3541 44.4574386152 2.91779
5195 1 51.1176 48.1900370688 2.5685399406
6474 1 42.0478 48.2146386152 5.90028
2628 1 34.1061 50.149 0.866586
1571 1 38.0879 43.3300370688 -0.8986600594
7650 1 38.4206 48.8660370688 2.2912399406
2495 1 39.6075 52.1760370688 6.2843399406
6617 1 48.5734 48.508375684 3.3146399406
1350 1 37.187 45.7096772304 5.27104
6475 1 52.8247 49.6902386152 4.15757
2996 1 42.6287 49.9069386152 3.76198
4135 1 38.0761 46.1130370688 -0.9222600594
4430 1 33.3383 51.6360370688 -1.2479600594
5819 1 43.8541 47.530375684 3.0055399406
1359 1 50.713 49.2180370688 0.0770399406
6158 1 47.6456 46.7840370688 1.1310399406
3630 1 53.6478 45.3495386152 5.98419
3067 1 47.6794 51.0410370688 3.5340399406
177 1 45.4474 47.514375684 5.3132399406
1854 1 33.8311 44.7551386152 4.33167
6915 1 35.5857 49.8110370688 5.8247399406
4929 1 41.833 45.6830370688 2.4398399406
970 1 44.1578 50.1224 0.358872
5263 1 37.8642 48.3582386152 4.89089
5153 1 49.3547 51.3022386152 1.30404
5486 1 33.847 45.1381 -1.06994
4604 1 33.7132 47.2529386152 0.944677
2005 1 36.5109 46.905375684 1.2771399406
6794 1 51.8066 45.4692386152 2.50577
7915 1 53.4389 49.3288386152 -0.688837
6202 1 46.9001 51.2810370688 -0.0938600594
2580 1 40.4861 50.651 2.00497
7983 1 51.6426 44.830375684 -0.1503600594
7238 1 49.832 46.713375684 -0.7812600594
2593 1 36.6039 50.9423 1.51242
2025 1 44.9295 51.1534 2.97487
245 1 37.3802 50.983 -1.19264
6657 1 43.6216 44.9520370688 0.3885399406
5443 1 44.9952 47.3311 0.388391
5628 1 41.732 45.5422386152 5.19265
1266 1 52.0202 51.4917386152 6.29255
6829 1 33.2397 48.2425386152 5.58504
3782 1 48.2496 47.2983386152 5.65956
2637 1 43.8363 54.0220386152 6.14811
6149 1 47.7223 44.0339386152 1.67352
3601 1 34.9933 52.383375684 5.2792399406
7638 1 44.5223 53.8230370688 3.5471399406
4762 1 42.2608 51.7170386152 6.03772
7637 1 36.5798 53.0070370688 3.1702399406
1976 1 53.2762 52.0181386152 2.76817
6256 1 50.646 53.6947386152 4.80889
6828 1 43.2261 53.0120370688 0.1502399406
7798 1 39.2138 52.5380370688 3.6513399406
6399 1 48.0596 53.1193386152 5.51564
1859 1 50.9698 53.4862 1.91968
6347 1 34.7116 46.0246772304 6.76238
5409 1 39.512 49.4670370688 6.5886399406
5071 1 35.6141 43.5087 0.364611
660 1 54.1234 44.9947 -1.48356
549 1 48.5505 44.5706772304 4.25316
5629 1 44.0125 56.9256772304 14.9893
2190 1 41.3032 50.3271386152 10.3136
1404 1 46.541 48.1636386152 9.08418
4856 1 53.0958 51.7696772304 10.2284
7604 1 53.0971 49.6636772304 8.36289
1906 1 40.1126 47.4076772304 12.96
3603 1 42.8126 46.3346772304 9.03247
3168 1 36.9538 48.4183386152 9.85048
601 1 50.8954 48.2246772304 12.0767
5179 1 39.4836 48.4637386152 9.06577
4002 1 48.852 48.8270386152 7.77492
642 1 44.5278 48.1196772304 12.8386
533 1 35.0896 47.6616772304 13.2166
4818 1 44.2489 48.4452386152 7.57866
210 1 50.9165 47.8246772304 9.27393
1716 1 42.0797 49.2076772304 12.7055
6567 1 44.8853 52.6728386152 9.62205
1233 1 38.6558 54.6286772304 14.5739
6964 1 46.3229 55.2066772304 15.2601
3358 1 50.6038 51.9106772304 14.2267
2452 1 35.6519 51.8446772304 14.8872
7320 1 50.8529 56.2936772304 14.3646
3292 1 36.0423 56.7206772304 13.3801
133 1 40.2082 52.8976772304 10.4274
507 1 40.7697 53.4400386152 13.1915
7462 1 51.2261 55.5430386152 10.0263
2037 1 43.8842 55.0966772304 10.5492
393 1 49.4078 51.5459386152 7.57752
1387 1 34.0347 51.0446772304 9.88182
7987 1 33.3508 49.3176772304 11.9728
2272 1 48.9734 52.9346772304 12.1966
3033 1 52.2981 50.4326772304 12.6178
111 1 37.3242 53.1466772304 11.2398
7981 1 33.2809 51.4236772304 13.751
1006 1 48.374 55.3846772304 13.5364
2711 1 46.615 49.4266772304 11.6267
5981 1 43.0239 55.0796772304 13.1004
1317 1 37.6491 51.0546772304 13.4247
7513 1 48.3807 48.4156772304 13.4205
3467 1 35.349 54.0111386152 7.61159
1488 1 34.8579 53.8424386152 10.2879
5878 1 46.1751 54.1097386152 7.55194
4554 1 50.4561 52.7626772304 9.88647
3385 1 36.2211 50.5815386152 8.37858
3244 1 38.823 55.4054386152 8.32632
2047 1 37.7404 48.5383386152 12.3493
4402 1 43.3245 50.7978386152 8.39986
2956 1 41.9931 51.3135386152 14.3733
66 1 37.8969 52.8112386152 8.40256
3947 1 44.8844 53.1966772304 13.9861
5138 1 33.8386 55.7886772304 11.8368
1526 1 46.2937 52.1066772304 11.9139
5886 1 38.2537 55.7236772304 11.8132
4084 1 41.2868 55.4255386152 9.57389
125 1 35.6243 46.0874386152 9.50835
4451 1 40.871 56.8098386152 12.0369
1843 1 52.4869 56.6546772304 12.2165
76 1 40.1041 45.8787386152 8.86267
7509 1 53.9384 53.3045386152 7.07382
5709 1 53.0856 55.6572386152 8.10438
7627 1 35.7645 54.6406772304 15.208
1295 1 39.4848 50.5370158455 15.3358
5576 1 50.9921 52.6733544607 23.8286
5784 1 47.5093 58.4470158455 22.7815
4763 1 54.0933 57.4836772304 22.7245
3729 1 48.6952 55.9130158455 22.4719
3349 1 44.0937 57.6136772304 19.9086
4674 1 41.9025 57.5860158455 21.6626
5641 1 50.3332 58.5386772304 19.1112
4563 1 35.1485 57.5860158455 18.6826
1351 1 35.518 56.8130158455 22.9437
4791 1 37.2124 57.5470158455 20.8318
7894 1 54.1498 50.3056772304 22.0485
4279 1 54.0936 51.1726772304 17.1957
6634 1 47.8315 58.3940158455 19.9772
6792 1 33.7177 58.8860158455 22.304
5074 1 39.7873 47.7686772304 15.6678
5881 1 48.3225 49.6543544607 22.2824
6950 1 50.4814 48.4940158455 16.9214
71 1 32.9709 50.5940158455 18.2373
1799 1 46.7522 48.7356772304 16.9643
7868 1 50.1288 54.9130158455 17.902
4122 1 51.6621 53.9236772304 15.6386
2582 1 47.9413 52.0060158455 17.4363
2993 1 39.3103 51.4236772304 17.9392
4919 1 43.6074 52.4186772304 16.4248
5389 1 53.3652 53.0423544607 22.2569
4245 1 38.5389 55.1700158455 20.0259
5391 1 39.3829 53.9706772304 17.3674
158 1 34.3168 54.9390158455 20.9894
4845 1 35.4826 48.0490158455 15.973
5111 1 45.5016 51.0616772304 18.1361
6801 1 50.5505 56.0860158455 20.4554
901 1 51.5218 57.3011386152 17.0134
7772 1 37.1093 55.7966772304 17.6255
7520 1 35.3577 50.4866772304 17.159
1819 1 51.9306 50.2546772304 18.5989
5236 1 41.4498 54.9506772304 20.4227
6065 1 53.0128 55.5610158455 21.1506
1518 1 36.8933 51.1626772304 19.2907
6033 1 46.6561 53.9810158455 21.758
2659 1 46.2133 56.0196772304 19.9291
3783 1 32.9696 55.6770158455 18.6493
4009 1 33.097 54.9890158455 15.8901
2873 1 50.0306 52.3176772304 19.1561
7694 1 43.0035 56.8056772304 17.5761
7550 1 39.6111 53.5840158455 22.3747
3238 1 49.0991 52.2890158455 21.8067
2554 1 36.5981 53.1970158455 21.308
4340 1 44.957 51.9366772304 20.6433
7245 1 42.1331 54.3286772304 17.8174
535 1 42.3845 52.5960158455 21.5744
1835 1 40.0933 56.0350158455 23.4025
7346 1 40.9809 50.6630158455 20.0312
4514 1 47.2462 54.5796772304 17.7179
6618 1 54.0354 53.9206772304 16.9658
6095 1 38.6654 57.1906772304 15.8669
6767 1 52.179 59.4550158455 23.5002
2379 1 54.0849 57.6926772304 17.8595
7619 1 48.8168 50.1860158455 15.5246
5449 1 43.0 58.7290158455 23.8367
1673 1 44.1792 50.4723544607 23.7084
4663 1 50.6122 61.1293544607 28.1884
1908 1 46.9215 59.1183544607 31.9248
5635 1 32.6588 59.4063544607 32.1289
7697 1 44.15 57.6710158455 27.9761
5610 1 45.7935 54.6293544607 30.7821
4643 1 39.607 52.5543544607 24.9016
6458 1 45.9972 53.3253544607 26.7037
6287 1 37.5459 52.6463544607 28.558
4704 1 51.187 52.9903544607 26.76
3646 1 41.8838 52.9283544607 26.5064
3773 1 37.7262 53.9740158455 26.1534
4760 1 51.7323 50.4783544607 25.4661
2860 1 34.0311 54.8330158455 24.4814
472 1 40.5774 58.1603544607 29.9612
5699 1 37.7512 57.2730158455 24.3723
1409 1 38.8302 59.7490158455 24.0476
6536 1 37.5182 56.6950158455 27.0553
1372 1 46.8399 61.8643544607 30.6598
7044 1 44.162 53.1563544607 32.3893
1441 1 49.0956 52.4836930759 30.3613
1280 1 50.402 54.4963544607 31.765
4440 1 43.3021 60.1330158455 27.3398
206 1 36.2988 58.0960158455 30.8879
520 1 41.3218 60.6340158455 29.1738
5593 1 48.7431 53.7133544607 27.8413
7754 1 52.0827 57.2430158455 25.5295
7674 1 36.5311 58.9650158455 28.2858
160 1 53.0936 57.3233544607 31.0677
5704 1 47.8129 55.7063544607 26.1966
2303 1 34.2423 59.2390158455 26.605
501 1 37.8105 54.8626930759 30.2389
2121 1 44.1854 54.7923544607 28.4963
887 1 52.1867 57.4153544607 28.3646
737 1 41.1699 55.7243544607 25.8633
1410 1 41.439 53.9963544607 28.9588
7748 1 47.0999 57.8033544607 27.7166
1043 1 34.7299 56.5350158455 26.5017
7708 1 47.4918 56.9293544607 30.4659
3027 1 33.4514 55.6253544607 28.74
3336 1 39.8356 56.1193544607 28.3346
5184 1 42.2957 55.1313544607 31.5226
5420 1 43.5561 56.7240158455 25.4747
5831 1 37.0359 62.0713544607 32.1508
4246 1 53.2609 53.6313544607 28.5083
4983 1 35.1614 55.4973544607 30.851
7000 1 53.2809 54.5343544607 31.1738
6635 1 48.4761 60.1320158455 26.8132
2591 1 49.8652 55.9003544607 29.3445
2608 1 52.9507 59.9373544607 28.021
3082 1 43.3185 57.5853544607 30.5705
1706 1 50.3039 55.2763544607 24.8314
2654 1 45.6298 54.9250158455 24.3394
5822 1 49.933 61.8753544607 30.7525
4306 1 49.4299 59.9020158455 24.0961
356 1 35.0222 50.4723544607 24.7818
6419 1 33.5424 51.1103544607 27.0017
291 1 39.0184 58.3493544607 32.3313
1137 1 36.0381 52.8680158455 24.1157
5451 1 43.4516 53.1183544607 24.2107
1049 1 35.3507 51.3483544607 29.0205
3784 1 39.9024 51.6913544607 29.7125
5105 1 35.992 62.7303544607 38.0847
348 1 39.9596 62.0003544607 35.1446
6239 1 42.5501 62.2613544607 35.6907
7175 1 33.6199 61.3366930759 37.5122
4927 1 40.5869 61.0336930759 39.0597
283 1 46.5704 62.9876930759 39.4279
2950 1 40.7209 63.8056930759 38.8061
324 1 35.8902 61.5496930759 40.5322
5458 1 49.2832 61.5336930759 35.3021
572 1 51.2522 62.9786930759 36.9121
4220 1 44.3218 59.1223544607 32.5786
2943 1 52.2533 53.3076930759 33.6915
5202 1 48.8947 62.8186930759 40.7834
4533 1 49.4432 56.2586930759 33.8434
985 1 37.141 58.6043544607 34.6068
7665 1 40.6346 55.4333544607 38.0007
2444 1 49.4222 60.1520316911 40.4681
2890 1 41.2174 54.2836930759 35.5858
5921 1 38.5468 57.2346930759 37.7281
7591 1 33.0909 58.9366930759 38.6779
3205 1 39.5125 59.5906930759 36.8886
4779 1 42.5504 56.9266930759 39.1975
5232 1 53.1013 55.6396930759 37.5312
7892 1 33.9302 61.5093544607 34.725
6605 1 43.8333 53.9346930759 34.9834
1826 1 51.3076 58.3553544607 33.0731
1279 1 49.074 53.6996930759 36.995
2234 1 42.901 59.6216930759 39.4419
2284 1 44.8866 56.0546930759 38.359
848 1 49.3147 60.2776930759 32.8002
1968 1 50.3386 59.0296930759 38.0252
3966 1 43.6768 58.3123544607 35.0339
2277 1 52.6355 60.4366930759 37.0297
7675 1 34.7408 55.0056930759 40.1486
1104 1 43.508 61.6583544607 33.125
6160 1 36.5061 56.4523544607 36.0837
1235 1 36.3813 53.9703544607 34.7789
6420 1 40.3794 55.8103544607 33.4019
1487 1 40.8302 58.3313544607 34.6893
35 1 48.1679 59.4536930759 36.469
5987 1 48.951 55.1416930759 39.5177
2009 1 46.2479 60.5056930759 38.2323
5636 1 34.3461 56.5836930759 37.8007
6583 1 46.6652 56.5136930759 40.3809
3456 1 47.1594 57.9336930759 34.4268
4961 1 43.904 60.2056930759 36.9133
2732 1 47.6141 54.4796930759 34.9279
5217 1 52.6274 60.6423544607 34.1364
4371 1 51.2614 56.8906930759 39.4062
2163 1 37.9659 57.8776930759 40.2619
4297 1 51.1981 54.9513544607 35.7179
6008 1 37.1967 61.2483544607 36.1126
349 1 35.3653 58.9893544607 40.2571
1747 1 45.3882 56.2346930759 35.6646
1150 1 34.2388 53.9883544607 32.941
2668 1 46.7379 59.2476930759 40.7888
43 1 38.5568 54.1123544607 32.7791
1070 1 54.2956 58.1716930759 37.1613
4798 1 50.5663 64.3586930759 39.2669
3931 1 35.2872 59.9503544607 32.8965
5293 1 39.5915 61.0093544607 32.6659
5181 1 53.2638 62.5976930759 40.695
4727 1 39.1869 64.3936930759 40.9577
4503 1 51.9995 65.8320316911 48.5637
7066 1 43.3177 58.9970316911 48.6049
3703 1 44.2897 60.8886930759 41.5007
742 1 53.8727 58.7550316911 45.7764
6464 1 35.6485 62.1316930759 45.5302
6738 1 48.8728 58.0640316911 44.1243
7342 1 39.9988 60.6100316911 45.7429
3788 1 39.6517 59.8566930759 41.3375
4145 1 42.483 64.5776930759 43.4896
623 1 43.8213 60.0090316911 44.2946
2148 1 49.492 60.2710316911 45.7315
354 1 38.9615 60.8440316911 48.1598
7807 1 37.6734 60.4880316911 44.4306
3253 1 44.0461 64.6470316911 47.0231
860 1 51.7333 60.6316930759 41.9132
2857 1 34.1209 64.0530316911 46.7715
4573 1 45.0418 61.9890316911 46.0451
7996 1 53.1584 60.2760316911 48.0748
289 1 52.8459 63.3610316911 44.9123
814 1 38.1629 61.9696930759 42.1613
3675 1 48.3863 64.1280316911 47.8388
47 1 41.3698 63.8580316911 47.4066
3652 1 33.6623 62.5606930759 41.9199
547 1 50.4335 59.9060316911 48.5004
2209 1 47.7816 62.2800316911 45.7301
5086 1 42.0716 62.2986930759 45.0221
4621 1 37.7792 67.0590316911 48.973
6471 1 48.8027 63.5860316911 43.3667
3733 1 34.7607 58.8020316911 47.7991
4715 1 51.9094 60.7436930759 44.6481
7148 1 36.2752 60.9720316911 47.859
6681 1 33.6584 60.5516930759 43.9842
1135 1 53.0607 63.2180316911 47.9533
1260 1 39.6316 66.1706930759 47.0963
3124 1 36.9457 63.9396930759 43.7527
7332 1 32.7311 60.0960316911 46.5892
2424 1 41.743 58.5776930759 42.8064
3770 1 45.4525 60.7670316911 48.4811
1025 1 50.7967 65.0210316911 44.403
5410 1 46.4627 65.6000316911 46.1122
1040 1 50.4395 62.7510316911 49.1394
1274 1 46.5416 65.0986930759 43.3064
7370 1 38.511 55.8810316911 42.1637
7340 1 52.7272 56.2090316911 45.4544
5375 1 50.7875 57.3530316911 49.3479
5537 1 52.858 58.1220316911 41.4351
4969 1 33.5492 56.1946930759 42.3705
2864 1 45.3271 55.7210316911 42.8083
3321 1 47.6997 59.2900316911 48.7637
3162 1 35.0774 58.3636930759 43.031
7454 1 49.9833 66.1800316911 46.8508
7664 1 36.2939 56.8820316911 46.4625
7883 1 37.5132 57.7330316911 44.1827
2545 1 40.3522 57.9380316911 45.1175
7428 1 42.6884 56.1796930759 41.8396
5397 1 51.1766 56.6660316911 43.2397
6831 1 46.164 58.3270316911 43.4376
3950 1 43.1451 57.8900316911 46.1837
2 1 35.5292 65.2710316911 48.9965
2305 1 44.6687 63.6810316911 41.5792
5008 1 34.2816 65.1776930759 42.8636
1456 1 47.1455 63.2100316911 56.0986
975 1 40.5067 62.5910316911 49.7686
1493 1 44.3328 65.1160316911 49.659
6210 1 49.6122 67.9290316911 51.8181
2207 1 39.3529 65.8400316911 56.0881
1995 1 50.2533 60.9490316911 52.7729
2150 1 36.4326 66.5303703063 53.7163
5095 1 46.1359 68.3340316911 54.4693
7194 1 40.0142 68.5523703063 55.0271
1364 1 44.204 67.6580316911 56.358
1990 1 52.9701 66.5013703063 54.9552
1000 1 50.9897 65.9083703063 56.8434
4844 1 48.4835 66.8203703063 56.575
7787 1 33.9134 67.5063703063 53.7912
151 1 43.7331 67.5573703063 50.78
3375 1 34.2873 58.1050316911 50.3783
5505 1 51.9903 66.7350316911 51.0663
2854 1 49.5173 61.5090316911 55.5624
7794 1 50.4837 63.4343703063 51.7579
865 1 45.0848 61.8640316911 55.2636
632 1 37.0551 61.4833703063 52.0141
4834 1 48.3576 65.3340316911 52.2864
3617 1 42.6423 63.7610316911 51.2884
3317 1 33.2666 60.4040316911 54.1164
5603 1 39.6081 60.6200316911 52.9806
2828 1 38.3315 66.4693703063 51.6527
4385 1 43.7038 59.3293703063 52.2378
6646 1 46.1759 58.5560316911 53.4838
1638 1 52.7744 64.7803703063 52.7399
982 1 33.4779 59.1483703063 56.5652
7220 1 38.7647 63.7760316911 51.5957
5272 1 36.6701 58.8900316911 51.0938
932 1 40.4561 62.1553703063 55.3696
6922 1 52.7893 59.7460316911 52.765
6768 1 46.8845 65.6800316911 54.5948
841 1 36.0196 60.4863703063 56.262
4163 1 40.2726 64.5020316911 53.8744
1430 1 41.3052 59.9780316911 50.6866
3031 1 35.5614 62.6500316911 49.9759
4867 1 44.2018 62.0090316911 52.543
6087 1 35.4966 62.3520316911 54.1975
4302 1 44.0698 65.5063703063 54.6869
4111 1 38.0744 62.3353703063 56.7503
1253 1 45.6304 59.2643703063 56.2537
2738 1 37.1801 68.6883703063 55.3096
2115 1 36.7188 64.6243703063 55.7552
1521 1 51.3314 63.1273703063 56.9192
5590 1 42.239 66.0163703063 52.7035
3926 1 48.016 59.9120316911 51.6494
312 1 53.9617 62.2073703063 56.9387
52 1 46.3773 62.0200316911 50.8193
7596 1 42.9224 63.3783703063 56.1489
2144 1 41.1525 60.1243703063 57.1432
3662 1 33.0351 63.3440316911 53.3517
1238 1 46.9064 64.5293703063 50.0939
308 1 33.1654 68.9253703063 56.1366
3798 1 38.9341 58.4400316911 49.7596
2436 1 34.841 65.3783703063 57.7424
5865 1 39.8479 58.6820316911 55.1643
4697 1 33.4665 66.8560316911 49.5916
6310 1 32.7046 62.7020316911 50.6561
3132 1 36.781 68.9663703063 57.9514
1955 1 41.9732 69.1180316911 56.6283
5504 1 50.2285 61.2237089215 61.9125
4212 1 43.9907 64.0777089215 62.903
2244 1 35.6631 68.0133703063 61.8684
4695 1 38.0365 67.0872718527 63.3544300594
4837 1 37.7753 62.3497089215 59.6209
5492 1 47.4688 61.0637089215 62.4378
4409 1 51.2204 59.6233703063 58.5405
5419 1 35.169 63.0417718527 63.1850100594
5838 1 53.307 67.6954718527 64.7697100594
3391 1 33.5358 67.2083703063 63.6479
931 1 41.7393 63.8913703063 61.3159
4363 1 38.3933 65.1263703063 60.0541
97 1 40.5048 66.2413703063 58.5617
3944 1 47.5799 65.8837089215 61.7701
5872 1 51.1859 66.3493703063 59.4912
2844 1 37.1091 67.2338718527 65.9014200594
6188 1 39.4398 64.5732718527 62.5818100594
4376 1 44.1415 66.4857089215 64.2678
7896 1 33.2781 69.3673703063 60.9635
6039 1 40.0655 68.8563703063 63.7735
2100 1 35.0176 65.3098718527 65.0017200594
6328 1 41.7151 67.1347089215 65.1701
6652 1 39.5868 60.2573703063 59.5085
5162 1 37.1363 70.4073703063 61.8943
2895 1 44.0215 69.2240316911 60.0484
1476 1 42.8439 64.6033703063 58.8032
6431 1 50.8971 64.0303703063 61.1919
7420 1 45.5605 67.8343703063 62.0636
635 1 52.7467 69.2483718527 62.1659900594
5565 1 47.6211 68.8427089215 65.8783
4733 1 40.0701 64.9207089215 65.2471
885 1 46.1809 63.3843703063 61.4618
7732 1 40.0173 70.5113703063 61.5967
5395 1 49.1806 69.5843703063 62.2281
1637 1 53.6303 64.1223703063 61.4947
2903 1 53.3961 68.1383703063 59.5034
5227 1 48.0739 64.7967089215 65.4552
3440 1 47.2488 65.8973703063 58.8421
6014 1 49.8813 65.2733718527 63.3937500594
5966 1 46.0401 66.5097718527 66.1053400594
1132 1 50.3625 69.4347089215 65.8963
6171 1 36.3778 66.6793703063 59.5244
2581 1 50.794 67.9163703063 63.7162
3674 1 44.6823 66.7953703063 58.8473
5999 1 48.7845 67.8963703063 60.0319
4535 1 51.7964 64.0688718527 65.0433000594
5135 1 41.2846 68.9623703063 59.2879
4489 1 46.6931 69.8713703063 63.5868
1198 1 35.4867 61.0443703063 58.8816
2338 1 37.7999 62.2807089215 62.4281
1972 1 47.3679 62.9913703063 58.9104
1072 1 51.4238 61.4787089215 64.3533
2559 1 33.7248 63.1353703063 58.955
1608 1 45.6113 60.7693703063 58.7026
5340 1 50.1314 62.1723703063 59.1286
7711 1 41.6509 61.3643703063 60.7591
7519 1 32.8428 63.4957089215 61.5927
2066 1 43.4676 62.1287089215 64.7578
1980 1 53.9942 60.3097089215 58.8058
2426 1 47.3432 62.2222718527 64.8907100594
414 1 43.0968 61.7153703063 58.4082
6037 1 39.9632 70.0817089215 66.3693
2313 1 41.8102 63.2770718527 66.4917100594
4720 1 34.2625 69.8593703063 58.5468
1983 1 33.0379 71.0323703063 62.9262
1508 1 72.7239409857 18.2183386152 6.37375
2906 1 64.8207 21.187375684 0.3288399406
826 1 62.9094 14.1019386152 0.887232
1083 1 62.3529 18.1267386152 0.24861
6031 1 59.5504 19.0616772304 5.83065
613 1 57.1625 17.993375684 2.0747399406
936 1 62.0708 16.361375684 2.3820399406
6538 1 59.7397 15.3624386152 -1.30443
5287 1 57.6975 17.0447386152 4.66142
4991 1 54.6524 12.8580370688 0.2168399406
3473 1 64.1198 17.6536772304 3.70111
1223 1 64.9402 18.4311386152 1.15314
6100 1 62.3386 22.0437386152 0.697732
4380 1 65.9953 15.988375684 4.7589399406
3051 1 68.2432 18.8308386152 3.8784
7336 1 56.7409 13.721375684 1.8221399406
2091 1 55.2793 15.417375684 -1.0608600594
5609 1 66.638 20.8176772304 2.73192
6453 1 73.4142409857 14.5504386152 4.46031
2751 1 69.0548409857 16.289375684 -0.1312600594
246 1 71.4873409857 16.5316386152 4.40031
3461 1 60.3966 20.3086386152 -0.129989
3837 1 58.3593 20.530375684 1.7825399406
3723 1 75.3549 15.9513772304 5.63009
5368 1 66.299 16.7790370688 -0.5661600594
4243 1 69.9359 18.3926772304 1.50458
485 1 56.2272 14.6421772304 4.33894
5907 1 69.8626 21.0397386152 0.431713
1007 1 73.7566 20.5695386152 2.64853
5257 1 68.89 14.1947386152 5.85436
4966 1 73.8979409857 15.9966386152 0.51161
7956 1 65.233 14.200375684 -0.6765600594
6637 1 62.392 18.8906772304 5.38915
6159 1 73.9561409857 13.5979386152 1.91393
2819 1 60.9765 12.930375684 -0.6953600594
119 1 57.7685 15.908375684 0.4569399406
4519 1 74.8563409857 18.3476772304 4.19243
3683 1 72.6535409857 17.8449386152 2.11087
1239 1 68.6632 15.9221386152 3.72935
7902 1 60.3117 15.774375684 4.4131399406
6403 1 69.1541 14.323375684 1.5793399406
2111 1 67.8921 22.8236386152 6.38131
6807 1 60.927 22.952375684 4.9915399406
5905 1 56.7853 21.894375684 -0.1118600594
351 1 58.6412 21.4792386152 4.38119
4447 1 65.5273 22.1683386152 4.89097
3328 1 72.5246409857 22.016375684 0.6475399406
7234 1 56.1097 21.7714386152 5.44606
5088 1 74.0761409857 22.2564386152 5.08996
6788 1 63.0035 21.5380386152 6.00589
1610 1 75.1173 20.1236772304 6.48566
3016 1 68.2635 20.1316386152 6.36127
2905 1 55.06 19.5006772304 6.47915
2867 1 54.6262 18.7050386152 2.43085
2276 1 54.4453 22.8350386152 1.07476
3833 1 66.9622409857 12.7028386152 0.808582
458 1 68.3323409857 22.946375684 1.6149399406
1725 1 54.4829 21.2659386152 3.38735
250 1 64.4954 13.6256386152 4.75277
7094 1 76.1296409857 19.9132386152 0.972721
5378 1 67.0843 25.0676772304 10.4476
5519 1 63.0081 17.5676772304 7.64025
411 1 57.2268 17.8626386152 7.34929
3024 1 67.5527 14.8967772304 8.16679
2603 1 54.7916 18.6730158455 10.0978
3870 1 74.2679 16.6480158455 7.97028
5473 1 58.6721 15.6044772304 7.87726
3997 1 65.6758 16.9102772304 7.35083
4568 1 68.1175 18.0846772304 10.7557
2464 1 58.2207 16.7134772304 11.9422
5934 1 62.7627 16.3027772304 11.502
2347 1 69.5537 16.8202772304 8.8295
2319 1 64.7438 17.2030158455 13.2612
5277 1 61.3668 15.4961386152 7.08797
5073 1 54.9411 16.1978772304 8.65177
1739 1 56.19 16.2850158455 13.6754
6641 1 62.4603 18.7336772304 10.0573
1558 1 71.2997 21.3716772304 9.23584
3479 1 70.6066409857 19.1628386152 7.66046
4417 1 68.2371 24.4700158455 14.5399
1652 1 74.3126 22.8630158455 13.0054
2624 1 64.0039 22.3746772304 8.40398
7247 1 74.6038 18.3580158455 12.3644
5160 1 57.2421 23.8370386152 9.36297
7533 1 59.4314 22.1406772304 9.65102
6127 1 70.7495 25.1780158455 13.6722
2832 1 62.185 20.5880158455 14.6111
174 1 60.6006 17.1080158455 13.3416
4270 1 61.2094 19.5186772304 12.371
3892 1 67.6386 23.1130158455 12.2188
1100 1 72.15 17.3360158455 13.3554
5501 1 70.391 23.3726772304 7.54944
7036 1 58.0033 22.6430158455 14.233
7700 1 65.8995 19.5166772304 13.916
6667 1 58.6819 20.7480158455 11.9209
4040 1 75.1342409857 18.5417386152 9.6683
5965 1 55.8599 21.6510158455 12.826
1081 1 61.9181 23.5660158455 9.77652
3327 1 68.3299 18.6540158455 15.0229
6060 1 63.4272 22.9556772304 13.8831
6489 1 54.9142 22.8680158455 10.3454
4651 1 55.1145 18.8770158455 12.8672
3975 1 74.0209409857 20.8430158455 8.95361
6919 1 60.0255 19.7006772304 8.59518
6196 1 61.9291 24.7440158455 12.3382
717 1 69.9133 21.5126772304 11.7249
7103 1 71.6654 22.7356772304 13.6324
3611 1 57.6882 18.7396772304 10.1489
5098 1 75.1774 23.1670158455 10.3319
4007 1 59.3121 24.8260158455 13.1373
2606 1 69.8946 18.9286772304 12.6644
5767 1 65.3297 21.5476772304 12.2482
5721 1 75.4087 24.7710158455 14.7381
2719 1 66.6611 19.3222386152 8.47232
1491 1 75.5621409857 20.5506772304 13.7212
6933 1 65.9556 24.2101386152 8.15336
1997 1 71.842 15.3403772304 9.17981
483 1 64.7595 20.2806772304 9.90779
7063 1 59.4963 26.6950158455 15.0744
7388 1 75.8957409857 16.5119772304 13.783
7934 1 67.0274 16.0124772304 12.2724
1037 1 66.5946 26.4910158455 15.3225
2208 1 56.0515 24.1036772304 6.99658
6324 1 65.3753 26.7523544607 21.9953
7161 1 72.2471 25.7033544607 23.5771
1710 1 66.9455 25.7640158455 19.7842
3332 1 61.3716 18.2260158455 15.9977
7658 1 66.5418 24.5790158455 23.4726
3021 1 57.5236 25.4983544607 21.8556
201 1 73.0539 26.6350158455 19.8445
6540 1 70.8687 26.2720158455 18.1943
6529 1 58.2925 26.9893544607 19.6499
1419 1 56.7856 18.1160158455 19.7984
7580 1 69.611 28.9363544607 23.4681
6969 1 64.0715 23.3383544607 23.6243
2123 1 75.9256 27.1676930759 22.8229
240 1 62.5315 26.7360158455 22.288
4507 1 71.7234 21.5243544607 16.1998
3626 1 73.973 21.7933544607 23.4649
3863 1 63.8017 16.7170158455 15.794
1708 1 72.0880409857 28.0483544607 22.0325
2336 1 60.6288 19.1213544607 22.1543
2500 1 65.2214 20.9743544607 22.9234
107 1 75.7087 23.1640158455 19.5926
1520 1 55.9943 22.5790158455 18.6889
2541 1 74.5606 18.7323544607 19.9746
6045 1 64.6818 20.4286772304 16.1472
1024 1 70.0637 22.1370158455 20.4229
2245 1 71.9198 23.1093544607 22.3459
4197 1 70.5056 18.7960158455 16.7725
586 1 68.3384 22.9360158455 16.7584
7910 1 63.4988 18.6480158455 18.0793
5142 1 58.9595 25.3443544607 17.4323
6283 1 70.9377 23.3920158455 18.0676
4888 1 62.1462 24.1203544607 21.8286
3487 1 56.81 23.8900158455 16.4695
1806 1 65.935 21.6150158455 20.4236
7722 1 59.5317 23.5950158455 22.5699
7858 1 58.6055 21.0950158455 22.1239
725 1 75.5846409857 20.9833544607 21.3257
4110 1 75.2317 18.6530158455 17.4267
2210 1 67.8027 23.4630158455 21.1085
3655 1 61.1213 23.6970158455 17.3549
1956 1 68.8296 27.5360158455 19.3299
2682 1 67.5126 19.4063544607 23.4774
582 1 54.6576 28.2283544607 20.4347
2282 1 61.4013 20.0080158455 19.5706
2933 1 73.0961409857 23.9773544607 19.9091
1693 1 59.5324 19.3410158455 17.7316
832 1 62.1309 22.6120158455 19.6133
4309 1 57.8189 20.6983544607 19.4401
5072 1 67.0509 19.3250158455 19.5823
7313 1 63.5983 24.5890158455 16.0699
6852 1 59.8472 21.5510158455 15.8402
7171 1 74.3077409857 20.9106772304 16.2699
6446 1 66.2262 24.4440158455 17.4274
1736 1 64.4525 22.5060158455 18.1188
412 1 54.7927 22.6393544607 23.0633
6949 1 55.3971 24.0963544607 20.8586
6191 1 67.3523 20.4650158455 16.9916
4176 1 69.857 19.6423544607 19.4529
994 1 75.9217 26.6903544607 20.0611
2553 1 69.2975 23.4993544607 23.5497
4419 1 56.2656 20.2473544607 23.6398
3472 1 63.5018 18.7443544607 22.7652
6874 1 60.6359 28.3390158455 20.7364
1537 1 54.3941 25.3980158455 15.9355
3133 1 62.745 21.5986930759 29.9803
6036 1 66.0031 27.4073544607 30.4513
7611 1 55.3965 30.8726930759 30.6406
5582 1 60.155 21.2170316911 28.8903
162 1 57.7892 20.6243544607 25.9985
5494 1 63.415 20.9246930759 27.3335
4657 1 59.6876 23.4873544607 25.2418
6988 1 57.1233 23.4293544607 26.3629
6854 1 59.1151 27.1796930759 31.6426
4006 1 69.2116 21.1063544607 24.7403
363 1 68.0923 21.9533544607 27.1373
6926 1 55.1682 21.3296930759 27.219
1650 1 60.6406 20.7833544607 26.136
4698 1 72.7827 22.0326930759 27.8974
4630 1 56.0327 21.9406930759 30.8807
1452 1 73.4809409857 20.4473544607 25.7736
4231 1 55.343 28.5196930759 28.7627
3500 1 59.5023 28.4653544607 24.4263
1612 1 75.333 22.9780316911 29.0106
2250 1 59.5803 30.0653544607 31.2553
5583 1 56.6062 28.8773544607 26.4008
3356 1 75.0655 24.7366930759 31.1535
3903 1 62.0818 27.4723544607 24.8403
6997 1 63.7018 23.5833544607 26.4115
5175 1 61.2929 29.8223544607 29.1045
6107 1 63.9419 28.9873544607 26.2178
542 1 63.6079 23.9656930759 30.9181
7967 1 61.4992 25.2703544607 26.1385
1928 1 66.2349 23.8876930759 31.9623
5769 1 70.6452 28.2223544607 26.0954
427 1 70.044 29.3456930759 29.9802
6916 1 71.2748 24.6706930759 27.9572
2018 1 66.3825 24.0093544607 26.2983
6621 1 71.8277 27.6646930759 31.279
3055 1 69.4977 26.9093544607 28.55
2433 1 67.4189 29.6246930759 30.9426
298 1 69.1936 23.4086930759 29.1648
1860 1 67.5967 26.3743544607 26.579
5567 1 63.2699 25.5186930759 28.5011
1892 1 73.3535 26.0836930759 29.4423
4089 1 73.3175 29.1583544607 26.2304
866 1 74.7887409857 27.0856930759 27.1912
7603 1 57.8907 24.9016930759 28.5167
5675 1 59.435 24.4726930759 32.2126
1036 1 61.5712 27.3666930759 30.1854
303 1 67.2492 21.2476930759 31.46
7056 1 58.4278 22.8856930759 30.0825
4152 1 56.6268 26.5266930759 30.1688
3189 1 69.98 21.6406930759 31.3437
1920 1 68.0809 25.4876930759 30.5638
5297 1 74.7074 25.6396930759 24.8181
4855 1 55.4143 24.8273544607 24.7313
7895 1 59.3152 29.1603544607 27.0481
944 1 70.1309 25.5543544607 25.3587
7912 1 65.2506 27.2966930759 27.8705
651 1 60.0185 26.4073544607 28.0056
681 1 63.7431 28.0333544607 31.8143
3991 1 75.9978 23.3436930759 24.7562
5439 1 66.0219 19.9866930759 27.409
853 1 57.0902 27.0203544607 24.1569
7253 1 54.6046 25.8276930759 31.6748
6843 1 71.2315 19.2083544607 24.7496
6101 1 63.5222 30.6386930759 32.4713
4395 1 67.0591 27.4923544607 24.1956
7538 1 62.4942 23.0486930759 35.4464
223 1 65.1012 22.4050316911 35.4536
2359 1 75.3207409857 24.4150316911 38.2236
6293 1 68.3009 33.3646930759 38.7909
188 1 71.9522 26.0730316911 37.1171
6561 1 72.9180409857 30.0096930759 37.5923
6410 1 56.6913 26.3550316911 40.6187
7074 1 65.9113 26.9530316911 38.7349
1732 1 74.0573 29.3336930759 35.1993
6136 1 73.1497409857 29.5410316911 40.4151
3517 1 73.5146 24.5940316911 33.3308
6270 1 69.9482 27.2470316911 40.7774
7218 1 67.7225 23.4730316911 36.2358
7145 1 70.3695 29.8096930759 36.9776
3014 1 67.8554 29.7176930759 33.6823
1113 1 68.162 27.0600316911 34.2788
3941 1 64.5153 26.7890316911 36.1439
1782 1 64.2213 29.7386930759 36.5957
7752 1 59.1136 28.8410316911 38.0606
4481 1 62.6493 26.9046930759 34.0599
7133 1 72.4142409857 27.0430316911 39.6349
7319 1 60.2538 26.2310316911 37.2006
5315 1 57.635 28.0046930759 34.1422
6906 1 69.5618 27.1990316911 36.68
6482 1 63.7336 24.1630316911 39.6314
7695 1 66.1156 25.1226930759 34.5605
6881 1 73.7587409857 26.5066930759 35.211
3681 1 60.2492 27.8900316911 34.8923
286 1 56.7921 28.1066930759 36.852
6594 1 68.4162 25.9860316911 38.9727
575 1 61.9727 24.3596930759 33.1146
7267 1 55.8259 25.8466930759 34.019
4501 1 60.101 23.9680316911 40.5996
2412 1 58.2412 24.3920316911 36.6854
5521 1 68.103 23.3170316911 38.8765
5665 1 72.5033 29.9766930759 32.9504
3881 1 62.758 25.0850316911 37.2944
1423 1 70.9805409857 23.4970316911 33.3168
1977 1 55.9859 25.6646930759 37.8392
6194 1 59.4131 26.7766930759 40.0767
756 1 71.6549 23.2590316911 37.4669
5728 1 57.185 30.2356930759 32.7215
1949 1 74.0642 32.8910316911 40.8191
4181 1 64.578 30.3470316911 41.0211
5808 1 57.7043 23.7846930759 34.0475
3748 1 75.5401409857 31.5676930759 34.0285
7307 1 57.9358 31.9680316911 40.5299
2534 1 74.6874409857 32.0966930759 38.3211
1978 1 60.1 30.4936930759 36.0261
6736 1 56.0125 31.8956930759 38.3943
2496 1 62.3514 31.5916930759 37.3101
850 1 60.1162 30.4500316911 40.1128
2519 1 68.4099 30.6546930759 38.5877
2838 1 65.4515 31.0136930759 34.36
7350 1 70.2305 30.9406930759 34.4887
6170 1 62.4376 31.7276930759 40.0894
1352 1 65.8257 29.6980316911 38.6604
2098 1 58.0188 32.2516930759 36.4372
5301 1 61.0738 31.0796930759 33.2899
3484 1 74.3209409857 25.3763703063 40.6527
904 1 74.7094 22.1330316911 34.555
124 1 69.2208 29.9710316911 40.9894
6699 1 55.6205 23.7800316911 40.9866
6836 1 54.557 29.8396930759 37.0202
5669 1 69.9131 25.9326930759 32.5132
5793 1 75.9721409857 27.0200316911 42.1848
7162 1 57.2317 35.1790316911 47.5321
558 1 72.3767409857 28.6243703063 44.2179
4230 1 72.2076409857 27.6713703063 46.8249
5644 1 56.4618 31.0110316911 42.4988
2549 1 58.7116 30.2130316911 43.6717
4846 1 57.4138 28.2860316911 45.1245
5394 1 65.3757 34.4733703063 48.4271
364 1 63.1342 30.2423703063 47.769
6526 1 67.4736 29.7803703063 48.9614
297 1 59.3072 32.4220316911 44.9423
1226 1 63.6846 31.5980316911 45.5272
6146 1 57.7141 29.2633703063 47.6797
6162 1 71.7869 31.3180316911 44.0161
1067 1 67.7832 31.0533703063 46.367
2572 1 64.2163 29.0760316911 44.4542
4121 1 64.8746 26.0220316911 41.1201
3678 1 75.1535409857 30.0653703063 45.9812
7206 1 62.5471 33.7450316911 41.9459
5817 1 70.1899 32.3163703063 45.8022
5237 1 65.8857 32.9580316911 46.305
1340 1 59.6294 27.9833703063 49.2146
441 1 64.416 25.4110316911 45.2028
1767 1 66.9704 29.2640316911 44.5451
497 1 74.2682 32.3083703063 44.7592
2876 1 61.8915 33.2430316911 44.5454
7033 1 70.126 27.1453703063 48.4317
3551 1 56.187 32.7400316911 48.1685
7839 1 54.7926 28.4320316911 44.4623
3740 1 58.7874 31.8450316911 47.5234
6930 1 75.0728409857 27.5873703063 44.7193
2720 1 55.3072 28.6250316911 41.8034
3956 1 66.4439409857 27.2993703063 48.0675
6912 1 73.1005409857 30.0073703063 47.9785
6226 1 59.463 33.9583703063 49.2429
7847 1 75.7449 29.4650316911 41.3327
3492 1 63.9081 27.7030316911 46.7217
3430 1 66.9969 30.6360316911 42.2745
2970 1 73.7141 25.3473703063 45.8875
2781 1 71.5648 32.2713703063 48.3552
2406 1 54.9102 33.0170316911 43.4853
3711 1 73.8013 34.8800316911 45.1361
1190 1 67.8157 33.3120316911 42.502
7885 1 57.9848 24.4730316911 42.5575
2968 1 60.7766 30.5123703063 49.0628
5154 1 68.2639 25.4160316911 47.1406
2019 1 66.3727 25.3510316911 43.2531
6439 1 71.6044 31.7003703063 41.362
7817 1 62.1432 25.6490316911 43.7015
6199 1 61.4866 26.6463703063 47.4541
1008 1 70.382 26.6730316911 43.4342
7799 1 68.1214 26.7873703063 44.797
258 1 70.4049 35.2023703063 46.7297
3599 1 63.0603 28.0450316911 42.0704
2294 1 59.3092 26.6320316911 43.8378
3059 1 60.3221 28.5500316911 42.1099
1153 1 69.6663 35.9203703063 49.2187
6865 1 58.027 34.8020316911 44.9161
4187 1 71.6999 24.5280316911 44.032
109 1 73.1479 34.2783703063 49.427
7893 1 66.4178 34.8190316911 44.4548
6838 1 61.4937 35.7990316911 48.3707
3003 1 69.1558 32.0297089215 49.5612
375 1 61.5387 28.3747089215 56.6136
4938 1 74.4532409857 36.8417089215 53.1752
6406 1 57.2509 36.3873703063 51.5671
4315 1 75.6643409857 34.7883703063 54.7277
2387 1 66.092 35.5683703063 52.3329
5332 1 73.4914 36.9327089215 57.1135
997 1 57.698 35.6167089215 56.9818
946 1 66.995 36.4407089215 56.851
7980 1 74.4810409857 34.2217089215 57.0949
6661 1 69.4069 35.0577089215 56.8004
2497 1 61.1901 35.5137089215 53.7409
920 1 65.4923 35.0257089215 55.2053
4662 1 67.6634 27.0543703063 52.1321
4452 1 62.8343 34.8327089215 55.7965
953 1 71.204 36.9683703063 55.684
1509 1 56.1905 33.9093703063 55.2833
3217 1 63.158 33.9703703063 50.0014
7136 1 64.8997 30.1323703063 49.7877
1140 1 55.2322 32.6163703063 51.0148
4857 1 73.4050409857 31.7017089215 53.3706
2731 1 66.7219 32.8407089215 52.3912
7677 1 69.3487 28.6653703063 50.7166
6880 1 59.1876 34.2843703063 52.1413
4939 1 70.9431 32.8833703063 53.0661
1855 1 68.9439 31.1107089215 52.1288
5563 1 67.5133 34.3513703063 50.0996
3946 1 73.7628409857 29.4487089215 51.9251
852 1 69.306 32.6677089215 55.3491
6197 1 69.9335 28.1417089215 55.5741
5958 1 71.1065409857 30.7457089215 56.4854
2839 1 65.4389 31.3937089215 57.8851
2829 1 61.5665 32.9397089215 57.3558
2538 1 73.634 31.6737089215 56.1831
7783 1 57.2262 32.6063703063 53.0263
7965 1 75.5136409857 33.2503703063 50.2754
2048 1 66.3766 32.5097089215 55.4223
1590 1 61.7838 30.8797089215 55.3651
3448 1 63.3277 35.7357089215 52.0655
5177 1 58.2293 29.9473703063 53.6441
7159 1 64.0825 31.9323703063 51.751
4806 1 66.9734 29.1727089215 57.2597
7341 1 59.0877 27.7773703063 55.0597
3580 1 71.3191409857 34.9673703063 51.2598
2477 1 65.9147 28.5567089215 53.5753
1450 1 61.0704 32.3177089215 51.1718
7738 1 68.0834 30.1367089215 54.756
2644 1 64.3514 28.0623703063 51.4414
4701 1 75.9654409857 35.9737089215 51.0018
2891 1 60.8713 30.1533703063 52.9054
556 1 55.8357 29.7767089215 54.9649
2510 1 75.2348409857 29.5287089215 55.8421
2006 1 75.8546409857 32.7007089215 52.8857
5326 1 71.754 27.7173703063 51.4859
1296 1 57.6118 28.7263703063 51.2789
2647 1 61.8691 27.7073703063 52.4653
1084 1 64.2912 30.7353703063 54.2964
643 1 54.9374 35.5453703063 50.3731
4848 1 55.3914 31.8707089215 56.9207
1576 1 71.7735 37.0037089215 52.9423
1252 1 75.7876409857 28.4507089215 53.341
5700 1 56.1944 37.4633703063 53.8848
7512 1 58.1836 38.0627089215 55.7
6234 1 75.1232 30.4673703063 49.7826
6893 1 75.8075409857 38.2557089215 56.518
1593 1 55.8714 30.1693703063 49.6981
7278 1 55.9699 36.9087089215 58.724
2652 1 64.3766 32.4077089215 64.9651
5080 1 75.8475409857 30.8897089215 59.6236
7696 1 61.459 30.1827089215 60.5651
7192 1 74.0400409857 32.0600475366 64.8874
191 1 68.7194409857 31.2507089215 63.3679
2255 1 63.0448 36.5788718527 58.1867600594
2183 1 62.5517 30.5890104678 65.9052300594
5094 1 72.884 32.9248718527 62.5488400594
6494 1 57.4628 32.5407089215 63.3477
961 1 62.8417 34.1277089215 59.5699
7888 1 55.7612 32.8017089215 61.2797
3060 1 70.379 34.1885718527 59.1439200594
6093 1 68.8777 40.1358104678 66.1043700594
282 1 70.2684 33.5957089215 63.2909
7083 1 74.3034409857 35.2617089215 61.7747
2631 1 65.3372 32.7455718527 60.3175100594
269 1 61.5299 34.0657089215 62.0425
3786 1 57.4465 34.3950475366 65.2414
5078 1 66.2126 35.1017089215 61.3515
5642 1 56.3655 39.2460475366 66.0237
6372 1 68.9934409857 35.0557089215 61.3476
25 1 72.889 35.2425718527 59.2159400594
1451 1 57.2524 31.7707718527 58.9278600594
2688 1 66.9615 37.0990475366 65.4411
3200 1 63.0913 34.7810475366 64.3061
4268 1 55.559 35.5897089215 61.0381
4047 1 65.1154 36.3973104678 63.5194900594
4387 1 59.7433 35.6577089215 60.5549
872 1 66.0364 39.6254104678 66.1508100594
3900 1 64.3189 39.0157089215 62.7547
2773 1 65.5805 36.7087089215 59.1995
3727 1 54.5021 36.4307089215 63.6834
4015 1 57.5731 28.9717089215 58.5153
7250 1 74.2306 36.2450475366 64.3918
6465 1 70.1329 37.4460718527 61.9751400594
7875 1 59.6604 38.2450475366 65.6027
5938 1 61.5001 36.2020475366 65.9471
5155 1 73.1902 34.4920475366 66.1655
3058 1 57.7171 37.1430475366 61.7973
3380 1 57.4371 37.0010104678 64.5217100594
4577 1 70.4752 35.0031718527 65.6537700594
1001 1 69.8562 37.8000475366 64.9133
2699 1 61.0234 37.8317089215 59.8997
3287 1 72.6932 38.4830475366 64.8619
1613 1 72.7333 37.7231104678 60.8787700594
2373 1 73.6377 40.6310104678 66.3504900594
4354 1 70.8078 31.4467089215 59.1386
3688 1 66.9205 30.6727089215 61.3158
2702 1 73.2623 30.9927089215 60.7021
2658 1 59.837 31.8977089215 62.3423
1901 1 68.6181 29.7727089215 59.405
5122 1 63.3801 31.6387089215 62.0987
4281 1 59.0551 33.8767089215 58.4801
6404 1 66.0684 39.0727089215 60.5443
878 1 73.5226 39.5930104678 62.6199200594
199 1 62.8803 30.4797089215 58.1534
5849 1 61.8038 39.6820475366 62.0019
2489 1 66.8617 30.7613104678 65.2456000594
7516 1 68.5986 39.6247089215 61.4619
5671 1 57.4874 39.0367089215 59.7116
3934 1 56.2816 30.2057089215 64.4863
534 1 65.9885 23.7190370688 0.5784399406
1179 1 75.8194409857 24.0144386152 3.9809
6205 1 56.3228 33.172375684 3.5821399406
2825 1 64.6294 26.1046386152 6.65006
5827 1 58.6316 30.7608386152 6.3977
4124 1 63.1625 28.3757386152 5.83986
5543 1 59.5875 30.2613386152 1.69011
2787 1 65.2863 30.8592386152 -0.518575
4206 1 64.4729 24.6676772304 4.29193
2614 1 65.2482409857 32.8719386152 5.89734
481 1 58.6046 23.8231386152 -0.433708
2944 1 73.4932409857 30.2135386152 -0.900512
5182 1 60.2264 25.3498386152 6.06035
408 1 74.3292409857 28.4365386152 3.19358
6496 1 75.1675409857 29.5570386152 5.57896
2501 1 71.5959409857 31.6740386152 0.533793
6871 1 59.812 28.039375684 0.1293399406
3540 1 66.3976 28.402375684 -0.4575600594
3313 1 63.9011 30.5924386152 1.81525
3887 1 73.3227 25.5059386152 -0.915332
557 1 60.8239 27.4946772304 4.54345
3614 1 67.0745 28.9166772304 4.77136
6392 1 67.7051409857 26.8532386152 3.04112
2769 1 64.7626 30.3958386152 4.50985
1815 1 56.122 29.0306386152 3.65921
1141 1 71.6765 27.9089386152 3.85568
6680 1 57.6213 26.194375684 6.0887399406
3035 1 70.2658409857 29.6376386152 2.21464
2904 1 65.4307 25.8862386152 2.02543
3708 1 74.5826409857 25.7345386152 2.38251
6216 1 56.9143 26.3666772304 3.2513
7948 1 63.8016 27.8938386152 1.13416
5411 1 71.1223 28.7166772304 6.41862
977 1 69.737 25.0200370688 0.4538399406
422 1 61.5652 26.3891386152 2.16454
7634 1 72.2726 24.642375684 1.4096399406
347 1 62.1518 27.625375684 -1.1423600594
631 1 58.9173 25.6551386152 1.57139
2160 1 58.9025 29.3286772304 4.1128
5399 1 68.8933 27.7817386152 0.539924
1554 1 62.2916 23.8133386152 2.70089
1687 1 74.9754 30.4138386152 1.38204
2065 1 55.6517 29.914375684 0.9620399406
5790 1 68.6193 24.3367386152 4.10209
1916 1 71.2347 25.2772386152 3.90625
3825 1 55.4797 28.406375684 -1.4393600594
4449 1 75.1644409857 32.3132386152 5.3345
6815 1 69.7766 32.2983 -1.43685
769 1 68.8087 30.9413386152 4.21586
4350 1 55.747 31.1979386152 5.58805
4796 1 57.4509 31.7971386152 1.38657
167 1 58.6047 33.2577386152 5.22774
5778 1 61.6408 32.0525386152 1.56572
1472 1 67.6018 33.212375684 4.4792399406
2733 1 70.6494 31.3641386152 6.19349
4863 1 72.56 33.351375684 5.6045399406
1645 1 62.299 33.1616772304 6.26636
6165 1 75.9598409857 32.7813386152 2.72166
4724 1 54.665 25.5046772304 2.30161
6369 1 61.0451 33.5696772304 3.83786
7025 1 54.4479 26.1620370688 -0.5289600594
4339 1 76.0674409857 25.7810386152 -0.0641387
4378 1 67.2721 32.7254386152 -0.399635
6612 1 72.5193409857 24.5216772304 6.26648
620 1 69.6048409857 25.5696772304 9.33953
2633 1 57.0127 33.7210158455 12.3821
3670 1 69.1462 27.9859386152 8.20615
6275 1 71.4423 26.1710158455 11.3627
2323 1 59.145 28.1836772304 10.0522
7008 1 73.1046 34.979375684 7.8126399406
4344 1 59.7005 30.2316772304 11.9301
4043 1 63.8981 27.1680158455 15.0918
6129 1 65.746 27.4206772304 11.3629
2527 1 63.1085 27.2810158455 12.3757
1502 1 62.1796 25.5606772304 7.95534
254 1 73.4913409857 28.9486772304 7.92893
1207 1 74.1532409857 26.2473386152 7.59417
1817 1 61.7421 27.4756386152 9.9279
2216 1 55.1737 28.7676772304 9.20816
7751 1 57.6749 28.6216772304 7.8373
2072 1 55.8311 27.9000158455 11.8539
6846 1 65.174 29.3346772304 9.40476
93 1 64.0421 33.1716772304 12.4177
5989 1 74.1397 25.7176772304 10.35
5512 1 63.2268 31.6436772304 14.6334
7564 1 75.4301 29.0860158455 13.5809
2468 1 60.8557 31.3846772304 7.82361
6278 1 68.8476 34.2576772304 8.55832
5204 1 57.5181 28.3540158455 14.0816
5001 1 70.3681 32.1366772304 8.79556
437 1 61.7335 29.6286772304 13.5525
388 1 72.1702 32.2620158455 14.2181
2004 1 57.5682 33.1836772304 9.62037
2640 1 74.661 35.8796772304 12.9867
5802 1 73.8198 30.8066772304 10.0796
4178 1 57.5123 31.1790158455 13.5816
1524 1 70.9663 28.5820158455 12.1479
6705 1 69.6086 29.9946772304 10.3099
5273 1 67.0303 28.6830158455 13.4942
4370 1 72.5669 34.2076772304 12.2984
2138 1 69.968 35.1956772304 12.7756
3093 1 72.5683409857 33.2016772304 9.81287
7886 1 60.1344 32.2826772304 10.2873
5957 1 61.6507 34.2386772304 11.7575
6298 1 57.7762 26.0796772304 11.0124
4920 1 69.7299 28.9540158455 14.8563
6217 1 67.7418 30.886375684 12.0137399406
7957 1 66.2544 33.5466772304 8.43877
3951 1 66.0239 35.0180158455 13.7438
957 1 55.7953 31.4746772304 8.51949
4556 1 60.8184 35.5540158455 14.0511
454 1 62.7471 29.4586772304 8.3663
4859 1 54.933 30.3820158455 12.9703
6052 1 68.1758409857 33.3350158455 13.4505
7539 1 65.6376 31.8286772304 10.4858
2941 1 65.117 29.6540158455 15.2776
4316 1 70.7756 36.5060158455 15.2301
1764 1 58.1963 36.1326772304 13.6395
2753 1 73.0905 30.1576772304 12.6712
2911 1 74.1836 27.0760158455 15.3313
4569 1 66.586 28.1246772304 7.34785
6959 1 58.6457 34.8403386152 7.44132
2378 1 76.0812409857 27.2566772304 11.5754
410 1 69.5522 31.6840158455 15.2434
1754 1 63.7121 38.7113544607 21.8951
3384 1 54.3945 35.3683544607 23.6866
2607 1 73.3922 34.0573544607 22.6614
5599 1 61.4534 33.0423544607 22.6758
1343 1 65.1669 35.0900158455 16.2763
6046 1 72.7964409857 30.4710158455 17.8802
6976 1 60.8062 34.5613544607 18.431
2562 1 58.7417 29.9873544607 22.237
7324 1 64.2858 32.6210158455 16.9542
7737 1 64.7561 29.7200158455 22.1974
1498 1 75.2593409857 38.9163544607 23.6418
6544 1 68.3077 32.1030158455 17.598
3953 1 71.5429409857 34.0880158455 18.494
3330 1 69.0627 29.7823544607 20.7791
4948 1 56.5275 28.7423544607 18.5308
1196 1 58.2041 30.6930158455 18.2498
6579 1 58.7328 32.7903544607 23.0497
1060 1 62.2975 32.0433544607 18.9266
2929 1 67.7486 28.5340158455 17.0074
2403 1 71.7073 30.4373544607 20.4451
6009 1 67.115 34.6280158455 17.9976
4125 1 73.3547 33.0360158455 16.6144
5021 1 62.2387 30.7193544607 21.4262
3799 1 58.5369 32.3250158455 16.062
6673 1 65.7013 34.9370158455 20.283
1276 1 60.7596 29.7743544607 18.2094
5633 1 62.8097 34.3540158455 20.569
744 1 57.4043 32.1273544607 20.6997
4786 1 66.5222 33.4783544607 22.2704
4117 1 61.4246 28.3353544607 15.9839
3364 1 69.6573 35.6860158455 17.4666
6172 1 66.574 31.0140158455 20.7279
2816 1 69.2089 34.3273544607 22.0
4488 1 55.4484 28.1370158455 16.0912
4944 1 69.8089409857 32.4860158455 19.9766
656 1 58.2321 34.5230158455 19.4695
3641 1 55.9221 38.3090158455 20.3107
562 1 73.8195409857 31.4463544607 21.7041
7953 1 57.6818 36.5033544607 21.2452
4263 1 66.0082 30.5610158455 17.9594
3781 1 73.5231409857 35.6166772304 15.5394
6091 1 56.8049 34.2040158455 17.0742
3765 1 54.5833 32.2773544607 20.7025
1649 1 61.0192 33.3070158455 15.76
1174 1 63.9171 37.5410158455 16.7161
7384 1 68.1773 38.4700158455 22.802
6000 1 69.9189 37.9490158455 19.1339
1380 1 74.5099 28.3270158455 17.86
6977 1 62.0084 36.8343544607 20.8893
4177 1 56.6332 36.7940158455 15.9235
868 1 72.2806 38.5433544607 23.0256
3383 1 72.3422 35.5020158455 20.6467
7746 1 71.4873 27.0120158455 15.6622
5222 1 59.9611 37.4123544607 22.5297
4814 1 74.4226409857 37.1653544607 20.0479
7251 1 66.1583 37.5860158455 21.2092
6422 1 75.0040409857 36.7880158455 17.3651
5759 1 61.6091 37.1440158455 18.1438
2353 1 70.3337 37.1040158455 21.7117
2061 1 76.017 32.3010158455 17.0347
5238 1 74.3188409857 29.4240158455 23.4335
5561 1 57.0945 35.2153544607 23.6122
2750 1 54.4363 33.5940158455 18.2408
1237 1 56.0736 29.1633544607 22.5842
2674 1 76.0422409857 31.7710158455 19.9142
3730 1 76.0511409857 34.2673544607 23.5071
3774 1 65.9355 30.0813544607 24.6696
3388 1 68.6831 31.0903544607 24.9651
5538 1 71.8241 31.9986930759 28.2056
6639 1 63.9482 41.1203544607 30.2769
226 1 56.8078 33.0013544607 25.3213
7812 1 63.2622 31.2643544607 27.7922
2982 1 65.0087 34.3833544607 24.4829
3269 1 61.4084 33.0913544607 27.242
4085 1 58.1333 31.8273544607 29.7265
5415 1 67.6485 32.4856930759 28.0552
6260 1 69.4441 33.8970158455 24.6887
3567 1 65.532 32.2063544607 26.2935
2473 1 57.7049 40.2283544607 27.8733
6401 1 67.7047 34.3706930759 32.2475
3499 1 58.9507 31.9623544607 27.0513
64 1 74.3352409857 31.7063544607 27.0419
6215 1 59.2684 35.9446930759 32.4123
6180 1 55.2624 30.8993544607 24.6843
4355 1 71.4559 31.6726930759 30.8979
3393 1 68.5491 41.1026930759 31.3504
473 1 74.1322 34.5726930759 31.8035
2710 1 71.9692 37.7833544607 25.7064
2619 1 69.7361 30.5853544607 27.3975
5729 1 54.5316 35.1253544607 32.0776
754 1 61.5776 37.2593544607 27.8027
7707 1 61.2681 34.9203544607 29.1238
3490 1 64.1044 32.2783544607 30.4577
783 1 60.9621 36.8433544607 25.2093
117 1 64.2794 37.6113544607 27.6139
3876 1 55.6347 37.9263544607 29.5628
4310 1 62.6674 34.4523544607 31.3357
3629 1 74.572 34.2633544607 26.0
637 1 58.6447 34.5623544607 29.9769
593 1 57.8566 38.0853544607 31.0361
7122 1 72.0069 35.1850158455 24.7626
5681 1 61.3711 40.9753544607 30.1425
893 1 70.3734 33.8536930759 32.3241
6870 1 66.7861 32.3186930759 30.5444
6108 1 66.23 35.9303544607 26.3206
2199 1 69.5551 38.7173544607 26.8481
92 1 62.6824 39.1503544607 24.2592
1584 1 73.8673409857 38.2473544607 27.915
5471 1 74.3561 39.3673544607 30.4008
7106 1 69.0511 37.2553544607 29.0373
2664 1 67.3262 38.7636930759 30.6711
5847 1 71.3948409857 34.6683544607 27.5461
2851 1 71.947 36.0476930759 31.8571
4641 1 71.7458 36.7923544607 29.3051
5422 1 64.6636 38.4146930759 30.168
941 1 67.3296 38.2383544607 25.3886
3659 1 59.7857 38.8593544607 29.083
2779 1 57.1186 35.8943544607 27.9451
4137 1 55.3165 33.9743544607 27.3592
2029 1 62.2007 34.3563544607 24.9187
6711 1 56.6251 39.1583544607 25.5484
2197 1 68.5949 34.9293544607 27.2745
7448 1 58.2149 36.8073544607 25.6825
7129 1 65.0171 39.7183544607 25.8779
5226 1 75.6662 36.2203544607 27.5895
1926 1 63.302 37.0406930759 32.2079
4255 1 74.2091 31.8096930759 31.6406
7609 1 75.8837 31.8716930759 29.3309
7281 1 75.1514409857 40.0363544607 26.1932
4606 1 55.321 40.7543544607 29.0798
1374 1 76.0308 35.8916930759 30.2762
2948 1 67.1767409857 39.8460316911 40.4464
5322 1 71.2747 40.3690316911 38.8293
2868 1 58.3716 40.3176930759 39.0836
6366 1 66.7649 41.7116930759 38.3084
7352 1 73.7114 41.7696930759 34.4234
5573 1 61.3179 39.6730316911 39.6459
7786 1 72.7407 42.1120316911 36.973
3737 1 61.8065 42.8356930759 36.5637
6720 1 55.4997 40.8426930759 38.8854
55 1 65.9014 41.8406930759 34.6785
4211 1 65.4319 43.2300316911 40.1658
1389 1 69.3889 42.2130316911 38.0851
390 1 54.564 36.6470316911 39.6064
7755 1 59.7403 42.9186930759 38.4442
1022 1 73.9868 35.8870316911 40.8003
2404 1 63.2138 41.4170316911 41.0196
2285 1 70.2239 42.6316930759 35.6326
1068 1 76.1096409857 40.6856930759 35.0277
5330 1 58.587 34.6746930759 37.3716
4364 1 56.6638 40.4756930759 34.9837
7644 1 60.9001 38.3076930759 35.8998
3891 1 70.2108 37.8480316911 38.7915
4824 1 62.3936 34.0156930759 35.9558
5259 1 64.8645 36.3910316911 38.4405
6238 1 68.3783 37.3906930759 36.8586
3270 1 61.0883 33.8076930759 33.4198
3248 1 72.0729409857 35.8750316911 38.6407
1348 1 73.6249409857 37.7246930759 35.4425
2491 1 62.336 36.8920316911 39.6556
3665 1 70.6756 33.7376930759 35.1258
2375 1 57.176 36.4386930759 36.1194
7051 1 66.3002 38.7276930759 37.9458
5426 1 71.5311 38.2106930759 33.6081
6979 1 58.1583 38.9246930759 36.6389
3196 1 66.5478 33.5676930759 34.5829
5445 1 69.0248 38.4026930759 34.4674
4963 1 62.2731 40.2676930759 37.2289
823 1 64.7256 39.6336930759 35.8226
6502 1 66.8065 35.0360316911 40.3155
5166 1 75.2111 33.5946930759 35.9939
5680 1 57.0222 35.0816930759 33.5734
7355 1 75.895 35.3563544607 33.7468
543 1 60.9171 38.0896930759 33.2359
4799 1 75.0947 38.2300316911 40.0689
4321 1 68.5616 41.0516930759 34.2018
6359 1 64.763 35.1556930759 36.0737
7232 1 64.9829 37.3106930759 34.3322
2537 1 56.3676 32.2486930759 34.3363
4638 1 73.8686 39.4650316911 37.7745
4035 1 58.3169 34.7420316911 40.0409
1784 1 72.8266409857 35.1806930759 36.146
5795 1 60.9847 35.9616930759 37.2669
5139 1 68.4913 34.6386930759 36.3683
5053 1 67.3597 36.9946930759 32.8532
2132 1 61.5828 43.6250316911 40.4835
3367 1 68.3983 37.2790316911 40.9863
5996 1 70.5723409857 33.9440316911 40.1095
7505 1 54.5846 37.1176930759 36.8709
1077 1 54.3988 38.9606930759 34.6293
662 1 72.3799 40.4566930759 32.503
5137 1 60.3445 40.8016930759 32.6152
2084 1 57.6699 40.4766930759 32.5193
7773 1 58.9742 38.6040316911 45.4551
5009 1 60.8041 39.0210316911 42.4619
2329 1 74.2674 40.7040316911 46.9226
5860 1 59.913 43.7450316911 42.8248
6302 1 72.0522 38.9800316911 46.9517
5753 1 69.8762 40.3133703063 48.1492
5531 1 75.0285 37.6960316911 49.0083
633 1 66.2461 37.3230316911 45.9953
2782 1 65.3755 37.2490316911 48.6284
2700 1 71.4936 38.5220316911 44.2076
1202 1 55.312 42.9030316911 44.4345
4886 1 67.5214 43.6470316911 41.7394
4579 1 71.3212 41.6590316911 41.0977
6405 1 63.6023 37.6930316911 45.087
577 1 56.407 39.5910316911 45.1305
5002 1 61.6793 44.0800316911 47.4409
4906 1 59.463 43.5590316911 45.725
2793 1 71.3639 44.5780316911 48.7009
2570 1 68.7871 38.6780316911 43.3208
7926 1 68.1315 41.5890316911 46.5033
6273 1 62.9759 40.0970316911 46.4303
7537 1 64.3059 41.5853703063 44.467
3696 1 75.4138 39.8710316911 42.3467
4703 1 65.1539 39.8590316911 42.3182
123 1 56.254 41.0310316911 42.6325
3163 1 55.9678 41.7000316911 46.948
7741 1 69.9942 42.4050316911 44.5072
3511 1 73.1439 44.6820316911 46.5195
4253 1 72.7221 42.2460316911 45.0035
4051 1 65.0817 44.3790316911 44.9905
7131 1 72.8533 40.4620316911 42.974
1401 1 62.84 38.1573703063 48.5685
4767 1 63.1502 41.9290316911 48.3562
4223 1 57.3158 44.2043703063 47.6943
4432 1 66.6264 39.8990316911 44.9255
1746 1 60.3901 40.9110316911 45.934
5651 1 61.6383 41.5400316911 43.4706
2422 1 66.7775 43.9433703063 47.1122
7612 1 64.7982 35.3650316911 42.2055
5517 1 69.4689 45.1140316911 44.4835
1131 1 58.999 37.2530316911 47.8098
5525 1 73.8843 43.7160316911 42.8919
4933 1 69.1069 45.3230316911 47.3186
1225 1 68.8658 41.2900316911 42.2265
1830 1 54.6131 36.5100316911 47.6209
6367 1 54.5226 37.5190316911 45.1127
1169 1 75.564 43.2640316911 46.9896
6816 1 60.5041 35.5030316911 41.1974
4130 1 60.0511 36.5310316911 43.8258
1944 1 73.0602409857 36.2913703063 47.5261
4290 1 63.4263 37.7320316911 42.2245
3886 1 70.0262 35.2630316911 42.3692
1986 1 55.9262 35.5930316911 43.4871
3634 1 61.9482 35.6353703063 45.6589
7219 1 68.7656 36.3190316911 44.7221
3666 1 72.4994 36.1310316911 43.0247
6834 1 58.0761 39.1870316911 41.6548
4374 1 56.2149 40.1480316911 49.35
7414 1 65.3847 43.2030316911 49.2873
2236 1 56.8175 36.7790316911 41.1298
7189 1 76.1572 35.7670316911 44.1536
4128 1 58.029 42.6450316911 41.1076
7280 1 62.361 38.7657089215 56.4986
1229 1 67.8756 45.8893703063 50.0363
7363 1 73.7876 47.1160316911 52.2333
6251 1 61.3433 45.7100316911 49.6486
3848 1 69.648 46.8663703063 52.0628
3987 1 71.5678 46.0493703063 55.4666
2332 1 63.7422 45.7073703063 53.3615
6345 1 74.1119 44.9973703063 55.6604
6289 1 57.8249 45.3923703063 56.3466
1091 1 66.091 45.8553703063 54.8178
5129 1 62.2865 45.3170316911 55.7847
95 1 62.1076 47.9283703063 56.7571
6397 1 65.9769 44.6343703063 57.3672
6569 1 63.017 41.2767089215 57.9456
3462 1 68.5077 40.2607089215 54.8019
1292 1 56.0885 41.7383703063 51.5146
406 1 54.7503 39.6233703063 53.1993
4407 1 63.9598 43.1647089215 56.2246
143 1 55.1875 44.4043703063 56.6127
7327 1 68.1715 44.7893703063 53.4109
7258 1 71.6053 39.3603703063 51.4621
7716 1 66.8786 40.7683703063 52.4751
1704 1 58.1511 40.8913703063 55.4065
4714 1 57.2121 47.8387089215 55.49
1397 1 58.299 38.4100316911 50.1203
5880 1 75.4755 45.1273703063 53.2502
1122 1 63.699 44.7260316911 50.7674
2241 1 66.6183 38.1313703063 51.0743
1781 1 69.927 42.2517089215 57.5653
2162 1 75.6013 43.3933703063 51.248
5988 1 60.6753 38.1433703063 54.4138
799 1 64.3139 39.1167089215 54.5821
5424 1 58.4365 41.5893703063 52.7615
5015 1 60.0441 43.6773703063 52.7978
1412 1 55.8847 41.7723703063 56.7292
6577 1 62.3796 42.6610316911 51.9225
3468 1 69.7202 42.4400316911 49.9848
6954 1 62.2534 40.1843703063 50.505
1930 1 71.0129 39.7487089215 56.0284
7843 1 64.3435 41.7653703063 53.8136
3982 1 69.2183409857 38.4763703063 50.2101
2564 1 69.6056 42.9183703063 54.7965
6953 1 57.1592 44.1723703063 50.4375
3766 1 73.1161 42.7870316911 50.4073
3115 1 71.1277 42.4780316911 52.4246
2417 1 63.9824 38.3783703063 51.9152
5169 1 60.0123 39.4757089215 52.0991
7173 1 71.806 45.1873703063 53.0054
2421 1 67.4684 43.2173703063 51.1589
2398 1 76.1329 40.6073703063 51.4845
7298 1 59.2145 45.9493703063 51.3703
5764 1 60.1956 41.8599718527 57.1611600594
6888 1 74.0448 42.2173703063 55.6379
6487 1 75.2674 39.4847089215 53.8712
7010 1 66.5239 38.9767089215 56.2427
4543 1 72.6305 40.4797089215 53.9069
2757 1 73.9193 40.1283703063 49.7224
6537 1 59.9776 44.0507089215 55.4612
6961 1 59.7246 39.1513703063 57.977
567 1 54.6763 47.6593703063 54.3304
3836 1 64.5904 48.5433703063 57.3635
2360 1 54.6506 45.2923703063 50.5424
5225 1 71.0754 44.8617089215 57.969
5485 1 60.0989 40.6847104678 64.1124000594
7378 1 59.8339 43.3587089215 59.6868
180 1 66.7395 49.2873718527 63.7217000594
4463 1 74.0272409857 41.3297089215 58.1753
4999 1 57.5986 43.0517089215 61.3331
1182 1 55.458 43.4920475366 64.5348
2188 1 73.8006 43.0527089215 60.3018
5624 1 72.6203409857 46.9337089215 66.1923
228 1 56.5361 49.2457089215 60.9167
5210 1 68.9162 44.9937089215 64.8863
6685 1 59.2126 48.9472104678 64.5321300594
79 1 66.4029 45.4730104678 65.6661100594
7563 1 69.9302 42.7750475366 66.1235
2069 1 55.7442 44.8630475366 62.2668
6571 1 58.0482 44.1420475366 65.5634
476 1 55.6293 40.6960475366 63.9063
2157 1 72.5849 42.9275104678 65.1274200594
2694 1 75.3557 49.1587089215 61.4072
4659 1 56.2437 46.5577089215 60.2636
4574 1 59.4897 43.3573104678 63.4117100594
1623 1 65.5122 46.8194104678 63.5636500594
2526 1 61.7751 48.3979104678 65.1065900594
6793 1 56.7226 49.6090475366 63.6206
5853 1 73.1234 45.5067089215 63.833
6771 1 63.5013 50.4063104678 65.6599000594
1836 1 68.0869 44.1747089215 60.653
6851 1 62.9328 47.8677089215 60.428
3109 1 69.6158 43.2402718527 62.6978500594
129 1 69.2859409857 49.5097089215 64.8055
7289 1 67.783 48.1987089215 59.6193
6209 1 62.7753 46.8399104678 62.9267000594
7489 1 62.1353 44.2007089215 63.4715
315 1 64.0301 42.8547089215 62.132
5159 1 69.6445 46.1917089215 59.9253
1011 1 65.4585 46.7933703063 59.3158
5910 1 75.1716409857 50.5677089215 65.5675
5027 1 65.6449 45.1126104678 61.4702500594
7037 1 58.6344 45.8837089215 58.9684
6820 1 65.08 43.2263104678 66.2379000594
3920 1 71.3397 49.4367089215 62.9539
6412 1 71.6069 47.0317089215 61.734
6177 1 55.3802 47.1282104678 63.9192700594
3491 1 73.6332 47.7557089215 59.9483
5487 1 60.5706 47.7873703063 59.1427
4165 1 72.397 39.1865718527 58.5172700594
3813 1 73.7672 45.2243703063 58.5847
2758 1 72.0515 41.9115718527 62.3147500594
6542 1 62.158 41.8397089215 60.5267
2460 1 70.6435 40.8055718527 59.9484400594
6006 1 75.6865409857 45.0798718527 63.3074000594
238 1 67.993 41.1600475366 63.593
7354 1 56.0669 41.3797089215 59.3906
4692 1 62.461 43.9904104678 66.1401200594
4367 1 65.2962 41.2667089215 63.9919
7877 1 60.8853 41.7030104678 66.5786200594
4495 1 69.8819409857 47.1007089215 66.197
4384 1 58.0504 46.8580475366 66.2649
4561 1 67.4366 42.6647089215 58.5334
3649 1 57.8745 40.1957089215 62.3533
3793 1 65.6582 40.5437089215 58.3698
2852 1 67.8836 38.3422386152 3.74182
279 1 59.0033 36.8395386152 2.48472
5971 1 62.4666 39.3480370688 0.0823399406
2298 1 69.2231 35.0066386152 5.77046
7028 1 66.2236 42.2390386152 1.08744
6463 1 72.3288409857 37.535375684 4.3162399406
420 1 73.4936 42.7500386152 5.96682
1760 1 55.2768 38.3266386152 1.3795
2814 1 71.1888409857 41.1480386152 1.77697
4173 1 60.7659 41.5090370688 1.1859399406
316 1 69.1003 36.1523386152 2.20402
6545 1 58.886 38.7316772304 6.26332
1109 1 69.6561 36.7817386152 -0.280674
5461 1 65.2418 42.0655386152 3.57966
4935 1 59.461 35.6720370688 -0.0494600594
2346 1 55.3096 37.0103386152 -1.0033
3198 1 63.8397 35.2894386152 5.09178
7085 1 67.147 34.2614386152 2.02276
5714 1 63.1181 40.4911386152 4.45083
1666 1 74.7139 43.0540386152 3.36635
1833 1 64.7409 35.5038386152 2.39774
1143 1 58.3382 40.7697 0.346004
1852 1 73.5611 42.1600386152 0.900097
4292 1 70.4987 39.4420386152 3.87113
81 1 68.9443 42.9283386152 3.87042
6050 1 61.8355 33.157375684 -1.0285600594
2218 1 58.2333 40.7113386152 4.67553
2365 1 67.7028 37.3186772304 6.41814
1884 1 56.8875 36.9700386152 6.42268
3704 1 64.9268 37.046375684 6.9004399406
5325 1 73.5614 34.9993386152 -0.509778
4498 1 65.6269409857 38.1046386152 2.06608
1812 1 61.9835 36.6037386152 -0.737725
6795 1 73.6056409857 37.6241 0.22576
2899 1 74.6463409857 37.7056386152 2.70147
6381 1 57.6635 39.2449386152 2.48233
4658 1 71.2848409857 39.1147 -0.00311236
7293 1 65.2433 39.8437 -0.0821397
1752 1 62.916 38.4639 2.78839
981 1 61.3368 37.6418386152 6.1525
7835 1 61.4853 36.3086772304 3.63079
3272 1 56.6928 35.8909386152 3.8961
4809 1 63.9933 34.7271386152 -0.142092
657 1 75.5134409857 40.3250386152 2.40537
7647 1 71.393 34.9501386152 3.68382
3010 1 57.787 33.5874386152 -0.592876
2976 1 69.9494 41.2066772304 6.15928
233 1 69.0084 42.8182386152 1.0356
5068 1 67.3326 40.8176386152 4.8603
1127 1 56.5564 42.1015386152 6.33578
6213 1 56.2217 42.4000370688 0.8772399406
1010 1 56.3318 44.6022386152 5.29197
5575 1 71.8262 43.3738 3.74412
3224 1 60.7895 41.7743386152 4.06109
530 1 64.3992 44.2944386152 4.87107
7311 1 73.2949 33.5842386152 1.81709
6119 1 75.4224 38.8642 -1.55196
4866 1 55.2876 34.0497386152 -1.38753
772 1 72.9336 37.6792386152 6.88648
3592 1 73.8382409857 41.0197 -1.56449
7479 1 71.0139 34.6643386152 -1.62273
7166 1 61.3347 35.3456772304 7.82417
6775 1 54.3468 42.5596772304 14.3154
1516 1 71.103 37.8926772304 9.24108
4970 1 65.693 41.0326772304 7.3356
465 1 65.1768 36.1106772304 9.41213
5234 1 72.4851 44.9583386152 7.51198
5716 1 61.7378 38.4096772304 11.0429
1539 1 57.0718 38.3316772304 10.3144
6245 1 69.3637 36.1426772304 10.3926
1254 1 67.1158 37.6096772304 10.5558
7437 1 60.8793 44.4156772304 14.7413
3513 1 68.9535 39.1786772304 7.98339
7012 1 56.3966 35.8586772304 9.06743
3089 1 66.2715 37.7786772304 13.205
463 1 72.5079409857 40.4716772304 7.27925
2843 1 70.1154 43.6010386152 7.55147
1026 1 57.1477 45.5036772304 12.1538
1474 1 64.877 41.2326772304 11.3536
2887 1 75.6254409857 43.7226772304 12.8293
7026 1 68.76 41.6790158455 13.6546
6643 1 63.3531 45.6910158455 14.4802
7117 1 75.2088409857 40.3246772304 14.374
5035 1 72.1988 39.4290386152 11.3368
2430 1 54.7113 39.2916772304 11.3304
6228 1 58.4108 45.8036772304 14.6399
7838 1 75.8639409857 35.3116772304 8.45097
4974 1 71.6366 40.9426772304 13.6713
7919 1 68.31 45.2696772304 12.8788
115 1 73.5512 45.4706386152 10.0424
1243 1 58.5791 40.7896772304 13.824
2766 1 68.0774 45.3466772304 7.50985
2174 1 74.454 38.4226772304 12.4203
4278 1 73.5763 42.7620158455 14.3665
4789 1 59.1443 38.3786772304 12.4439
5837 1 65.7681 45.1646772304 9.29431
3286 1 63.7927 39.0252386152 12.7585
1337 1 63.0139 42.1345386152 9.55659
3797 1 58.6999 40.1116772304 8.6892
1857 1 60.8019 42.2866772304 12.8939
6892 1 68.2996 42.1020158455 11.0478
26 1 66.27 43.7276772304 11.6999
3981 1 67.7359 39.5016772304 14.8307
7446 1 71.9778 45.0235386152 14.2711
7723 1 70.6699 43.1806772304 10.2628
2352 1 72.7326 41.4713386152 9.75722
4257 1 55.9917 41.1926772304 12.6697
999 1 65.2166 43.7806772304 14.3888
6317 1 56.1628 43.2036772304 10.7808
5247 1 59.5282 44.8146772304 8.46721
7416 1 61.2836 43.9036772304 10.6117
6071 1 67.1332 40.1806772304 9.6505
3136 1 64.3184 43.5566772304 7.51852
6659 1 71.0528 45.5596772304 11.5804
2063 1 74.9648409857 42.9226772304 10.1979
3428 1 57.779 42.6836772304 8.75296
7470 1 63.3239 41.8316772304 13.8468
1564 1 62.1036 37.8526772304 14.6637
41 1 61.5758 40.0226772304 9.03159
4201 1 62.5861 35.9166772304 10.0261
2611 1 75.8139 37.7996772304 7.38888
2827 1 62.2236 46.2106772304 12.0075
3371 1 62.3054 45.4720386152 8.18949
3308 1 69.4947 44.1976772304 15.2483
3165 1 63.5263 39.3145386152 7.0329
3628 1 76.0106 46.4216772304 12.6087
2594 1 72.3301 48.2100158455 20.1372
5188 1 73.4645 43.1473544607 17.0905
5948 1 57.9021 44.7163544607 20.8994
580 1 66.6955 44.9673544607 21.3697
7043 1 64.385 41.7470158455 18.0092
6117 1 59.9234 39.1803544607 18.1125
2697 1 72.1259 41.9180158455 21.5296
5278 1 63.344 41.0663544607 20.4042
5962 1 73.9875 40.9090158455 18.5995
5979 1 57.1864 38.7753544607 17.8204
5983 1 60.2292 40.1653544607 22.8166
3712 1 65.9309 39.5400158455 16.949
2713 1 66.9935 44.2790158455 16.5424
1641 1 67.9939 41.5950158455 20.0807
7654 1 70.8547409857 44.2743544607 17.7149
7932 1 55.841 42.9693544607 19.8827
4478 1 71.4611409857 44.3120158455 22.7717
6812 1 55.796 44.6570158455 15.603
6943 1 64.0228 42.6563544607 22.5585
757 1 55.6698 40.6603544607 21.594
5343 1 64.1135 47.2586772304 16.5652
2248 1 70.6132 42.0480158455 19.327
951 1 61.8057 44.4223544607 18.4622
7986 1 60.3254 43.6263544607 20.4833
6281 1 62.2891 42.4180158455 16.3917
1394 1 55.9437 41.2290158455 17.6199
2799 1 59.4109 44.6350158455 17.1161
965 1 71.5175 39.7780158455 18.0647
4356 1 57.8318 46.4850158455 18.6848
2963 1 66.3285 43.5400158455 19.0459
5262 1 74.1411 39.6753544607 21.1982
6928 1 57.6745 42.5973544607 15.9388
5476 1 67.4042 39.0530158455 19.1316
3990 1 75.2768409857 44.9560158455 18.3997
3278 1 61.7037 44.1873544607 22.8902
7819 1 55.4272 45.0503544607 18.2252
7035 1 66.7381 47.0586772304 16.516
6429 1 60.6414 40.0580158455 15.7012
855 1 75.5482409857 39.3696772304 16.8062
915 1 75.8060409857 44.2240158455 21.0339
6608 1 60.5197 40.9283544607 20.2098
6002 1 68.302 41.2340158455 22.83
659 1 66.4212 43.3153544607 23.4456
2067 1 68.2219 48.1440158455 23.6307
5647 1 63.0133 46.6703544607 23.4896
587 1 58.3103 46.8423544607 23.051
3128 1 70.2660409857 46.4640158455 19.3978
2540 1 57.6256 40.9683544607 23.6888
7643 1 74.1285 47.7823544607 22.1955
2754 1 72.6406 47.3570158455 15.7822
5916 1 69.2795 46.0963544607 21.9917
310 1 64.7765 47.0443544607 21.4065
4924 1 63.1591 46.8193544607 19.2127
6996 1 73.9659 47.3940158455 18.092
6798 1 74.1235 45.1143544607 22.9981
3731 1 58.4824 48.3233544607 20.6267
1910 1 66.2678 49.1890158455 22.0022
1426 1 68.7107 48.1370158455 17.9885
7196 1 70.8061 40.9253544607 23.7637
2725 1 70.4505 39.2560158455 15.5097
5694 1 55.0578 47.5010158455 15.4526
2172 1 62.0242 41.9063544607 24.5595
4221 1 62.8894 43.3243544607 26.9045
204 1 71.3226 42.1903544607 26.0017
5156 1 73.6030409857 49.2983544607 24.5705
697 1 55.8303 42.1283544607 31.4436
2315 1 66.1043 46.0893544607 26.8422
652 1 63.3832 45.9493544607 26.3505
7018 1 62.193 49.0383544607 27.9799
1269 1 58.0602 49.2043544607 27.1414
4494 1 60.923 50.3796930759 30.2875
157 1 67.5637 44.0533544607 25.8159
621 1 75.6127 43.3133544607 24.7182
3449 1 75.3545 43.8543544607 30.7697
6153 1 70.112 48.6633544607 27.5816
453 1 60.6529 43.2733544607 28.8555
2770 1 60.6724 46.8663544607 26.7417
4482 1 60.2886 47.8036930759 30.9326
6897 1 55.1552 44.7603544607 25.2639
5765 1 65.07 42.7963544607 32.2277
6532 1 59.6477 48.7053544607 24.7847
4486 1 65.7571 50.8223544607 30.162
5524 1 74.5768 50.1556930759 29.2032
2016 1 68.9413 47.8976930759 31.9912
3578 1 73.8593409857 46.5433544607 25.5762
6011 1 67.2713 43.7243544607 30.73
1197 1 57.0791 45.0543544607 29.1993
7393 1 75.6202 49.9963544607 26.4886
6960 1 73.0044 48.4183544607 30.6297
1644 1 72.8136 45.9656930759 29.3695
7938 1 70.3200409857 44.5530158455 25.317
7421 1 66.1526 50.6123544607 27.2461
74 1 57.0123 44.5913544607 31.7543
5930 1 63.266 46.7083544607 29.1519
49 1 65.9402 46.0063544607 29.6818
5715 1 54.8031 45.8233544607 27.6679
1896 1 67.6332 48.3046930759 26.5332
4743 1 71.5487 44.3776930759 31.226
3302 1 58.693 47.1413544607 28.857
7601 1 70.4515 49.3253544607 30.2866
6099 1 55.536 48.2683544607 26.8074
1362 1 66.4013 48.2113544607 31.182
3536 1 61.5025 45.3436930759 30.6083
608 1 74.9948409857 44.9373544607 27.9564
5442 1 59.7511 44.9483544607 24.733
1905 1 67.5254 42.5903544607 28.1345
7256 1 57.5898 43.3573544607 25.2139
6777 1 71.5125 46.2783544607 26.9563
7541 1 64.9414 41.6983544607 27.8357
5502 1 69.9052 41.2303544607 27.9513
6434 1 58.1927 43.1073544607 27.7753
5564 1 73.8461 42.4323544607 26.7082
6167 1 71.1045 41.7823544607 30.3619
4077 1 73.8158 42.0456930759 29.5281
3709 1 54.3824 49.5283544607 28.9464
7590 1 70.0451 51.8773544607 31.1778
3847 1 71.0782409857 50.2920158455 25.5905
1347 1 69.2937 45.2183544607 32.3276
808 1 55.6174 47.2103544607 24.091
1315 1 62.1172 49.2923544607 23.9888
664 1 59.4579 51.9770316911 40.196
1505 1 67.3579 50.6636930759 39.6835
6038 1 66.1024 50.5226930759 37.2299
2311 1 70.412 52.0026930759 34.059
991 1 70.9515 52.3046930759 36.7636
4815 1 62.2277 51.6340316911 39.6442
7689 1 75.6286 51.8366930759 37.4544
4771 1 59.2712 51.5316930759 36.6527
7745 1 54.3861 45.2716930759 39.0977
2114 1 63.3575 54.1446930759 40.2241
3571 1 63.0897 44.5986930759 32.675
3466 1 74.1382 46.0466930759 34.6796
121 1 69.4946 48.9436930759 39.5895
7374 1 56.9225 45.0796930759 40.1013
4119 1 73.2881 44.4790316911 38.5188
1466 1 69.7981 45.3186930759 35.0722
6305 1 63.4261 44.9946930759 37.1041
6956 1 72.0407 46.1096930759 36.4539
1416 1 58.5841 45.3106930759 37.8706
23 1 55.6487 49.3146930759 37.507
4943 1 57.2326 45.4726930759 35.5578
3206 1 65.9511 43.9116930759 36.6593
500 1 60.0964 47.7996930759 38.4329
2427 1 66.957 48.7146930759 35.4629
1188 1 58.1212 50.0516930759 38.7738
7646 1 69.3015 49.3333544607 34.2743
5940 1 74.0916 50.1356930759 39.1852
6513 1 60.4034 47.0826930759 33.5104
1768 1 62.9972 46.7446930759 34.7811
6035 1 67.5715 46.1956930759 36.6968
2675 1 61.6604 48.7166930759 36.3429
3622 1 71.9425 44.3460316911 40.9705
2796 1 59.0164 44.7136930759 33.5912
5220 1 71.6443 48.6233544607 35.4711
5046 1 61.1188 42.9676930759 33.9295
4416 1 61.793 53.0766930759 36.0562
5895 1 55.557 42.9766930759 35.2544
2206 1 56.5002 48.2216930759 34.9302
2322 1 73.5291 48.5856930759 33.2513
4381 1 65.0888 48.1976930759 33.6667
1665 1 75.1491 51.0476930759 33.1406
4673 1 63.5112 45.4940316911 40.0461
5559 1 71.5914 49.9516930759 37.835
3300 1 67.9017 46.7120316911 39.3058
7126 1 64.3628 52.4746930759 34.8641
2525 1 59.2497 49.3286930759 34.7875
5251 1 55.1623 50.2613544607 33.4735
4923 1 75.9431 44.9250316911 38.8475
5823 1 63.1896 50.8916930759 37.1322
1369 1 59.4736 51.2723544607 32.7068
192 1 69.4101 44.4470316911 39.8755
3534 1 73.641 44.0176930759 33.0253
190 1 61.6778 47.4440316911 40.7337
1116 1 55.4773 46.6466930759 32.6808
3860 1 66.8117 53.2426930759 36.3055
5621 1 64.2256 50.7696930759 32.7858
6716 1 56.8284 52.2163544607 32.785
4597 1 65.8361 46.7036930759 40.9919
6644 1 56.3128 50.3080316911 43.7793
2280 1 61.7936 56.5633703063 48.8879
1353 1 56.1082 48.2850316911 46.068
2756 1 64.5328 48.0670316911 47.222
6842 1 60.2611 51.7470316911 47.8719
5955 1 73.2203 48.4900316911 45.8852
492 1 55.5119 49.8890316911 48.0347
5352 1 60.4269 54.5530316911 47.1149
5911 1 73.7587 52.9720316911 47.4866
6830 1 60.9203 50.0170316911 45.8014
2528 1 69.6266 50.4850316911 43.797
4277 1 57.2489 51.8650316911 47.4154
7762 1 62.7723 50.0800316911 48.0813
5359 1 75.4663 51.5100316911 49.125
83 1 71.2616 51.6050316911 47.6149
118 1 64.6316 52.3800316911 48.5372
4461 1 70.7145 49.5170316911 46.0402
367 1 67.0114 50.2830316911 44.0444
4141 1 67.5882 54.4090316911 46.8482
5515 1 69.5322 53.5170316911 48.7689
6173 1 73.2191 50.4990316911 41.7955
361 1 70.9277 48.9286930759 41.9323
1124 1 64.1513 52.9850316911 44.3999
2569 1 56.1675 54.2080316911 46.7952
1034 1 64.3606 55.3473703063 48.8507
914 1 66.0997 52.0270316911 46.048
2133 1 62.2333 51.0740316911 43.7764
820 1 60.9737 54.7170316911 44.2905
7077 1 72.7711 52.9886930759 42.8179
6370 1 72.8483 55.4480316911 48.2405
72 1 75.5948 49.1670316911 47.5232
4825 1 65.7305 49.3306930759 41.5937
2679 1 63.2477 54.9260316911 46.0826
2377 1 74.8079 49.5656930759 43.7044
4744 1 60.0215 52.5370316911 42.8898
6882 1 66.7751 48.1190316911 45.4983
2536 1 74.5654409857 53.1570316911 44.9575
2744 1 69.9232 53.1196930759 42.8753
7294 1 69.3042 55.1360316911 44.7505
2673 1 68.7393 47.9990316911 47.1728
6480 1 58.445 51.3806930759 44.8764
1829 1 62.8967 49.8290316911 41.4981
4661 1 65.4044 53.8760316911 42.005
4317 1 62.9678 46.0310316911 46.1703
3954 1 55.1819 45.4690316911 43.4908
552 1 71.4032 46.4230316911 42.8692
1377 1 60.5877 47.2390316911 45.421
2232 1 73.9509 46.8210316911 48.2229
4843 1 57.3106 46.7010316911 42.1115
5444 1 57.0384 49.3356930759 41.2955
6687 1 58.21 46.9560316911 47.0227
6444 1 66.9122 45.9360316911 43.4135
3004 1 66.5483 56.6350316911 48.098
522 1 60.0431 46.6270316911 42.8723
3573 1 73.8254 46.1550316911 44.3091
5131 1 54.5036 54.4700316911 44.6608
4341 1 75.4048 56.6360316911 49.3241
382 1 58.4694 48.1180316911 49.5118
7377 1 68.3168 49.6790316911 49.3365
2041 1 67.8094 52.8820316911 41.1082
561 1 71.0865 49.7150316911 49.8883
1193 1 71.8019 57.8737089215 54.6881
6436 1 66.739 57.5287089215 57.7098
3213 1 75.1795409857 56.5830316911 52.1511
3176 1 68.6535 56.0413703063 56.5609
4691 1 55.4259 58.2423703063 55.9227
3433 1 60.0777 56.3343703063 55.9224
4484 1 68.6909 49.2593703063 57.3284
3532 1 72.5239 57.1730316911 52.0532
665 1 64.3471 56.2163703063 57.0153
5289 1 62.6148 57.2703703063 55.1383
3097 1 69.1298 57.4683703063 54.2282
1683 1 67.1883 57.5923703063 52.2946
4146 1 58.2023 58.4723703063 56.0725
1241 1 73.3357409857 56.3953703063 56.6984
3119 1 57.4932 49.7817089215 57.3234
6351 1 66.7557 48.5093703063 55.6737
1018 1 57.8179 56.3243703063 49.5738
4601 1 63.6084 57.8733703063 52.6408
4142 1 59.0765 55.5243703063 53.4736
6456 1 56.6283 54.5343703063 53.4064
812 1 58.691 54.4733703063 57.7348
7415 1 61.2924 48.5420316911 49.9593
195 1 73.2713 51.0620316911 50.9251
979 1 68.558 53.4373703063 55.9
6884 1 63.57 51.9123703063 50.9434
4816 1 61.2613 49.0563703063 54.3641
3767 1 70.8729 50.4670316911 54.1469
3964 1 75.349 52.9503703063 55.2156
1946 1 64.8046 49.6503703063 51.7953
122 1 54.8228 51.8513703063 51.8275
3421 1 60.8299 51.1093703063 50.8879
1097 1 73.4127409857 49.5960316911 53.3624
2685 1 56.6865 51.9713703063 54.0589
3081 1 71.049 53.2673703063 54.3549
3006 1 69.5228 54.9263703063 52.7643
3635 1 60.9606 51.7693703063 54.8267
7499 1 63.3706 54.1590316911 52.9553
1680 1 58.2311 52.4140316911 50.0757
5874 1 75.0985409857 53.8460316911 52.5989
3178 1 56.1724 54.1253703063 50.7684
5167 1 58.5082 52.0373703063 56.1645
2120 1 75.3356409857 50.2943703063 55.2361
4615 1 60.6524 53.4463703063 52.7506
648 1 67.1345 53.8463703063 51.9518
237 1 65.0938 55.8053703063 51.6025
2087 1 73.5781 49.3347089215 57.5436
6164 1 70.9497 55.3760316911 50.2196
6752 1 62.4963 52.4637089215 57.0079
5913 1 66.8659 50.0850316911 53.4335
6229 1 72.4999 53.4753703063 51.8622
1046 1 64.2811 53.8103703063 55.395
4917 1 58.2321 50.4233703063 52.1929
7998 1 66.5922 52.6273703063 54.2849
1236 1 73.0216 53.7103703063 56.3251
3512 1 75.5212 57.0223703063 54.9951
5428 1 69.175 49.6933703063 52.0389
1943 1 56.0843 49.5680316911 50.5717
5794 1 62.7921 48.0100316911 52.4196
3504 1 60.0494 54.7310316911 50.0628
6390 1 58.974 47.9933703063 53.2384
2704 1 71.8285409857 47.0783703063 50.1468
5441 1 54.7687 56.0863703063 54.6122
4820 1 71.2731 48.6127089215 56.1764
4549 1 67.2607 52.1980316911 49.6805
1670 1 54.3912 51.5467089215 55.5637
385 1 65.9968 48.0540316911 49.5961
3110 1 70.0092 51.5797089215 62.0234
7114 1 67.9207 55.4177089215 61.1912
3873 1 57.8253 57.1043703063 58.5258
2023 1 63.2485 55.5117089215 59.2906
2151 1 71.1678409857 59.4453718527 65.9943500594
2089 1 70.932 58.0337089215 63.6685
6022 1 62.5254 60.9127089215 64.6239
5763 1 69.1414 61.2350104678 66.3902600594
801 1 73.2116 51.9763703063 58.5152
4646 1 55.4587 61.4320718527 66.4740100594
2780 1 59.6402 58.1637089215 60.3531
3235 1 59.6921 52.7572104678 63.3883600594
7693 1 67.6957 55.8917089215 66.0837
5670 1 56.0316 54.8747089215 61.5646
5708 1 55.0501 59.5921718527 63.1063700594
4170 1 67.0305 60.3815718527 64.5578200594
5465 1 61.6202 56.2073703063 64.7504
1073 1 64.2484 56.6484718527 64.1445100594
2033 1 66.0349 57.9787089215 65.7236
5045 1 61.325 58.7567089215 65.9121
667 1 72.8053409857 57.1207089215 61.7641
1773 1 71.9808 57.4197089215 59.1586
7467 1 65.3339 54.3377089215 60.8646
6218 1 70.6603 60.2177089215 62.1353
630 1 69.8263 55.4137089215 59.159
478 1 64.0952 50.9423703063 58.6199
4775 1 68.9743409857 55.9387089215 63.7107
4768 1 65.9037 59.7502718527 62.1335300594
4473 1 74.5192 53.1452718527 62.3399200594
3885 1 75.2151409857 58.1314718527 62.2740500594
638 1 70.433 53.6037718527 64.0020000594
3398 1 57.7705 59.5337089215 63.7558
4765 1 59.4408 57.2237089215 62.9396
4656 1 63.4814 58.8847089215 62.8535
5558 1 72.1081 54.4897089215 61.842
1059 1 55.1279 57.7213703063 58.5991
2743 1 64.7426 53.8592718527 63.6756000594
6509 1 69.7896 59.0587089215 59.9013
1743 1 58.063 54.9207089215 63.3548
7500 1 57.8994 55.9157089215 66.1326
1044 1 67.3191 57.9391718527 60.4810500594
2440 1 62.9582 50.5617089215 61.0777
3962 1 58.6219 58.4587718527 66.2156300594
3362 1 62.4416 57.7983703063 60.4919
699 1 62.1469 53.5033104678 64.6450000594
719 1 66.0942 53.6226104678 66.2149000594
2050 1 70.9645 52.8777089215 59.7685
1479 1 75.5021409857 55.6757089215 58.3702
1771 1 61.1009 53.8170718527 58.9485800594
2676 1 66.3062 52.1958718527 59.6512700594
1982 1 64.533 51.1272104678 63.1792900594
2908 1 75.9142409857 53.2422718527 66.5459100594
4314 1 75.2132 53.3023703063 59.7035
19 1 56.2602 53.7837089215 58.9753
6297 1 60.5678 51.9040475366 60.9511
2938 1 54.5509 57.4727089215 61.3157
7100 1 55.0926 51.6623718527 64.4904000594
606 1 73.9182 50.7147089215 63.0692
5918 1 58.9267 49.9219718527 59.7114600594
626 1 67.481 50.4487089215 61.3771
2456 1 68.7004 51.8867089215 58.2973
2341 1 59.5461 51.3927104678 65.7030000594
1682 1 55.2488 51.2557089215 58.1798
7730 1 74.1658 49.9021386152 3.19695
7141 1 75.7430409857 45.6146772304 2.73001
1808 1 60.9169 45.569 1.5717
2909 1 62.7989 53.6494 2.8396
2586 1 54.665 47.7308386152 4.77101
2848 1 71.3651 54.0320370688 1.9175399406
3569 1 67.4378409857 49.7564386152 5.78936
6712 1 57.3644 47.8118386152 4.06876
2445 1 61.4825 51.299375684 1.9753399406
1152 1 62.5432 48.8876772304 5.91805
6966 1 73.551 47.2899386152 2.59886
7079 1 67.5407 47.3120370688 -0.1075600594
1756 1 73.8482409857 44.6966 -0.204227
1886 1 65.6202 46.3771386152 3.64148
5268 1 67.8575 45.2146386152 4.7068
7024 1 71.6891 46.3039386152 4.15924
6732 1 58.1786 46.4032386152 6.40826
5663 1 68.1257 51.9480370688 -0.7455600594
4904 1 58.1022 50.3555 3.37157
2271 1 67.6406 49.8942 1.01576
3531 1 57.6942 47.7958 -0.388484
3419 1 60.6456 50.3545386152 4.4826
5510 1 65.1794 46.4343386152 0.866062
6004 1 69.5481 45.6220370688 0.8844399406
2834 1 68.8137 49.7673386152 3.47658
7345 1 63.0871 49.9070370688 0.4668399406
3538 1 62.6243 47.1015 0.0837621
1354 1 75.0957409857 50.6250370688 0.7259399406
3824 1 61.8803 43.572375684 0.0612399406
7242 1 54.9269 47.1424 0.034906
5945 1 54.8341 53.4023386152 4.51768
2085 1 59.4638 51.9843 0.030483
3098 1 57.3304 50.1610370688 0.7811399406
7088 1 71.9559409857 46.5459 0.461785
1156 1 65.1574 50.3811 2.33625
130 1 58.0561 54.9040370688 6.1946399406
544 1 58.3239 46.4453386152 1.89451
4709 1 65.0723 48.8016772304 4.59901
7725 1 56.6073 44.4746386152 2.55961
4967 1 69.3164 47.0532386152 3.34885
6593 1 61.0297 46.6260386152 5.76203
5333 1 54.7905 51.3810370688 0.6868399406
6875 1 70.6369 53.1729386152 -0.566687
3522 1 65.7405 53.0047386152 3.07597
1163 1 67.987 53.1767386152 4.76753
1321 1 56.3943 51.3385386152 5.25489
1632 1 75.8373 53.1043 1.47447
3169 1 73.0218 53.8504386152 6.09947
870 1 72.5703 51.3845 4.87235
7490 1 70.2046 52.2027386152 3.57856
4311 1 58.6183 53.1109386152 2.47804
2074 1 62.2713 54.4923 6.46489
4649 1 60.4815 54.3655386152 4.31286
217 1 60.4177 52.2887386152 6.48912
1020 1 64.5807 44.052 -0.132799
1396 1 71.4973 47.4326772304 6.69064
6878 1 54.4129 46.2089386152 2.38001
5812 1 61.6855 44.5187386152 4.01202
37 1 55.3983 49.2549386152 6.87335
146 1 71.6559 48.6438 -1.61574
1749 1 58.8052 53.7316772304 11.9828
21 1 74.7637409857 48.1886772304 14.0653
6080 1 54.3558 47.6356386152 9.74229
4238 1 67.841 54.9196772304 10.763
4898 1 75.4591409857 47.6156772304 10.1091
1477 1 63.1897 49.3306772304 8.4581
6393 1 60.5163 48.4126772304 12.2493
3464 1 57.0968 47.9836772304 8.73198
4560 1 75.8456 49.0066772304 7.63325
2709 1 67.0769 47.6230158455 13.7932
2262 1 69.2023 49.3256772304 9.96909
1460 1 63.8432 47.1416386152 9.98289
404 1 68.9472 48.0227386152 7.47626
7392 1 65.0236 48.4566772304 12.2174
4629 1 70.7265 48.2800158455 12.0421
5170 1 54.9988 47.2366772304 12.4018
5555 1 58.9536 46.6996772304 10.4754
6692 1 67.579 51.6780158455 15.1712
6805 1 65.8144 54.2932386152 7.29306
2870 1 70.9072 51.4436772304 10.0333
3984 1 62.7719 49.5016772304 13.3015
2253 1 74.9835 50.2196772304 10.9533
3895 1 72.8465409857 54.7926772304 14.4512
391 1 54.5149 50.2996772304 14.4515
1803 1 73.0517 49.6066772304 12.5971
4435 1 55.4274 52.9686772304 13.4283
3020 1 54.9178 55.5106772304 12.5407
2632 1 60.9916 50.3076772304 9.96553
6743 1 61.3418 52.9406772304 10.6058
328 1 56.0212 55.3786772304 10.0692
3141 1 70.9655 54.7386772304 7.56672
6925 1 58.2978 50.3620386152 9.39735
1987 1 59.2737 48.5186772304 14.7006
479 1 57.7592 52.3836772304 7.4943
3199 1 64.9329 51.2377386152 9.10748
1217 1 70.1391 52.1246772304 12.6866
2718 1 74.935 53.6466772304 8.10451
4982 1 72.4237 56.1820386152 11.9417
3725 1 69.2213 53.1506772304 8.92144
2269 1 56.9008 49.4516772304 13.095
5367 1 62.3882 52.1916772304 13.0401
6181 1 56.9295 51.7116772304 11.3989
2013 1 67.2551 52.5936772304 12.5367
4293 1 70.1276 55.3780158455 14.9796
3439 1 64.6652 53.6290158455 13.154
3672 1 73.4726 51.5286772304 9.0147
5871 1 63.5759 53.8366772304 8.98958
7909 1 72.7173409857 51.9786772304 14.1335
482 1 64.8184 55.4996772304 11.1138
22 1 66.637 50.1906772304 10.9709
5235 1 70.0538 54.9116772304 12.3029
3481 1 58.7657 55.8551386152 10.3116
1125 1 74.3789409857 55.5616772304 9.90774
2882 1 61.6125 55.8783386152 9.84952
925 1 69.0984 49.6376772304 13.9158
7558 1 55.643 52.738375684 9.2414399406
7941 1 59.1061 54.5796772304 14.5155
1889 1 67.2055 52.0166772304 7.33412
5108 1 68.0066409857 57.2866772304 14.8046
4411 1 75.1419 52.2306772304 15.3975
5050 1 73.1643 49.6136772304 7.05559
496 1 65.284 51.3323544607 23.8005
7567 1 55.4554 53.7923544607 23.9047
6995 1 64.7237 56.4440158455 20.4067
3893 1 59.4141 56.6730158455 19.9047
3932 1 62.0523 55.8240158455 19.5601
175 1 71.5748 57.7136772304 15.9005
1101 1 65.9492 56.3686772304 16.4076
7082 1 68.1654 53.5210158455 19.3398
7007 1 56.6333 58.9100158455 22.7072
1560 1 56.6002 50.6926772304 18.1422
7264 1 75.6706 51.8090158455 18.2051
268 1 57.466 54.7920158455 19.773
1586 1 65.2612 51.5816772304 16.647
2073 1 57.8477 53.0530158455 17.4948
602 1 74.3613 55.6830158455 21.7131
4415 1 74.1745 51.4080158455 22.785
7078 1 73.4143 54.9530158455 19.146
4801 1 61.1178 48.7890158455 19.6821
7135 1 69.2469 53.4336772304 16.7493
63 1 69.4109 54.5370158455 21.8489
4670 1 65.2306 54.9213544607 22.6973
4908 1 60.3941 52.1346772304 17.6672
5842 1 72.953 52.2860158455 18.8377
1323 1 56.6466 50.4000158455 20.8116
1838 1 64.2187 52.5826772304 21.3747
5331 1 66.0312 51.8386772304 19.2532
44 1 67.9223 50.0200158455 20.0666
6552 1 69.685 51.7820158455 21.3012
5479 1 74.78 55.0760158455 16.6779
4572 1 70.541 48.9950158455 16.1936
527 1 71.8088 55.9600158455 22.5584
296 1 71.4848 51.4520158455 16.6861
4203 1 66.822 55.9226772304 18.9438
3425 1 61.7915 53.1110158455 19.9273
5912 1 72.197 50.7980158455 20.9131
6555 1 57.298 52.9710158455 21.726
513 1 63.2653409857 49.8116772304 15.9165
4460 1 61.9091 50.7723544607 21.5219
1002 1 59.9824 52.8693544607 22.3101
6459 1 57.3709 48.4256772304 16.7572
6083 1 62.2522 55.9476772304 16.7248
5692 1 60.7777 49.6106772304 16.8818
4899 1 56.3487 57.0576772304 16.3323
1807 1 54.7622 55.3830158455 19.1588
3125 1 72.0488409857 59.1336772304 20.0333
6007 1 68.578 59.2670158455 21.4497
514 1 75.602 58.0710158455 21.2245
7698 1 59.3297 58.0450158455 22.4229
2792 1 64.355 54.1840158455 15.9146
4808 1 71.3373 56.8126772304 18.7408
1434 1 74.3404409857 57.7746772304 16.0781
7524 1 69.1614 56.8830158455 20.2227
6859 1 71.1416 58.7940158455 22.5662
1877 1 58.3762 58.1296772304 17.8957
6952 1 56.5665 54.3146772304 15.5284
6416 1 69.0011 50.7643544607 23.7476
3038 1 59.8876 56.9396772304 15.6859
7199 1 64.7945 59.1976772304 20.4073
436 1 76.0701409857 49.0250158455 18.3349
304 1 61.3481 53.4156772304 15.4478
4485 1 66.185 56.2483544607 28.0052
2131 1 63.2441 52.1276930759 30.3914
1431 1 74.4517 52.7463544607 26.7084
4907 1 59.1169 55.6153544607 27.3176
1106 1 56.0742 51.8263544607 25.575
6400 1 57.0575 52.7163544607 30.0668
2954 1 62.837 52.6766930759 27.5899
978 1 55.2164 51.9033544607 28.2153
1627 1 60.1493 53.0363544607 26.6744
1874 1 67.554 52.3033544607 25.5332
2669 1 74.4254 52.8343544607 29.5729
6338 1 58.8235 51.4263544607 24.6874
5570 1 71.5907 52.7383544607 26.7902
2238 1 74.3442409857 53.9013544607 24.1541
6714 1 64.1354 58.4213544607 31.6408
4764 1 59.7832 59.8633544607 28.6805
6938 1 75.3099 59.7403544607 26.219
2879 1 69.9052 58.6513544607 26.3382
7150 1 56.9093 58.1643544607 25.4803
5529 1 57.2776 59.8293544607 27.6828
4434 1 67.8119 53.9763544607 27.8962
4671 1 57.4704 57.2153544607 30.992
5124 1 67.5465 57.0590158455 25.7827
4266 1 71.9437 54.9813544607 25.035
1392 1 70.382 54.5423544607 28.6665
471 1 62.6934 54.3496930759 31.8122
684 1 63.4004 55.7423544607 24.5132
2099 1 72.0083 53.6423544607 30.7708
5230 1 55.2499 58.8393544607 31.0242
5317 1 55.2913 61.0173544607 29.3121
722 1 69.8553 59.7833544607 28.881
7775 1 61.4953 56.8783544607 28.0008
7535 1 63.7589 55.4273544607 27.1996
3669 1 62.1247 56.9266930759 30.7264
4953 1 74.2395 57.6150158455 27.5911
353 1 74.2926 57.8283544607 30.2988
5044 1 59.517 57.2220158455 24.9829
4242 1 67.6799 52.7906930759 30.3689
6503 1 68.2871 57.0666930759 31.7143
7913 1 66.1315 59.4410158455 25.4263
1038 1 67.3589 60.4643544607 29.5627
3256 1 71.7153 56.7203544607 27.1958
445 1 66.3372 57.9643544607 30.1792
5696 1 54.9196 56.3293544607 25.235
7011 1 57.1261 55.4103544607 29.106
6682 1 54.6287 55.9203544607 27.9783
1847 1 59.8882 58.6166930759 31.0501
4529 1 70.2219 57.2623544607 29.7751
1172 1 63.4306 61.1113544607 31.8777
6360 1 61.1393 59.1513544607 26.3139
5877 1 73.9354409857 60.5456930759 30.8095
2317 1 72.3012 56.3686930759 31.5389
5284 1 63.6401 58.5503544607 24.9698
4294 1 67.1816 54.6396930759 32.2981
2494 1 58.8729 51.4073544607 28.5978
5686 1 75.608 55.3133544607 27.1346
3701 1 71.779 61.6903544607 29.7036
5031 1 60.812 54.6220158455 24.338
2653 1 76.0894409857 61.9363544607 30.0301
6340 1 63.6449 50.5223544607 26.0202
6013 1 67.7017 54.8510158455 23.9732
7434 1 54.8548 61.8550316911 38.4789
5069 1 74.8143409857 61.5986930759 39.0817
211 1 59.4189 61.3420316911 40.0221
3673 1 65.5312 63.4756930759 39.8519
7869 1 60.6913 62.7953544607 36.574
4706 1 56.1841 55.2310316911 40.4806
1265 1 65.1532 62.1036930759 37.5774
4209 1 69.5377 61.2726930759 37.5777
6524 1 64.359 57.7166930759 34.3611
7032 1 72.8576 52.6723544607 33.2168
1110 1 70.4371 63.2056930759 39.5641
300 1 58.9889 63.6926930759 38.5682
5876 1 73.5605409857 53.5706930759 36.9436
1689 1 56.8312 56.2816930759 33.5158
4901 1 56.9005 62.5963544607 33.4601
1185 1 71.7361409857 58.0970316911 39.3835
3596 1 73.3307409857 55.7006930759 38.8254
2300 1 66.5181 59.6376930759 39.7224
3533 1 69.7839409857 56.6436930759 35.8325
1776 1 68.8266 54.2833544607 34.5695
270 1 61.4611 57.3136930759 38.3631
6600 1 61.7793 59.9606930759 39.2379
1919 1 56.2375 64.2053544607 38.4398
2185 1 67.2793 57.4146930759 37.0497
193 1 70.5155 54.8046930759 38.112
1171 1 63.0546 55.1356930759 37.7253
5346 1 74.9496 59.7226930759 37.0268
4003 1 59.1344 55.4826930759 34.8461
1596 1 55.2964 57.9096930759 39.7755
7667 1 67.8597 54.4240316911 38.7944
377 1 65.5073 61.9606930759 33.4627
6898 1 57.8645 54.0206930759 36.7901
1328 1 70.4313 61.2993544607 33.6075
6264 1 73.3769 61.2326930759 33.3729
3899 1 58.1941 59.5786930759 36.3315
4289 1 62.1486 59.0856930759 35.011
3544 1 55.0779 54.0873544607 33.5016
3013 1 73.9398 54.9796930759 34.5597
7060 1 59.9824 56.5800316911 40.3643
221 1 60.9224 60.3603544607 32.8778
3185 1 55.2211 60.2663544607 33.3779
3846 1 59.1709 61.4543544607 34.6807
5756 1 68.9982 58.6396930759 33.8483
4333 1 60.6883 53.6076930759 33.5436
1918 1 65.3568 55.7866930759 36.3682
5760 1 60.1015 57.6416930759 36.0791
3404 1 75.4651409857 57.3176930759 38.0636
6147 1 72.8931 59.3226930759 35.2192
882 1 66.4536 59.5596930759 34.4458
2625 1 67.1925 56.8846930759 39.7858
4871 1 56.1305 58.4056930759 35.1578
4428 1 67.0753 60.2066930759 37.121
2312 1 70.8823 59.0686930759 36.9644
5140 1 64.7958 54.9736930759 33.4739
380 1 72.1898409857 56.9796930759 34.2234
6563 1 57.0499 60.1886930759 38.9005
2535 1 62.7345 60.9126930759 36.9766
4295 1 73.5312 59.6936930759 40.895
4410 1 58.599 54.4906930759 39.3787
5477 1 55.1612 53.9706930759 36.2775
4990 1 74.1314 63.6496930759 37.2635
2416 1 70.6111 55.0280316911 40.9752
2036 1 70.095 63.3606930759 35.5549
5541 1 64.1112 60.0956930759 40.7935
4256 1 72.7296 62.4466930759 40.9909
3693 1 73.7695 65.1850316911 48.3055
3980 1 59.1388 58.4890316911 42.0336
7823 1 74.4736409857 59.2490316911 49.2941
5640 1 61.7612 58.5800316911 47.1168
2143 1 60.5558 62.8623703063 48.2521
7546 1 62.0526 60.5770316911 48.8835
4470 1 69.7584 61.0890316911 45.5524
2228 1 61.5186 63.6920316911 45.7893
6523 1 75.8494 58.8390316911 42.1169
4162 1 61.5767 62.5720316911 43.4611
5545 1 56.8021 59.7170316911 41.6034
1336 1 64.1845 62.3996930759 42.1419
214 1 73.4138409857 62.2663703063 45.5651
7502 1 67.5018 59.8780316911 44.5297
5000 1 56.2115 66.5410316911 48.6237
5574 1 57.7426 65.3480316911 46.6924
6868 1 61.2052 59.8620316911 43.2393
524 1 68.5896 62.9870316911 47.5763
1436 1 57.7668 61.1040316911 45.9226
1872 1 71.5673409857 63.6940316911 47.1739
2024 1 65.8125 62.7240316911 46.8456
5892 1 62.4501 64.8636930759 41.9028
1790 1 56.3547 58.9370316911 47.0018
1464 1 59.5996 59.0550316911 45.4708
5198 1 74.8788 64.5746930759 44.4628
1298 1 65.8813 58.9090316911 46.7041
3939 1 69.5013 64.7136930759 45.5167
426 1 73.5072 55.3486930759 41.5965
627 1 56.9933 61.7016930759 43.4322
1598 1 71.4595 61.8850316911 43.5968
6991 1 68.2422 60.2666930759 41.9197
6735 1 66.1306 62.2120316911 44.1315
313 1 71.155 58.9710316911 46.7791
2978 1 73.3896409857 64.7586930759 42.1771
7279 1 73.9841 59.7510316911 46.6176
4048 1 55.943 65.4076930759 44.5756
6655 1 63.8855 64.5810316911 46.6773
2258 1 64.746 60.8680316911 48.5107
2439 1 69.3497 62.7246930759 42.1041
5539 1 59.1159 63.1086930759 42.2134
6826 1 54.77 63.2640316911 42.9992
1384 1 63.118 66.1956930759 48.643
1320 1 57.8791 62.8703703063 48.1622
4804 1 67.715 64.3936930759 43.4929
2884 1 55.4524 63.9180316911 49.3707
5187 1 54.9241 58.4230316911 43.2505
3807 1 67.9257 57.1360316911 43.5988
7270 1 75.3721 57.9480316911 44.9335
5800 1 58.8403 56.6980316911 44.2396
2522 1 65.7203 56.5430316911 42.0519
1635 1 71.5775409857 59.1300316911 42.9711
4752 1 71.4898409857 56.2530316911 45.9769
6016 1 63.3855 58.1670316911 42.6109
666 1 56.3204 55.9230316911 43.2241
5497 1 63.7621 57.6880316911 45.3767
5318 1 60.2343 66.1976930759 45.7718
438 1 73.0209 57.0160316911 43.8534
2643 1 62.0716 55.7996930759 41.8758
5456 1 69.2009 65.2060316911 49.3951
617 1 75.7559 63.2650316911 47.0221
2030 1 69.6391 57.7870316911 41.312
1500 1 70.2267 59.3120316911 49.3712
6860 1 57.989 56.3090316911 46.8374
7039 1 56.6657 68.8653703063 56.3314
2092 1 69.0116 66.0160316911 53.1199
2695 1 71.0803 67.8143703063 53.8169
6531 1 71.2961 67.9493703063 57.5538
4932 1 59.052 60.9783703063 57.2021
7134 1 64.5858 60.9023703063 55.1747
2662 1 65.0667 67.8673703063 55.2884
1035 1 60.8571 65.6543703063 55.3743
4215 1 73.7117 68.4693703063 56.3255
7394 1 62.4473 67.7383703063 54.7954
4891 1 71.0513 65.2953703063 56.9905
3584 1 73.4049 66.4783703063 54.2474
5928 1 67.8795 67.8773703063 56.5354
7176 1 59.0907 57.6783703063 51.7581
4114 1 55.5301 66.4603703063 55.7821
710 1 59.3234 66.8953703063 53.4262
4721 1 60.4044 67.3330316911 50.9605
5552 1 74.9041409857 63.8160316911 50.6252
7348 1 69.4675 62.7213703063 54.244
1003 1 68.5644 65.0313703063 55.6609
7548 1 60.3124 61.2103703063 54.639
1402 1 75.8841 61.5843703063 53.9264
7127 1 56.0847 61.1163703063 52.5993
6049 1 61.9232 63.3643703063 54.5841
6724 1 68.7976 61.5973703063 50.0062
5455 1 65.9072 65.1193703063 54.8365
7881 1 56.667 65.9003703063 53.2514
6806 1 58.1791 59.6463703063 53.5436
2235 1 65.4892 63.7640316911 52.2801
541 1 58.1899 61.2983703063 50.4092
6106 1 55.3256 63.7660316911 52.1836
5136 1 62.6645 63.5480316911 51.8662
506 1 60.8278 61.3053703063 51.7012
5587 1 64.1405 63.6923703063 56.3096
104 1 68.6206 57.2213703063 50.0249
1575 1 66.2485 61.3670316911 50.7487
6504 1 56.9004 59.0210316911 49.647
6575 1 72.1314 62.4113703063 54.9251
1382 1 73.5726 61.9413703063 52.4976
3992 1 67.0285 65.7140316911 51.1268
1399 1 66.7161 60.0107089215 56.7357
3658 1 72.533 64.6553703063 52.1759
1507 1 68.1832 60.2213703063 54.4544
5488 1 71.8129 66.5210316911 49.9631
685 1 73.5371 64.4373703063 56.0824
6301 1 62.2169 59.7663703063 56.1571
4061 1 69.9684 63.6663703063 51.7269
5414 1 71.6187 60.1863703063 56.3581
4708 1 72.4331409857 59.6603703063 50.9891
7409 1 61.4716 58.6163703063 50.8946
5048 1 55.8101 64.2743703063 57.4921
5811 1 61.2403 65.0400316911 49.967
2001 1 65.6822 59.8643703063 52.8655
6190 1 69.3061409857 60.7173703063 57.8569
3343 1 56.185 67.5800316911 51.1429
7529 1 75.7674409857 59.8413703063 57.9871
6056 1 65.1827 67.3290316911 50.0317
5013 1 64.2356 69.2673703063 57.6476
6568 1 76.1512409857 63.3643703063 55.9011
5867 1 54.4464 60.4860316911 54.806
3841 1 75.9447409857 66.9083703063 53.2447
365 1 54.3421 59.6580316911 50.5568
1599 1 59.9802 65.2677089215 57.956
288 1 74.7368409857 60.7994718527 62.4675000594
5829 1 57.1021 67.2527089215 60.9055
4041 1 75.2120409857 68.1893703063 64.2186
1581 1 58.6652 67.7287089215 65.4753
2898 1 69.694 69.1707089215 65.5723
5685 1 71.9021409857 66.0773703063 62.3404
3832 1 63.8802 66.0477089215 60.6415
3304 1 59.0571 60.5677089215 61.6715
3777 1 70.6775 70.8777332375 63.7511600594
415 1 74.9645 61.6537089215 64.9874
6902 1 65.2294 68.4133703063 60.1319
6358 1 55.6702 69.6453703063 60.3818
4112 1 73.0145 59.8027089215 58.5551
6398 1 74.1037409857 64.2591718527 65.4408800594
1053 1 69.4101 63.7120718527 65.1318500594
3369 1 57.849 64.1757089215 63.1501
6746 1 55.4886 69.1783703063 63.365
7395 1 61.3259 67.6637089215 64.7333
3501 1 64.9358 70.4133703063 62.2703
2561 1 63.3057 69.2687089215 66.0208
1427 1 56.9187 66.7771718527 63.5355400594
2789 1 64.9149 64.2797089215 64.5698
879 1 60.6394 64.4307089215 63.5352
4678 1 67.9284 67.5993703063 64.2327
2299 1 69.964 68.7313703063 59.899
4637 1 69.0336 66.8343703063 61.8758
6161 1 71.5972409857 65.2033703063 64.9822
723 1 54.7 61.6533703063 61.0829
2213 1 60.6021 71.3527089215 63.9542
59 1 57.9156 61.9747089215 65.1519
2128 1 58.5708 70.4507089215 65.62
3521 1 60.6464 62.5963718527 65.8224400594
4647 1 62.3362 65.1910718527 65.7276200594
7373 1 73.7999 67.9743703063 61.8921
7534 1 67.5303 67.2823703063 59.3349
1162 1 72.4356 71.3707718527 65.8447400594
2355 1 61.4897 66.7513703063 61.9134
1066 1 65.825 64.4087089215 61.86
1936 1 62.1214 69.4543703063 62.606
5276 1 67.1808 65.3077089215 65.5589
784 1 65.7415 69.3997089215 64.6386
360 1 68.5187 64.2273703063 61.1428
7465 1 59.6317 67.1687089215 59.9828
502 1 72.3084 64.0483703063 60.5633
5533 1 72.0759409857 70.0693703063 61.4235
6346 1 64.9606 61.8967089215 65.6145
2623 1 75.4928 66.8183703063 59.9194
3811 1 74.3937 64.5993703063 58.8032
895 1 60.2221 69.6003703063 59.2003
6520 1 67.6723 64.6513703063 58.3016
2523 1 58.1442 63.3673703063 58.347
7943 1 55.0548 65.7763703063 59.7459
4728 1 62.4887 62.1623703063 60.0233
2514 1 65.1105 62.0137089215 60.7095
5584 1 70.0611 63.3713703063 58.7576
6445 1 68.8028 62.1257089215 62.9974
6282 1 61.2562 62.0093703063 62.4023
3293 1 57.368 62.5987089215 60.8965
156 1 72.6508409857 61.4217089215 60.9541
4166 1 62.6174 64.5233703063 58.5993
858 1 73.7893 69.0537089215 66.4373
3320 1 61.4001 60.0133703063 58.8333
7292 1 54.3456 65.1997089215 64.1059
3418 1 65.9182 62.3894232375 58.1598600594
