# LAMMPS data file written by OVITO Basic 3.7.6
8000 atoms
1 atom types
1.0071719606 63.9928280394 xlo xhi
1.0071719606 63.9928280394 ylo yhi
1.0071719606 63.9928280394 zlo zhi

Masses

1 18.0153

Atoms  # atomic

1 1 61.7061337955 47.0604571014 18.0351551245
2 1 54.0470150306 27.0082806465 39.5983574688
3 1 25.3302167972 57.5555680168 23.9415720377
4 1 20.3091892516 6.0024005815 33.8834799358
5 1 7.6532924187 33.5446171061 39.9014444458
6 1 15.1782517361 48.1385195908 16.1081089768
7 1 48.9254623779 17.0604520967 15.8224060408
8 1 7.3900123763 47.2000963009 45.9144960747
9 1 16.6179148771 37.8176899858 54.5432160292
10 1 41.1040295773 8.0388906052 54.8408862398
11 1 9.5153373694 33.7504542301 31.8664902712
12 1 11.9130123393 4.0638658501 3.4564573771
13 1 41.8014067614 58.7107249493 1.8594434701
14 1 21.4700778788 58.3859079209 4.1455519475
15 1 34.3685954589 14.915286622 53.3495118752
16 1 53.6509612252 30.8597905301 9.6963581449
17 1 5.6782386039 45.2716014831 3.4870369132
18 1 51.5676476647 40.6017189701 20.9699717695
19 1 2.3591527698 49.1406843647 57.0698856228
20 1 8.3571571254 57.8741494653 15.947999439
21 1 8.3849337997 33.6809180658 6.1674230004
22 1 58.381687882 3.4476078925 51.8280933526
23 1 50.969094975 61.4412791117 38.1108252292
24 1 50.4923565442 33.7516509576 9.7149389135
25 1 36.8672994212 4.1335657771 23.7301291902
26 1 48.1209465928 61.6830810453 37.7012924933
27 1 7.2844421182 2.0183436833 51.710625104
28 1 44.4269008494 34.7192366063 4.5450825611
29 1 8.7678865887 35.0841754976 62.5744540502
30 1 63.5607464387 6.591140106 33.868237407
31 1 47.0186346258 4.4095059364 59.3898362932
32 1 44.4326955298 62.4755035845 6.8602967101
33 1 9.0666905411 14.895320169 20.4196031067
34 1 43.5939785334 11.2483247107 55.0059716444
35 1 47.9190145794 31.1921658372 46.2964410932
36 1 21.9337152932 40.5675807445 21.8812482417
37 1 10.5491839282 54.2898247348 36.3210878117
38 1 9.2349252285 32.6475124065 47.2661682542
39 1 39.28166559 36.3100023362 17.2170344377
40 1 62.5369775848 48.8505094472 35.5515920514
41 1 61.3713650334 63.1043523748 24.110373596
42 1 34.5236031585 6.2935076868 34.7797658218
43 1 50.8669322409 54.959173302 56.9763519235
44 1 43.2787983104 53.543318739 26.7185466285
45 1 7.734732872 3.0285265312 19.5136804153
46 1 3.8993347193 41.6377070413 1.703950781
47 1 16.6366846026 4.3138685162 51.3751005141
48 1 7.4363068335 6.1688338791 63.557219242
49 1 0.9779725033 29.8324944794 46.7185079745
50 1 11.1570584951 51.0554483095 6.5261829989
51 1 20.0705995864 23.6338871077 29.6728258412
52 1 38.1720472869 12.5645989515 37.1564035826
53 1 49.9644107749 26.624509044 5.5938945119
54 1 27.5531065716 49.7244984109 26.521212568
55 1 56.2166189399 29.7809722127 10.1986057665
56 1 31.8814178717 7.0324176125 51.685367856
57 1 18.3400057 36.2147050386 40.114587906
58 1 49.4626040529 59.8753297302 27.2100237029
59 1 41.1289718971 29.0171451615 9.7245757189
60 1 2.9619506927 42.6665777333 28.9395468332
61 1 9.4433447645 47.3658115621 25.0244844226
62 1 60.0008601428 1.9729877123 19.9246618212
63 1 12.3547307454 28.2315880589 9.5019214246
64 1 26.7221997966 20.3163066307 10.0218050299
65 1 14.2787535816 53.7299452379 53.088751259
66 1 24.0723932453 20.2164743659 12.9661954946
67 1 17.0717265291 29.9744641482 8.2095817332
68 1 35.8718111269 41.3193145498 42.5189393555
69 1 60.6135846051 23.3888729056 13.6029804776
70 1 57.5422150578 31.5839996036 11.6748635737
71 1 25.4675255275 2.8605311893 8.2946753546
72 1 35.3419128023 60.311253456 11.9497329768
73 1 46.0414751574 50.1461243927 1.732949377
74 1 3.9041909134 63.51142867 39.4092115436
75 1 59.9023505767 48.4462675064 19.434255503
76 1 49.7507004438 25.4462993614 1.4276339675
77 1 9.6733053948 55.5079043377 62.1566701934
78 1 18.890689291 7.0368706984 40.261281499
79 1 33.8194235235 17.2980339914 13.6019097214
80 1 54.0495974425 1.4716622008 60.5812729636
81 1 40.7557818849 44.124254772 35.1048347928
82 1 45.2930795918 11.1745685075 27.3466395909
83 1 41.9833723219 23.1124918467 13.3495891832
84 1 53.4454390294 17.4903291994 16.4573644398
85 1 12.1343439348 8.2480029834 46.2968190071
86 1 44.2068289671 13.6522982463 51.7090504626
87 1 8.0240259904 16.3935599701 45.6132986673
88 1 57.1510111479 10.7141433615 32.6268531113
89 1 31.2373265526 17.554511583 1.2139922907
90 1 46.8408261187 2.5441794331 8.9193670916
91 1 48.0339634018 14.9252383556 5.9101769839
92 1 62.4147224264 28.91668304 38.9411021476
93 1 27.6203752523 43.4210199219 1.4001854484
94 1 44.3668755192 28.0761394596 36.5194926283
95 1 39.9577536224 35.9616916581 28.9397357901
96 1 37.9076964883 62.2617302677 9.0639821579
97 1 34.2559771058 27.4915695856 61.5001707001
98 1 4.6879529248 32.3220655216 9.8727809676
99 1 40.3778049627 56.3572659099 1.6666947654
100 1 57.9920586135 5.5979570867 60.6154111892
101 1 20.320463684 16.6037431045 54.4671923423
102 1 56.4974089947 57.0875216065 44.657743279
103 1 5.4734407432 22.1427017001 62.8924686277
104 1 10.2863447854 51.1552175887 12.5530095907
105 1 38.3719007736 52.1004433295 15.7204322636
106 1 63.6750654045 46.428522014 19.836607874
107 1 4.951453417 58.0616577634 1.0407564793
108 1 55.2722749983 2.2195198688 18.8849575963
109 1 12.5773850396 4.4115214774 15.589611056
110 1 40.0628136967 12.2722195359 1.1573114988
111 1 2.4401712192 59.8430810743 36.9103186243
112 1 35.4141573498 6.0848047153 22.4368447139
113 1 32.841004342 12.965943552 44.6757571766
114 1 62.5966879868 32.1867093467 35.9797055557
115 1 47.1410787412 28.3879184572 42.9398095094
116 1 14.8902183309 31.504637677 8.8567593494
117 1 5.5527648784 22.0949585727 9.5199983079
118 1 3.0415771591 36.9545975405 11.7756406234
119 1 29.4235916001 8.3855006706 56.1649707019
120 1 1.8252926474 33.7256378816 44.8294421774
121 1 37.3110963539 34.3807516905 32.4499264034
122 1 30.3527559986 16.1198872945 32.0622496903
123 1 27.8553747351 18.9821444637 30.3605032343
124 1 59.4271867872 22.5551317761 18.1794552626
125 1 7.232680506 12.0398654507 16.8562525997
126 1 18.7528766755 43.638005507 55.1469965284
127 1 7.4690593747 57.0481555715 34.734668092
128 1 43.3077087266 18.4533798809 29.2177544761
129 1 35.0554540384 33.1030246713 53.3619200495
130 1 22.7216028651 32.8340129342 34.4693725086
131 1 12.7472573541 61.2069094854 61.1227606489
132 1 18.3999050589 28.8559018819 10.3636281854
133 1 13.8855971164 20.8673681358 58.9645571433
134 1 53.1637671754 7.9558755105 3.6305308348
135 1 12.6946643313 17.2760519975 21.8205300692
136 1 4.129666965 45.2905601656 7.7060114129
137 1 57.6812873864 4.9597360308 53.9845332598
138 1 22.9545868069 3.2718527177 31.5528846895
139 1 26.8408647726 61.6376054017 24.7892959828
140 1 40.7341778048 25.1081923596 28.5325335236
141 1 20.9530916137 29.8911341252 10.2006213075
142 1 24.2850958059 50.3796122198 23.3508295693
143 1 23.8597536704 32.7986149955 3.5906168246
144 1 53.1827888436 1.4007397222 6.9997154598
145 1 3.9283333153 21.7681260034 50.275370959
146 1 27.9196201043 54.6145157919 25.9568610896
147 1 20.9825059151 44.1525983172 59.2492523088
148 1 29.735496569 15.0798051557 56.3570139673
149 1 36.3123957911 45.256610897 43.4680072213
150 1 1.0825890956 53.2532697927 30.4440851999
151 1 26.2831897737 47.8485966159 17.0501854348
152 1 41.7512701792 29.0073823848 36.5920521041
153 1 14.3783968896 52.9259963237 3.6847551862
154 1 57.7304161981 63.7973205629 15.8203904998
155 1 35.7308492286 56.5331848474 53.2422473029
156 1 7.0992139008 52.6249878733 2.5146202647
157 1 51.893031564 39.2570381985 51.9177219412
158 1 61.0769700769 36.6187580223 46.1113262499
159 1 47.7555668019 60.8303812334 63.1951147052
160 1 61.4486484334 16.2315608627 11.3130109795
161 1 37.2741237738 9.4130486639 56.1435555789
162 1 44.2117418483 33.0886009561 54.978950798
163 1 31.1531777161 42.8099330866 46.043553684
164 1 57.6793978167 6.4295189125 2.6383429889
165 1 7.5413669079 59.7126377806 27.0519297062
166 1 25.1525972471 40.8379781661 33.8744100013
167 1 5.8333785734 24.5345819896 59.347006047
168 1 35.0885215079 50.3362151027 18.1798331765
169 1 31.635206942 1.8474384041 62.3087805528
170 1 38.1271385141 4.8402018527 9.9440807303
171 1 3.255797674 10.806354362 26.0748962091
172 1 2.5380950187 5.7742791323 50.967268391
173 1 4.2447417587 56.2918238133 60.0219603376
174 1 29.9061247114 29.8992592749 37.7554601576
175 1 27.6579147033 58.0838287144 1.6465393554
176 1 36.7295497914 62.5976327716 1.8591348404
177 1 39.9153642758 19.5597229299 48.0156345758
178 1 24.7142170808 25.7797454247 46.3473335033
179 1 2.4512818889 12.4788754735 58.1567031185
180 1 50.4436056464 49.3496077859 46.5126708505
181 1 51.5231168059 7.6757153123 1.4846038635
182 1 3.3972886518 28.3780297092 60.6031919719
183 1 33.495740237 33.5101639522 34.5913757244
184 1 9.0486766435 39.3962364984 51.6265392532
185 1 63.3932045935 33.6196330225 20.0435787399
186 1 37.9379296032 38.3356840214 40.604490339
187 1 2.4156823961 50.967457348 59.0137489407
188 1 54.2696693249 29.506039824 38.5218696207
189 1 12.6677064705 19.1324282391 41.040351079
190 1 41.6659246152 8.6691880656 25.9644193683
191 1 43.0924867397 26.0445371228 49.0865167005
192 1 27.023208247 39.8739197141 44.5708230736
193 1 55.6797292075 44.6109449365 44.193287051
194 1 13.8610956962 36.1828342966 37.2237982346
195 1 14.0571700436 4.1567570957 7.0956741069
196 1 7.7826649563 44.7359084782 2.0042915834
197 1 35.504226838 22.6473427766 48.4960891604
198 1 7.9799360311 56.1415400379 5.3908350552
199 1 52.5941249019 9.941939218 37.6099003064
200 1 25.5875132023 48.0194767009 27.2558772605
201 1 57.6409765665 35.5232485061 1.8545935746
202 1 39.4188483489 10.7591781056 33.380728429
203 1 17.3342507437 28.2736624771 44.3566088572
204 1 18.1605595658 32.2437113654 7.1612673691
205 1 22.8995373435 37.9618641525 6.6871239473
206 1 26.3364126531 47.576435596 31.4876945355
207 1 57.1996360743 52.5368079548 26.2977394603
208 1 9.008113881 50.8042615131 27.2398159182
209 1 59.4919990273 57.4215975264 18.0133620875
210 1 33.0424324702 12.9882404742 25.1609113537
211 1 32.8024571205 39.9568718232 10.9289874344
212 1 37.804274041 16.4189431895 24.2430213877
213 1 38.2361666848 35.8366021451 44.1845950305
214 1 20.1646371709 42.1010295274 63.0096849337
215 1 37.3455495078 40.3086467124 13.5494426699
216 1 38.9325360984 17.0903072977 29.0205463869
217 1 22.4238696688 37.3220558581 35.0902851062
218 1 21.0201083518 11.3912391644 4.6871844998
219 1 12.4333998298 10.2880453981 2.272730151
220 1 18.2614625868 27.7857755851 56.045549898
221 1 13.9480788872 3.0031622075 11.2810142662
222 1 42.5384649089 60.3196305482 56.2724872169
223 1 41.8192317021 38.4771498049 58.1340282823
224 1 42.9903869912 28.9598282144 56.1498541445
225 1 38.1252489444 14.0776403818 31.2436251182
226 1 50.0865399621 36.1891328622 61.2141528358
227 1 7.5745603486 61.4572774683 6.7468721406
228 1 3.7932164859 54.9504182958 26.301455614
229 1 9.4951189738 20.9027660745 36.2848710594
230 1 32.8969985903 21.6945587571 28.6369007557
231 1 44.6584361212 18.9719407874 48.1312762404
232 1 55.5664180122 60.1802432913 41.1169416368
233 1 61.0843393987 27.766753917 24.376110079
234 1 57.4182592866 21.7102421854 21.6965113124
235 1 7.9083213402 6.5632689532 32.2610954065
236 1 49.6341769801 34.435612197 43.2583909579
237 1 45.0904547362 52.6783997097 48.7162870141
238 1 44.1389934155 25.803679974 46.5149383341
239 1 55.5253513645 12.8305243914 11.6812881106
240 1 8.0960815809 5.2631064433 24.8748305038
241 1 19.009921138 60.6411093368 32.4114421676
242 1 26.416278465 6.7656166719 12.4647666866
243 1 24.4395366346 38.0194960278 61.2007368911
244 1 47.9721744731 37.9333316503 21.6810798267
245 1 35.8745195101 33.3770752609 22.3946443244
246 1 45.4312071356 49.2781190663 32.7056481671
247 1 49.3557173946 25.7963736379 10.8359576204
248 1 54.994886169 40.3197951735 59.2445283846
249 1 20.5495425152 54.433369045 15.8046440858
250 1 62.3388247108 43.5990173859 31.4832225539
251 1 17.6763258418 30.9617013216 61.4286819804
252 1 34.82184024 54.3467007823 38.7249983616
253 1 18.5743753262 14.3678152993 57.8405151249
254 1 39.2842480019 5.4545324492 30.2994701336
255 1 34.125911726 59.5103908389 21.4462063151
256 1 61.3612243428 49.7026423883 14.8544424782
257 1 32.7486043845 32.0216869277 28.1440379969
258 1 16.3540049781 11.4617201135 44.1700453439
259 1 52.896833965 32.2365939863 35.9891534041
260 1 39.4666544619 4.5761029967 20.6667588212
261 1 8.0087834616 14.8841717079 58.0664446733
262 1 12.5578594863 63.6414940498 11.1141652633
263 1 5.6569494522 53.9818248766 33.3979235131
264 1 62.2027756937 49.6802194947 32.8804963484
265 1 45.8778384229 63.82056227 17.6838211349
266 1 45.8722956851 4.5217463755 10.6815797773
267 1 56.1181723595 3.8597230402 50.2530740367
268 1 17.0336831929 37.5739354967 33.3743668777
269 1 51.2731267369 13.2890599677 52.5425396495
270 1 51.8437137953 12.3312370957 17.5804616733
271 1 36.2203737476 2.7593258371 19.4444591793
272 1 1.9471383991 62.1942726301 38.1127147988
273 1 41.8211842575 54.2090771237 44.6561686376
274 1 19.1748805713 58.5507413829 15.7034261365
275 1 54.4406753811 38.6373223283 61.439389542
276 1 49.434575436 39.3558626929 19.8042962325
277 1 33.177977602 48.0705580679 2.7623050586
278 1 23.9284710212 35.9804613836 62.9841127573
279 1 24.918920463 33.4610351405 12.1280453692
280 1 11.3266158812 29.0965700738 54.9859422058
281 1 36.7013952031 23.0410031271 32.9084619797
282 1 24.4324192555 2.1221062531 25.1144909252
283 1 39.7665921562 5.1328710022 42.5589982328
284 1 13.7121346196 46.8121676451 2.8194960343
285 1 29.9340903427 1.8546880531 22.7801795252
286 1 45.8659341339 23.0019520203 44.6368320411
287 1 55.9459065901 61.2220260429 33.3326703734
288 1 50.9022671939 46.1618407461 23.6455394541
289 1 45.759866289 20.5245372097 13.967352498
290 1 15.813210135 45.9408870646 14.536175958
291 1 3.7585617779 5.5475433676 24.1348750162
292 1 63.5892159553 57.6055156421 49.8753490572
293 1 54.6067055705 50.110537497 21.1222081003
294 1 39.7424686499 45.5222214086 25.6864006824
295 1 18.3544294152 52.3632194867 63.6147881316
296 1 27.9775669079 28.7803190946 28.0476699431
297 1 37.0319439262 47.281221826 52.7568168515
298 1 14.4982585931 20.6525240629 7.7083418821
299 1 26.7153343601 37.9770436956 30.8970150528
300 1 1.1327137106 57.354643774 5.3192329614
301 1 17.4939823675 63.9160485247 13.1302731287
302 1 47.4202311689 63.6374629678 10.8193923928
303 1 2.4775343104 6.787611263 21.9915991111
304 1 28.2822285263 16.5502682825 37.2464100851
305 1 2.9674619376 40.598254759 14.8963279395
306 1 37.9502118062 32.4213309156 12.3900027128
307 1 46.8053022086 45.8013108507 19.0135113204
308 1 61.5501183254 8.5997778726 51.4796567032
309 1 9.8142043075 48.1463298122 49.4610923972
310 1 6.0780400559 3.0602713018 46.3421056938
311 1 53.892385245 60.6935134027 45.512269675
312 1 45.613172696 47.733017937 63.5810908056
313 1 38.3127572425 7.5255575082 9.4001995901
314 1 24.1751228504 55.4389350443 22.8018465909
315 1 7.2355841447 61.460804665 56.7978505742
316 1 62.8690379637 3.975578856 9.8526255577
317 1 3.7072851553 41.1839583749 31.1878828126
318 1 7.7797676161 29.5862835498 16.6098527131
319 1 6.3332894271 15.2081699227 28.6375306123
320 1 55.3413072774 27.2802527094 34.7279286268
321 1 5.1094466367 53.7582257975 22.4535359128
322 1 52.3093037651 29.5770246584 45.5673191384
323 1 10.3049885396 60.6169228449 53.7407157851
324 1 30.6819190373 12.6854054398 26.4920502093
325 1 8.9779437517 2.2012288343 28.0719824063
326 1 53.3452918363 11.2329562106 5.0782498412
327 1 2.4694658478 15.8498677869 3.3553402049
328 1 6.7817850898 17.9346930031 55.2606856376
329 1 57.4741275635 37.5864066566 55.6999476031
330 1 57.1472949941 2.1045647479 38.3706410605
331 1 43.0665996351 55.2354913752 30.8909684298
332 1 46.3621351325 8.9827306616 23.3733784342
333 1 11.246813055 40.5356470169 45.9912126038
334 1 9.6359549008 61.3605315006 13.2440882092
335 1 63.7548682307 21.6099060353 42.0214156581
336 1 43.775188266 28.3488673505 50.3432694962
337 1 10.2074237584 35.2389312546 46.997156517
338 1 17.385835996 31.393467994 27.1072311122
339 1 31.9153041546 2.3576096212 7.518440129
340 1 36.7030958158 5.4313285335 57.9021150966
341 1 33.4489418945 23.0306104938 35.761901157
342 1 15.9015160249 55.2381997584 4.5036820894
343 1 13.8213517472 62.4424991007 40.9430382404
344 1 59.2302936263 47.1556284277 56.6373631225
345 1 12.5090456028 12.7927959834 21.2971822529
346 1 5.8338383687 7.7378821548 42.9735068354
347 1 62.4757555271 17.968768243 30.8904015589
348 1 4.9272480294 33.2538753176 48.3170209402
349 1 52.9893598938 29.9522931973 7.209060885
350 1 21.7045104907 22.6339268318 46.6373824495
351 1 3.316232411 22.3698909615 45.7977206683
352 1 37.0553116046 44.9679476351 48.3167060119
353 1 45.0193439305 16.8013920933 11.0242217464
354 1 63.9089941312 7.5467206886 2.6808960981
355 1 19.2922858342 20.130372974 14.4660099372
356 1 3.3129886497 35.7886070752 32.3631321693
357 1 53.338741328 54.4495563586 30.4736884583
358 1 15.4568372929 4.185056551 42.4688027733
359 1 5.5313245611 53.7107975985 16.5880596761
360 1 24.9532476456 41.5534952191 19.0120626503
361 1 6.7246004127 51.7247968767 5.1775530266
362 1 45.4076505002 52.002185706 27.3242166974
363 1 14.452845935 26.86845249 40.4802196395
364 1 61.0598379784 61.3309912279 55.5285636329
365 1 23.8181201518 39.6234257599 25.6890460799
366 1 62.5337023307 22.4534729271 9.8716472258
367 1 35.4511299299 26.7739110202 9.0123969056
368 1 33.0347482201 44.729169013 55.1005760999
369 1 30.3802177447 10.2572454123 41.6101823096
370 1 39.1775503005 36.3469119307 21.4914300162
371 1 11.024662646 29.9107856499 34.2496785402
372 1 29.648702335 52.3581176485 34.4042453402
373 1 43.4166109259 27.6718975189 10.1625149856
374 1 3.3371247531 20.5260488655 58.1808266247
375 1 22.0337995007 34.9640618515 3.9259587561
376 1 60.1150531373 4.4390588062 31.9994529911
377 1 25.7012023115 56.8549785643 40.6809549255
378 1 12.8110618237 49.1989460966 51.9742830604
379 1 60.2712575643 36.8863210893 8.6475839856
380 1 8.0595499004 12.9428908019 52.9229100266
381 1 28.1669017901 59.8704168491 8.4613354005
382 1 54.8856060557 43.0145734832 49.7534718127
383 1 4.3015800147 36.083128003 38.1884235574
384 1 8.807567552 63.6928273595 38.9611315862
385 1 33.9581809239 25.7650067811 46.690038458
386 1 2.6851539285 19.4824395299 55.7468089312
387 1 39.9058534417 21.478454971 5.0114598515
388 1 13.2372857584 43.0733391003 39.2261122413
389 1 49.6712125459 53.2584976022 36.4233765172
390 1 42.2239775281 25.7391196765 58.4982113457
391 1 12.7924810552 36.2124375549 63.1499539898
392 1 18.9303072687 49.315343589 60.554818988
393 1 49.4550457742 25.4070592977 50.5759385098
394 1 40.8086268503 20.9961738025 27.1896163503
395 1 21.1244755839 17.9610210073 34.5423098984
396 1 20.5245372097 38.3850017901 10.2200838752
397 1 4.9861396178 58.9559910941 26.3112813763
398 1 37.0696723342 7.891693127 26.0377976576
399 1 62.1167372875 58.2754940658 47.6175652294
400 1 49.3714008229 25.5368097492 36.3406763507
401 1 39.6879860574 47.9530268337 15.6956159151
402 1 31.7735234428 27.78048479 62.5861693822
403 1 57.8814558014 57.4527754261 35.1329893811
404 1 51.1511865068 58.7147560313 15.7247782739
405 1 61.9840265101 45.0081324837 2.914125684
406 1 34.8104398363 5.8082787895 13.7583031055
407 1 54.4023171166 62.1778963595 22.4878630954
408 1 46.969505814 33.0125142835 13.9466302171
409 1 29.4994893157 62.922260843 32.3778708129
410 1 6.5157084843 63.4454197024 47.346600937
411 1 50.1487068046 9.8692537709 36.3243630658
412 1 14.5688025279 16.7084882505 14.2612435693
413 1 46.6844327346 54.5818262364 33.4123472283
414 1 32.6845479723 52.2405234286 41.3402887733
415 1 52.2928015232 61.0718682388 63.2841134372
416 1 6.5141275443 51.8676483446 50.1039869888
417 1 22.1683368621 57.3892858848 13.1579238317
418 1 5.6474638124 9.2009129742 25.3701497032
419 1 63.8610620469 49.0651645631 42.8580541278
420 1 19.5350325527 41.0359420831 54.635930915
421 1 30.966929131 56.1155269619 53.8592547899
422 1 23.1868149209 6.4198443157 33.2832266333
423 1 57.4957946292 5.1621026452 15.755704231
424 1 22.3462083548 26.6304296957 32.311546917
425 1 2.1030719878 52.1778527008 34.9250107447
426 1 61.7276119042 37.9774845952 15.4572152069
427 1 25.7071229632 18.0677816944 25.2096622515
428 1 48.5843950502 28.5172909948 27.1193243582
429 1 22.7627324985 43.6130002016 37.1629540908
430 1 63.7393107737 20.5652889292 61.6488168484
431 1 63.8242154381 35.8248868131 46.5968826727
432 1 42.4711332425 3.9906387263 35.692490964
433 1 17.5947594172 56.4215742648 27.0472687676
434 1 53.6096426348 6.8671306538 48.4712728119
435 1 9.2616941323 51.5316198695 18.121508459
436 1 62.9477700338 8.3147047932 15.2355056975
437 1 18.6270943204 23.9449102774 20.8897910293
438 1 13.1732293461 32.3380638782 37.2780288845
439 1 33.2020381227 36.2635819077 61.8684478312
440 1 6.291126829 45.9841582103 16.1241073334
441 1 29.0797529036 46.5264017235 54.1132129552
442 1 10.1996765227 52.6651727219 38.7252503042
443 1 50.3609684656 1.1537565884 50.2112515611
444 1 36.2635819077 35.5910840577 53.0053582504
445 1 10.404001991 30.6511190515 2.5488088788
446 1 23.7531819403 48.5369038655 50.4531794661
447 1 38.3142059126 32.8544832724 26.1992298942
448 1 39.9534705977 6.3859706299 22.6286360367
449 1 4.7288873027 27.1529586985 54.2793691159
450 1 47.4244512079 56.0902067282 54.3904758132
451 1 12.6929637185 63.6922604886 21.5398030001
452 1 54.7596347435 62.6385734481 5.7214152712
453 1 62.1162963879 20.1726993349 57.2982716118
454 1 42.3915193732 17.3305975756 51.1481631953
455 1 20.9263856955 20.1455525171 9.9692749927
456 1 17.4706146891 15.6086327241 9.967763337
457 1 26.6454202818 45.7848086088 26.465722205
458 1 22.4318058615 9.921972765 54.2411998083
459 1 34.1087166419 15.2753756178 3.3941078762
460 1 32.8312415653 5.4837325994 23.4581571273
461 1 26.3021484562 22.9579880323 51.8130397808
462 1 47.0838247798 40.0166452108 8.5412012125
463 1 57.3191198639 35.5313736558 16.3397702199
464 1 53.8978020114 36.5295703333 48.7439377171
465 1 55.2291298239 4.6914360316 55.2462619224
466 1 33.828304501 39.1076992079 28.2206915403
467 1 24.4696437782 41.7109593593 21.8233014381
468 1 49.2848585315 53.2807945244 9.8974713448
469 1 34.1926135358 39.7252105801 56.6157590425
470 1 59.9446769376 45.0178322748 35.997971396
471 1 51.2286588637 45.0978870436 61.63168475
472 1 45.8037043057 62.9318976484 27.9887783547
473 1 41.2619976028 55.9717936947 32.8538534159
474 1 46.0046285486 34.9187121791 54.3710132455
475 1 62.8716203756 42.4151389943 40.7758113235
476 1 1.7376103156 16.1478529258 23.5680041115
477 1 30.2585294571 6.1474061589 61.9913328462
478 1 56.3260880102 4.3432387276 7.1487647164
479 1 61.4189192038 50.2602544015 47.0819981958
480 1 35.5431519734 4.5479232142 9.3162397105
481 1 61.2860194694 40.6522334663 61.1790068397
482 1 2.5956450126 33.3332372443 49.7682104562
483 1 44.5535650038 55.8983524198 8.6870130063
484 1 3.655699903 18.1038094897 8.3972160027
485 1 18.6084505662 32.2687166709 2.3714538684
486 1 60.0439423316 48.2997628704 52.7037199434
487 1 44.3892984128 31.6942245018 40.6381246793
488 1 36.6178132375 1.7705077237 35.4397295262
489 1 9.3535902046 7.4994814466 4.0338720807
490 1 4.0439245914 3.5720171603 58.8880925568
491 1 47.8562178803 37.9276629413 7.0518549859
492 1 15.9348984226 10.6416468714 11.4932129416
493 1 58.9304819034 15.5702744595 10.879795637
494 1 40.068797334 50.3600236807 16.7974869826
495 1 33.3691390682 60.1556788854 45.0220523137
496 1 10.4509892904 45.2262518107 29.0068155139
497 1 36.041746427 31.3223571883 2.6533713664
498 1 57.9659195662 23.2208271752 9.7648235531
499 1 45.780021699 41.3116302998 41.1003764093
500 1 35.2212952709 57.245489632 60.4401221083
501 1 13.2174452767 22.6518147581 10.6789343798
502 1 8.6201852252 12.6299780625 42.1415922899
503 1 34.516548765 50.3669521029 1.6809736136
504 1 53.3498268035 16.6640203774 1.3968919284
505 1 47.1730754545 36.0985594888 31.8669311708
506 1 5.4832224156 11.2771091556 12.4689237399
507 1 21.0699929914 34.9219244475 59.3063802989
508 1 49.5621843752 46.7226020422 12.6944123886
509 1 16.9345437702 36.1373586529 12.609003839
510 1 22.6251718256 55.4557522145 61.2606992357
511 1 26.9094561521 29.656197628 13.955637166
512 1 40.828467332 31.5421141424 49.0595588397
513 1 3.1750752572 31.1792537777 16.8900129114
514 1 9.3024458518 7.194763141 51.5644353963
515 1 18.4279966615 23.6242503023 12.1724502567
516 1 11.0915534127 57.0577923769 42.8120116132
517 1 13.8530965179 26.2638531773 24.3651505748
518 1 40.8360256107 16.7623409865 37.8795419
519 1 10.8842046329 63.8271127783 5.727449297
520 1 31.3678958176 40.2097592323 35.0589182495
521 1 6.3242068955 11.4474853552 56.0303073692
522 1 23.2862692718 22.3488537524 28.7558806601
523 1 20.4475057523 35.1144715982 49.3247284518
524 1 45.0315631478 47.6970531274 5.9274413522
525 1 14.1588918781 9.4369832132 50.9826998767
526 1 16.2206013586 59.8113992893 18.8913821333
527 1 5.7332439774 1.1632012875 33.1256995075
528 1 11.0147109123 51.7273163029 20.1955001424
529 1 5.8941975229 14.0167332524 8.9244689297
530 1 59.0069464899 12.202431429 34.0318741415
531 1 58.1902744732 40.0421544015 49.7886178088
532 1 55.6929561953 32.1197555943 13.5222958521
533 1 33.3901762774 6.3349774427 41.6984252138
534 1 50.4839164663 36.6634778381 58.569952008
535 1 6.9445148309 58.9535976392 22.3917469842
536 1 28.8698846976 24.1673756147 20.4362943056
537 1 12.7434782147 35.978382857 39.7032915718
538 1 40.1635277608 29.1130723157 15.8678186989
539 1 37.8692122524 61.8402302573 49.5647038014
540 1 8.7990644884 60.279382714 44.7444745274
541 1 43.5714926542 51.6599846366 52.8415955446
542 1 57.3162855094 44.8527468702 46.2762856832
543 1 23.4390094878 44.722933433 29.2181953757
544 1 56.3259620389 1.8397730497 48.4333554469
545 1 6.8139266701 13.5796757848 49.6768182693
546 1 9.4583353506 2.9504495119 30.7209701441
547 1 45.4577870825 62.1600714188 30.7357087876
548 1 13.1722215757 4.0573405361 34.5646698063
549 1 44.617621416 41.2854282668 30.6762503282
550 1 35.6314578633 63.2309535435 8.1031989601
551 1 5.7973318824 26.1145141867 45.5818058393
552 1 24.6626318285 5.2872614424 22.0844399682
553 1 36.6054680489 36.075065839 22.7091317052
554 1 3.754152782 15.2320414864 63.9402980022
555 1 28.2348003273 55.8028661651 10.5622849447
556 1 25.7567556602 36.1342723557 9.0039568277
557 1 13.8935962947 20.7590328073 35.8004483785
558 1 17.1803767859 46.4643608523 57.0537612949
559 1 12.5995559906 16.6262919694 30.9171074771
560 1 21.0730163029 4.3646979407 58.1541836922
561 1 51.8670814737 49.3060846976 35.1518220922
562 1 15.718353737 47.7741475704 10.2054082174
563 1 3.420297312 7.254429453 39.3817497975
564 1 54.2274059496 10.60599699 63.2261666336
565 1 44.0315398862 28.0688961092 28.3453401537
566 1 44.8220728557 9.2666070135 1.9221897807
567 1 59.5352701731 28.2240297801 60.5311363813
568 1 34.2225947081 35.121274049 40.5896887098
569 1 60.7927787967 7.9357201006 47.2559015922
570 1 27.8178982697 14.5398291261 23.8540219757
571 1 9.769421506 19.1840134914 18.5510076478
572 1 34.0157498135 26.3816993398 27.1518879423
573 1 54.086507037 20.655799317 24.7402301567
574 1 24.7612043802 4.6730064286 34.623498409
575 1 40.4095497334 8.6663537111 59.230356612
576 1 45.17913854 41.6700186829 37.6015232141
577 1 26.0604724938 12.3444010978 19.0841812265
578 1 50.3105799407 14.2836034772 9.3912556269
579 1 37.7884016557 27.7294034229 15.6878056938
580 1 18.7558370014 62.5896335933 2.455224791
581 1 55.2036836189 48.7166019423 41.1831395614
582 1 10.7821678701 60.3799078211 46.6627656689
583 1 45.3649462254 5.9855897099 6.4470352235
584 1 38.2306869327 10.1081583644 58.6432673117
585 1 32.744132403 37.5005572074 46.2975118493
586 1 60.5683609041 48.0335854878 39.2555895284
587 1 11.758319568 38.0305815033 24.3710082408
588 1 15.4865665226 27.8388724932 56.158924079
589 1 22.1477405525 39.5092957511 2.6734826864
590 1 13.8528445752 43.979198806 14.9386543004
591 1 12.7029784379 33.0520062899 39.7499009573
592 1 31.3706042009 30.0911135833 26.8935207811
593 1 1.557032959 39.4454912815 52.543736377
594 1 51.7065310364 20.8853190478 5.9492910763
595 1 35.194715324 2.1207268672 23.9816939006
596 1 38.9353704529 4.7546862274 59.1917464048
597 1 35.1808584797 24.5707987419 59.1552147243
598 1 17.5339782591 59.2265774726 43.887995576
599 1 35.0429828785 30.5617424055 31.4403293221
600 1 58.2123194528 51.7722880613 62.643171401
601 1 9.2136360768 33.3099955372 10.4824191328
602 1 61.3209135229 25.2476426021 47.3051563753
603 1 13.1141488007 39.9151123332 22.7934694987
604 1 30.3176100025 62.3131265631 27.7682025871
605 1 12.3178841366 3.6076292503 52.6572365293
606 1 25.4798077304 48.9209274107 48.4166012624
607 1 60.2242072793 22.4340733451 11.060186556
608 1 49.3057067836 16.5675893379 27.4440154152
609 1 53.1267316097 46.5754045639 25.1953015219
610 1 42.497965132 58.1478851266 26.8191977069
611 1 56.9110987838 60.1358384038 53.9291688681
612 1 44.9533979486 17.3723570656 17.086780101
613 1 28.8661055582 45.5611465441 24.6567741624
614 1 7.6094544021 35.9526217236 60.2923577591
615 1 61.6745779818 38.6414793816 36.1343983271
616 1 44.4020845009 32.9772423161 32.5304850575
617 1 25.1840900751 46.1333712296 18.9314410105
618 1 63.099187551 3.2493668385 14.276486098
619 1 47.2347384118 36.6471645532 29.2059131727
620 1 63.6465329023 38.1532145757 11.1040875583
621 1 38.6679963428 36.100889958 56.5299725789
622 1 56.7014195348 53.8100629925 22.2802623729
623 1 41.0040713411 2.6776082469 34.0513367092
624 1 29.8486188074 56.7829229737 2.5013176941
625 1 38.4309183334 43.4430649015 24.6869442917
626 1 7.3577637204 2.811251212 38.1505691781
627 1 34.1531845151 27.6765584575 48.5660662243
628 1 61.5657387681 54.5951162098 30.7814363739
629 1 41.7784799826 20.6983776205 41.6188113445
630 1 7.2574905559 56.6478817271 63.0079213353
631 1 25.0405457649 49.6896043574 15.4734025205
632 1 52.6360733488 2.6081791582 38.2915310764
633 1 26.7383871102 62.361499547 49.5104731516
634 1 52.1003173582 32.0899633789 58.9746348483
635 1 39.4978953473 41.7240603758 35.4197630732
636 1 55.6943418797 25.7436546437 12.2428052346
637 1 39.4081407874 58.7740885193 53.3886259676
638 1 17.045020611 33.4068674762 15.3381093312
639 1 22.6632151619 28.5521850483 40.8577556621
640 1 49.9493572031 20.7514745286 41.4028965154
641 1 17.3035767292 1.4383478276 38.8345934032
642 1 22.553683106 29.9786212015 6.9373344661
643 1 9.9416872754 16.5494494689 25.1488810934
644 1 32.1735453445 58.0414393678 43.670254163
645 1 11.9218303312 28.3615274673 61.9109001634
646 1 13.8629852659 50.1357317594 14.8106044616
647 1 37.3022153764 39.5558421509 53.7937497075
648 1 41.4687795117 3.3506792663 47.7723839721
649 1 18.9610442689 57.0141433172 35.4117009092
650 1 48.0790611315 8.1025061179 18.8944054448
651 1 21.7992409175 2.2302337289 50.6196505551
652 1 58.6346382768 38.772174618 9.5051336931
653 1 47.903331151 48.3893284734 54.6036822591
654 1 61.4619384069 37.4312100001 57.8170844609
655 1 34.9887522286 52.2718272997 11.403206439
656 1 61.0474927899 49.2788748942 56.8964861116
657 1 15.331369866 18.720376077 6.0725036167
658 1 46.6223918634 9.9891784601 61.1470731121
659 1 26.7915470039 42.9056712838 39.3386046231
660 1 45.720500254 5.3091489579 45.2345659173
661 1 12.2468363165 41.058301991 29.34485953
662 1 13.8133525689 17.2364340198 2.2702485162
663 1 55.7279762201 33.5126203928 17.3746245492
664 1 28.2247226223 32.514108787 63.6120167628
665 1 15.6330711587 5.7974515552 56.2244921469
666 1 58.6644934778 42.7468844448 22.5582810589
667 1 29.6449861813 34.4060089386 15.8389712684
668 1 47.4911530177 3.4475889968 30.1217246121
669 1 26.9771027467 33.2694957603 32.6591647529
670 1 47.6511995698 41.1301686246 26.2613967367
671 1 26.4914833384 26.7301989749 55.8641512085
672 1 54.9409074617 57.8787474182 10.5827552829
673 1 33.6650456805 53.800804101 36.2910436537
674 1 44.1105238989 46.8303704997 36.3069160391
675 1 16.4421848966 7.6188392648 22.1483704091
676 1 12.553702433 29.9813295847 1.1487404108
677 1 34.8491130291 16.6540686437 42.5352526404
678 1 15.1756063386 56.150484001 28.3996967749
679 1 10.3857361507 33.1010091303 17.3326131166
680 1 26.3693541512 58.7390684946 28.2147708887
681 1 36.4520979763 34.8517584267 5.7888981031
682 1 43.779219348 62.1343102855 39.4538683737
683 1 59.5115875664 17.2899088418 37.7921178094
684 1 16.0759862922 19.338832234 46.814750057
685 1 22.5788143827 51.5116534165 38.2211760986
686 1 51.2576952512 17.7085115121 60.2964518268
687 1 9.3270732434 23.029665709 4.9656692796
688 1 18.7164079807 24.4200110812 2.5768311972
689 1 17.8592991728 60.171866199 1.7062623545
690 1 59.9043661177 55.8066453045 36.1360359541
691 1 10.2940920211 4.0009683739 23.9987630134
692 1 18.1123125532 11.2548122333 42.1158941422
693 1 20.6666958355 5.3181999966 29.2884243822
694 1 30.7432670663 49.4955455511 58.7813948555
695 1 58.0137256792 23.7502846002 34.1291869801
696 1 1.2460104192 23.0940370495 44.179556178
697 1 32.9933036584 43.0182896369 50.21402293
698 1 29.0849807131 24.0185405094 14.7820719594
699 1 36.5558353519 54.4744356928 5.3345132816
700 1 55.579645 52.6682590191 44.2200559549
701 1 40.4520020656 3.1277667309 13.6310720802
702 1 33.1965583706 33.9162954626 26.2404854989
703 1 32.4796556331 23.4359861763 62.520097429
704 1 24.3352953738 50.061282714 46.2946145091
705 1 43.6797020114 22.9270620752 11.1945349604
706 1 4.3418719389 9.251679413 2.4501544457
707 1 20.3130313766 36.8941313107 18.8874770226
708 1 50.9248160588 46.9444375229 42.1861231488
709 1 21.0425312453 10.7548320953 30.7910731793
710 1 37.4834880946 17.0756316398 59.3036719157
711 1 27.3601185213 34.2517570669 7.7190494437
712 1 29.9531120108 25.8664766731 45.6577665405
713 1 5.5997395807 7.3221138391 56.5860298128
714 1 50.8062770541 2.3629508048 57.7624758971
715 1 63.3194483903 24.3870065975 17.9930177206
716 1 7.6775418963 9.95989013 9.4429668505
717 1 2.1329397859 42.7563322933 22.7682122506
718 1 5.190843 16.6338502481 21.7695746734
719 1 7.326522835 15.4727726639 3.6863865146
720 1 42.5174906854 16.6249692706 11.9750532106
721 1 5.5370940472 52.989674822 47.6540969099
722 1 51.4783340044 57.8638198177 52.8630106677
723 1 49.0229011878 35.6793269619 40.9650202344
724 1 10.2923914084 1.5408720994 22.8590375666
725 1 49.0234050731 9.9908790728 10.0403857984
726 1 57.0809081126 38.1962337788 35.6533138859
727 1 45.1635180973 56.3975767298 59.5275229374
728 1 20.6835759913 16.6429831682 24.7507487613
729 1 43.311298909 53.8837562101 13.5401837785
730 1 8.3034933464 36.5884619217 48.4783272054
731 1 59.2348915792 3.2928269412 15.7170940239
732 1 16.7573651197 17.0821821481 36.4169519802
733 1 25.9508774522 12.2380813103 55.3789097141
734 1 42.3420126476 19.6849384142 31.4875055785
735 1 12.7801358666 32.0998521269 27.2268408731
736 1 34.9493232079 51.2138572345 52.1279050756
737 1 49.4867905449 59.0902135272 38.6674924576
738 1 12.5023691233 33.8636394541 1.533417747
739 1 63.2524316522 28.7397563321 32.5272727891
740 1 60.2614947876 49.4385435323 36.9218449994
741 1 6.9220793402 39.5874609503 37.4373196087
742 1 23.3933448872 12.1604199964 12.5233433467
743 1 17.9850815279 11.7231105862 58.7131813899
744 1 20.4652677074 37.0934179265 51.5118423735
745 1 33.0721616998 49.119017299 31.0513928958
746 1 20.3299115325 54.8428387952 32.180977652
747 1 39.862771253 23.0875495269 55.0780902206
748 1 26.0212954157 41.2625644737 49.974110566
749 1 21.2513916809 35.5604730289 6.4211985073
750 1 1.1611385073 63.7439717122 7.1072256762
751 1 21.6710651073 55.9216571125 10.7378259682
752 1 16.6587925679 15.6674613269 49.0719670139
753 1 39.9909470631 41.8400169686 2.3093248172
754 1 50.2511214814 3.751601863 32.5917071153
755 1 50.0897522305 18.6341487138 36.1235647942
756 1 63.0852047353 61.7958253697 15.4642066147
757 1 22.6994319141 29.4853175431 43.5814443879
758 1 40.7117549113 46.3385155114 19.8828393456
759 1 55.1743323031 28.4590922486 6.6854107374
760 1 23.8278199428 45.2665626306 41.9298345142
761 1 62.0010326372 27.1653038871 60.6133326625
762 1 30.2410194447 40.9242685149 18.0372966368
763 1 33.7097025107 27.407609706 13.7727898064
764 1 5.4424706961 42.7909114184 38.9082866208
765 1 62.2689736182 19.9483444279 19.8068786444
766 1 44.407375296 46.9424219819 33.6529524345
767 1 4.8547389421 12.8049522151 24.9698128732
768 1 12.2391520665 20.5007916174 9.3200188499
769 1 2.9558536812 47.9755127129 19.196169723
770 1 50.6253192641 1.0161610215 7.9359090575
771 1 62.4629694389 52.5570893361 41.8488979461
772 1 29.0747770368 50.9008185238 32.2393653551
773 1 49.8529891493 5.2053297009 26.7207511265
774 1 36.2371909178 39.6911983258 44.5853727601
775 1 25.9341232677 3.7882658134 53.9963745631
776 1 55.7966935708 48.9641355707 27.3531900992
777 1 10.1393362641 39.4932973944 28.6722986944
778 1 17.3021910447 46.5328892461 19.2133648071
779 1 17.0878508571 56.3908372646 24.3931791918
780 1 24.7713450708 41.8466304625 37.6627452718
781 1 23.8059009345 1.3877212169 40.548811019
782 1 46.2667118635 35.4417450672 17.5255381812
783 1 23.8485422236 2.7177175127 55.401269622
784 1 55.4820802187 6.6006761343 31.7450539262
785 1 50.0758953862 55.0024444477 21.5571870411
786 1 35.6119323099 10.8708516738 49.8299363992
787 1 6.8842060652 17.1927849601 5.9242668751
788 1 53.1080248698 52.7340790297 49.7752648497
789 1 25.5558314173 6.4641484262 62.9793888331
790 1 15.2692030235 43.7009911631 59.4576718448
791 1 17.6151667698 62.7826846292 17.6813017087
792 1 55.9830051415 20.120673183 7.5777726171
793 1 21.6063788385 48.6418379686 17.9675085299
794 1 49.6263037731 37.856111236 53.037291978
795 1 13.6509125619 52.0355681038 16.6623827503
796 1 45.9473116015 35.8265244401 25.6232260693
797 1 28.7386225903 30.1949139445 8.8990857103
798 1 38.4296586202 24.9279903975 56.6647618829
799 1 39.6992604898 16.8607245813 22.4313019762
800 1 16.0428558371 11.9192479193 16.5623615284
801 1 12.9874216607 34.1611836934 17.4163210536
802 1 16.7184399842 3.3266943285 55.7696097387
803 1 11.1919525485 46.6569709886 54.9526857794
804 1 44.8689341838 29.2140383224 13.943732877
805 1 47.5565321287 4.4961930949 12.8958405168
806 1 59.993679778 13.6296234101 20.4449863261
807 1 15.8536469262 38.9248518483 63.1561265841
808 1 22.7256969327 43.7664962454 52.4747670836
809 1 15.0884341905 50.6685274242 42.3935349142
810 1 25.4386151113 26.1337248118 11.3675565577
811 1 30.9935090779 27.8695465077 36.2586060408
812 1 12.0692797521 29.1769397709 6.9683737974
813 1 1.697614424 46.0011013518 62.9750428228
814 1 24.1635964753 60.2927986587 42.4381917444
815 1 39.6775304385 19.5718791615 23.0805581191
816 1 40.2413780317 40.9784361791 17.5393320399
817 1 4.2248256942 60.92989857 30.2048026925
818 1 4.7157044049 40.6007111996 6.2448512674
819 1 15.8052739424 22.949799897 59.4545855476
820 1 61.326204318 25.5219451343 1.8073165412
821 1 43.2658232653 42.4673541032 41.3290143409
822 1 20.705243057 34.9655735072 46.491885584
823 1 26.4698792583 32.6558894988 36.5527490547
824 1 35.3343545235 37.6149391589 35.1814883362
825 1 62.1076043673 33.2717632439 29.9706850088
826 1 39.1007707858 8.2789289405 29.6868716426
827 1 31.5142744824 58.5347430262 11.201022483
828 1 51.2405631527 5.0833264851 1.2416083517
829 1 1.2618532012 54.8304936066 63.8092248519
830 1 39.8101782302 15.9251986315 4.0236495087
831 1 34.6772251737 45.5078606791 38.7790400545
832 1 51.7631551412 46.4684549199 5.569474973
833 1 11.6138934586 46.8793103545 12.9438985724
834 1 34.0356532809 24.7586219683 14.5183510174
835 1 33.2114229854 56.2561109463 8.0748554148
836 1 52.7716184807 10.9524810841 56.8180689698
837 1 7.9809438016 10.42982611 12.0308585018
838 1 19.2841606846 37.5694005295 31.8373279124
839 1 28.1054907754 55.7307475889 43.7972962313
840 1 59.7760643362 3.0407772413 38.1235483317
841 1 49.9669302012 57.5848563469 61.8619603086
842 1 36.2040604627 41.471109981 19.4683307429
843 1 30.3562202097 55.2882103693 48.9332096136
844 1 17.7532313279 48.855485314 15.8748101067
845 1 63.3694590012 48.5303533573 16.4502470606
846 1 9.4165758606 36.4441617837 44.7473088819
847 1 16.9283711759 48.2081187408 38.3823563925
848 1 33.6711552891 39.1386881507 61.6207252458
849 1 37.7836147458 32.811338098 15.0851589364
850 1 46.334925329 51.5091339902 62.2669580772
851 1 3.5120044272 45.6070630874 35.974351775
852 1 57.7915122845 51.4907421787 5.1251615579
853 1 29.7935063583 34.4475794716 18.6477536156
854 1 45.8921991524 58.5302710447 32.1152836127
855 1 51.2446572204 8.7732403695 44.5379445611
856 1 45.2774591491 29.1046952234 40.9931748226
857 1 13.1465864136 32.7285119603 24.5697279857
858 1 37.3519110591 21.7040695911 44.6508148568
859 1 45.8874752282 24.7774546795 14.08419089
860 1 47.3518917321 61.7183530128 41.8115474521
861 1 48.2353285442 63.4879980059 54.4473518607
862 1 14.5928630485 4.1859194544 39.9535335834
863 1 59.4894796011 17.0550353303 50.5477839215
864 1 26.7582905775 39.926134823 7.7730281509
865 1 1.8658806042 60.0758760592 21.3701826282
866 1 24.2707350763 43.8803743116 17.7130464793
867 1 28.8228973981 4.0870445715 14.9595025525
868 1 9.6544726836 41.0497359418 20.3372178686
869 1 41.79214787 33.7014513897 53.5759453088
870 1 54.2374836546 55.2426087543 25.8785069334
871 1 26.593016216 50.5227156304 44.8863182249
872 1 56.2006205833 1.7762772098 41.0217703105
873 1 32.2542929556 24.5331333196 6.3997707871
874 1 28.0170589142 24.1622737766 8.3597395373
875 1 20.9295349783 53.1856861838 10.2922654371
876 1 38.7198965234 54.0704456947 58.8776369379
877 1 59.0330855371 48.5869144765 8.072084046
878 1 24.3374368861 62.0446187112 48.2549800689
879 1 38.4052201857 60.5561416868 20.6983146349
880 1 16.9846173668 4.8193850933 25.5474543251
881 1 23.8582420147 63.1932881211 35.7707191489
882 1 21.8278364053 59.5343883739 21.4589924033
883 1 29.0975778443 61.1664097085 14.0997483471
884 1 19.1058482922 52.888960758 50.6302321453
885 1 29.0084531409 2.3223439523 34.0136083012
886 1 59.5438992079 31.6061075689 24.5177648195
887 1 52.9930760475 51.2807480013 25.033932271
888 1 30.4438332573 1.107845084 29.9744641482
889 1 13.1773863995 60.8571501372 21.4031241264
890 1 9.2810307288 49.5710653527 36.0319206646
891 1 28.0315456151 26.5441393468 59.9936167923
892 1 10.820085235 30.1049704276 27.362197048
893 1 17.0400447441 9.1787420233 31.3662581906
894 1 6.8732087696 34.0143011434 31.9154931116
895 1 48.7736669467 2.3507315875 45.1990420073
896 1 32.1664909511 44.2996068385 42.0899440519
897 1 43.6924251139 51.4121990655 31.9323732674
898 1 29.2746305235 42.0078737421 21.9506584347
899 1 10.0175849909 63.8610620469 9.941750261
900 1 31.3333796781 25.0338692854 21.177383535
901 1 7.3839657533 5.0542019178 16.2223649569
902 1 62.6298184419 47.6870384081 53.4334717548
903 1 18.6517846975 26.0265232252 10.7071519537
904 1 57.7631687393 14.4250692607 27.8861747209
905 1 41.9186230674 51.6851159133 2.1860429926
906 1 57.1634823078 14.0241655598 1.1396181982
907 1 58.7568934352 44.1581410549 59.6282999871
908 1 17.306348098 32.0785629752 54.9535675786
909 1 9.4999688693 60.0994326946 10.7522496834
910 1 15.8517573566 19.817019335 30.8356670238
911 1 6.4247886897 6.9242145539 51.280433073
912 1 61.0457291915 54.4231023831 47.0480489272
913 1 38.1523327765 52.0525742309 45.2706566983
914 1 62.2466766959 58.171063848 3.5106565342
915 1 5.8536788504 35.1692061333 52.2577814984
916 1 31.4662794124 21.8364654402 40.5375365866
917 1 30.7881758391 54.8750244654 34.0578242318
918 1 53.3044771311 7.7687451263 25.6630959896
919 1 48.8360227463 8.4753812019 47.8096084948
920 1 32.8943531927 7.4560213439 7.0701082291
921 1 30.0045712918 22.1323090668 57.0396525079
922 1 39.3364001251 2.8709805096 16.1231625486
923 1 25.0117613201 37.2604558864 17.6822464935
924 1 57.3854437598 23.2108124558 46.1251830943
925 1 27.0368131487 48.0893907791 36.1235018086
926 1 22.9242907063 49.4153018252 5.3226215897
927 1 2.1562003887 26.3600322741 48.3133677721
928 1 42.5966636551 18.6335818429 37.9396302159
929 1 59.5895008229 45.6968806329 61.7429804043
930 1 53.7885848837 11.5590959378 24.4056503517
931 1 58.3981901239 28.4978284271 31.2129511037
932 1 62.1871552509 4.7160760202 30.3278766645
933 1 11.1910077637 62.5374184844 59.1815427285
934 1 25.1395592163 51.0985304983 38.1760783689
935 1 30.9905487521 22.5715710323 31.968338077
936 1 46.1869720229 44.8114912654 33.4187717652
937 1 39.4989661035 26.0706761701 19.5110350178
938 1 41.5990968341 62.3687428974 26.6324452367
939 1 38.9347405963 28.101522679 11.36969807
940 1 34.5775818658 54.7120805732 61.5115711038
941 1 61.2710918689 6.9629318367 2.16414288
942 1 14.984318901 61.8239169723 49.4864756166
943 1 55.3305367302 4.1827197831 16.8495761202
944 1 32.7045144253 30.4642406099 24.4527006367
945 1 49.9161637624 22.4393641402 24.3351694025
946 1 24.6403978919 16.0681760708 21.6964483267
947 1 43.6760488433 28.7266553156 25.7219245924
948 1 62.8069341068 56.5102580686 26.9141170907
949 1 35.2043521294 43.2830183494 63.3133387816
950 1 53.3289155657 21.5471723218 17.425390988
951 1 53.4903478022 27.2877480025 22.4503236443
952 1 31.5611987961 11.216957854 16.2203494159
953 1 56.3917190638 6.0796524887 27.6722754329
954 1 4.2399548488 38.4144790771 13.7477215152
955 1 56.0230010331 38.147671838 49.8070096204
956 1 6.7516716476 55.4176458926 18.6061200969
957 1 33.4204723779 45.9866146509 7.6530404761
958 1 13.0190404601 26.4684935739 35.7310381855
959 1 54.276597747 8.7389761725 16.5716834055
960 1 14.9441970381 48.7829258382 32.2340115744
961 1 60.5194840349 36.6846410186 24.0341609521
962 1 19.273831037 26.5567364781 60.1154310512
963 1 40.1125093793 11.4301642998 23.0690947297
964 1 12.3298514113 20.0796695208 52.5344774856
965 1 43.7070377861 38.5583383156 1.997583611
966 1 57.9173576254 24.3919194786 54.7758220571
967 1 55.7791835585 40.7079127863 53.070989304
968 1 33.2672282767 37.4252263627 6.9846303952
969 1 6.787945087 24.2060488075 34.764334336
970 1 10.3230024373 58.9365285264 26.9049841705
971 1 16.3759869721 61.7038663119 12.0347006269
972 1 10.4717115713 11.0263632587 29.5930860007
973 1 53.2318546697 60.794542395 4.5315910336
974 1 60.417825186 23.4501579489 63.2730279617
975 1 42.6323135364 48.2687739276 24.0463801694
976 1 7.285386903 18.6272202917 31.2436881039
977 1 22.5560135752 8.4196388962 24.4489214974
978 1 57.7716718029 8.5573255404 63.6995038391
979 1 55.2841792873 57.723298819 23.1146963447
980 1 36.2592988831 13.9226956678 21.6413988633
981 1 62.071576572 29.1519974511 8.0470157549
982 1 21.7953987924 59.480346681 46.1437008772
983 1 12.8876523815 17.5101066955 52.6102492298
984 1 13.8516478478 14.4837089065 25.0430651912
985 1 40.3508471019 4.7921311999 51.6517965013
986 1 46.1277025205 6.5322359204 8.9248468436
987 1 25.5804588088 15.0558076207 59.1734175789
988 1 40.2096962467 60.0701443645 59.9802008476
989 1 43.035484721 20.6948504238 14.4406267178
990 1 13.7425566914 62.2499519501 2.3140172486
991 1 30.6240352193 24.0855572475 58.7117327198
992 1 14.9954043765 18.2619664721 58.9063583971
993 1 1.6186902476 30.8095909622 49.2864961585
994 1 5.3932474059 21.4584255324 41.7493806095
995 1 40.3133706366 46.614770599 8.8236288943
996 1 43.053246676 53.5367052451 18.2947190132
997 1 56.9238218864 34.2716605342 6.5254775595
998 1 11.8449248451 49.757439909 60.1091324856
999 1 62.1642914578 19.7920140295 32.8769691516
1000 1 28.7747763569 24.2456667852 31.3755800677
1001 1 12.5933204106 55.9163663174 25.0652361421
1002 1 63.8909172479 16.6763025803 17.3987480555
1003 1 5.4092394639 19.5953098256 37.6657055977
1004 1 9.0677612973 25.4226167547 33.8873850464
1005 1 53.9774158807 15.4040553131 36.5366877124
1006 1 13.8643709503 44.0634736139 10.6471266235
1007 1 16.5837136658 29.8472961086 23.2044509046
1008 1 56.4273689452 13.2883671255 61.508799735
1009 1 11.7849625005 12.1601050681 44.6467837748
1010 1 39.5252941077 26.1308274717 58.712425562
1011 1 59.9573370544 42.5936403436 51.9138798162
1012 1 54.6473313187 44.5138210548 24.1523850286
1013 1 63.4165722719 37.183613386 42.4133124102
1014 1 23.2658619193 46.3250995667 37.2229794211
1015 1 40.2001224269 52.1960555554 43.5816963305
1016 1 27.5480677191 22.6557828545 22.3936995395
1017 1 41.4683386121 62.8432768303 53.0210416788
1018 1 4.5201780327 1.0028440965 54.4619015472
1019 1 31.7019087518 55.6999476031 36.521193241
1020 1 33.9945236474 15.6402515234 61.6903243958
1021 1 23.7777463462 43.7285158948 46.8972612665
1022 1 26.9756540766 37.1733467241 56.7130718811
1023 1 18.2460940867 34.8893608634 45.2967327599
1024 1 27.9618204939 15.3420144419 50.3972482035
1025 1 62.2007601527 39.3379117809 13.0826559727
1026 1 35.8282250529 11.6029339544 27.4843892208
1027 1 36.1471214296 13.5639293708 3.1831563168
1028 1 30.9695745286 43.5398108692 51.9849906219
1029 1 38.8203586449 2.8376233062 47.7941140234
1030 1 17.3296527908 24.2634287402 39.7497120003
1031 1 53.4372508941 60.2415913203 34.3761537376
1032 1 1.4160276006 14.1165025316 10.6305613959
1033 1 30.4450929704 30.8471304132 31.6302940609
1034 1 48.4446298794 3.1669564061 20.3714820655
1035 1 7.709286667 30.527037309 12.4882603363
1036 1 50.451919753 50.9794876083 13.7666172121
1037 1 18.3235664437 31.2627727576 35.6366226871
1038 1 54.8549950268 19.579311469 47.1355989891
1039 1 23.8421176867 37.6956867699 46.0028019645
1040 1 53.4684287939 3.040027712 58.583871838
1041 1 32.2272091235 40.2929002984 37.6590921038
1042 1 8.1569257247 21.4817932108 57.4709152951
1043 1 60.8528041269 41.1476156513 22.263949088
1044 1 4.8916359394 17.8788877118 10.8758275407
1045 1 43.1593775065 36.511682407 56.8910693452
1046 1 2.6684186397 17.3003644607 21.4256729913
1047 1 3.2642629462 51.3955708523 8.5862989422
1048 1 26.5606415887 40.6215594518 36.2152089238
1049 1 23.2112533554 26.7552042804 50.4520457243
1050 1 42.3076224793 9.9299089577 23.5491714003
1051 1 12.7458716697 12.1849844023 23.969159755
1052 1 26.6478767224 33.1200937841 52.9241697397
1053 1 60.743083114 8.2083850057 60.5625662237
1054 1 9.4954968877 42.9100172941 2.8523871439
1055 1 40.9129310968 60.9817357649 16.8369789889
1056 1 19.8960663334 39.612592227 1.1682338415
1057 1 57.6620137756 20.1417733777 27.4036416097
1058 1 21.5672017605 41.3986134908 52.819550565
1059 1 54.9369393654 17.0560431008 45.9859847944
1060 1 18.6126076195 15.7438629277 2.3395390365
1061 1 27.572632125 48.472721482 11.3727213815
1062 1 48.3182176676 63.331037751 35.4042056161
1063 1 63.5459448095 24.6268559758 25.8296300643
1064 1 32.7224023516 29.3732660609 32.2689056278
1065 1 37.0166384118 36.6348193646 25.3823059348
1066 1 12.1324543651 28.4633122876 23.497397191
1067 1 18.9849158325 28.2059528968 29.9691733531
1068 1 15.7680494196 25.6145970344 10.7892222636
1069 1 26.5661213408 53.5515068743 62.4122030001
1070 1 50.5303998804 63.3059064742 22.9710260631
1071 1 55.6022568505 40.8592673178 13.7234720377
1072 1 60.4013859298 5.3502093071 36.979791803
1073 1 23.7652751863 10.1486581412 51.9257211196
1074 1 21.5000590511 21.8584474342 7.7677373558
1075 1 27.1150413335 16.4132744805 41.2999149677
1076 1 55.431124823 62.0410915145 12.3297254399
1077 1 22.2790026598 49.1918917031 11.7552332708
1078 1 4.2332972649 45.5364561669 54.0235213809
1079 1 60.1235562008 48.3436638727 24.4093665054
1080 1 36.094843335 23.7260351226 56.798984316
1081 1 2.8957275739 19.945762016 38.6446916501
1082 1 2.2955498542 18.4551434793 52.3575507776
1083 1 52.5820316559 61.5464021717 55.193039043
1084 1 57.2405767508 47.0818092388 62.6334086243
1085 1 2.1340483335 51.807874957 42.9634291304
1086 1 44.5211903766 38.2114763076 5.7257549829
1087 1 42.4567725129 11.849333841 18.9175841662
1088 1 28.2199986981 61.8046433616 4.1890876329
1089 1 53.8843860666 54.5928487262 18.9616741254
1090 1 14.3110652232 28.9873529461 2.9709954329
1091 1 52.7614148044 27.2016466107 46.6492237529
1092 1 37.9816416485 52.2388228159 63.2399604923
1093 1 28.8879615808 12.083199582 30.6903591152
1094 1 43.3575933662 15.1400824285 1.0777946275
1095 1 49.2878188573 60.1931553508 14.2599838561
1096 1 60.6096794945 2.0866516273 45.0903287649
1097 1 32.3319542696 62.8567557607 25.904771952
1098 1 10.0381813005 8.9407822146 1.7758615045
1099 1 59.6189151243 39.5523779398 11.8890148044
1100 1 22.170730317 24.1096177681 57.6281904783
1101 1 40.3350377023 32.5794249123 19.0981640422
1102 1 63.9984967485 2.7412804466 5.4379861174
1103 1 22.291788748 28.0318605434 57.3945136943
1104 1 9.493985232 6.1513994495 17.7212976003
1105 1 38.4791023603 33.8684893496 30.0237819169
1106 1 26.4860665719 25.3625284388 24.9980934327
1107 1 6.6153958821 48.3328303398 56.7768763507
1108 1 28.1797508639 27.0562757164 2.946185383
1109 1 50.7952545642 63.6722940356 44.3908730542
1110 1 62.5246953819 17.5102956524 57.4860318525
1111 1 38.3502337079 58.0318655481 19.462095163
1112 1 43.4959728526 32.4515010448 6.0113697389
1113 1 48.8994493019 50.953159604 48.0892648078
1114 1 48.2415011385 22.7288462155 54.4963547011
1115 1 6.776286442 58.143602102 32.3311354561
1116 1 46.9659156316 52.6036987216 11.2442936287
1117 1 13.5222958521 31.2993674238 6.5178751908
1118 1 9.5184866522 15.6158760745 15.398953475
1119 1 53.457784218 1.4828793163 40.7381459012
1120 1 24.4964756677 31.1009626072 55.0790350055
1121 1 42.2367006306 46.3618831898 31.9462301118
1122 1 51.4552182686 35.7446430872 53.3483781334
1123 1 60.07499426 7.0812629888 49.7013196895
1124 1 16.1532067066 19.8683526447 54.455162082
1125 1 23.6946052802 19.4945327759 23.9379818553
1126 1 44.6244868526 44.782643835 44.5436762558
1127 1 37.847860115 61.3565004186 33.160215647
1128 1 46.3145809621 13.6226949879 14.5650863742
1129 1 25.2492802292 36.6707841742 58.8450103681
1130 1 22.9073475649 44.6287068915 55.1232509361
1131 1 11.4868513903 1.7631258048 19.2928527051
1132 1 54.2553715809 13.7204487262 4.8464500297
1133 1 53.8706551936 24.5285353667 48.9289895746
1134 1 62.5526610132 49.7386071979 10.5257532642
1135 1 20.5736030358 1.9175855292 31.1351638184
1136 1 11.4593896442 58.2875873118 31.5907390688
1137 1 52.8799538091 38.6360626152 27.5240701841
1138 1 52.9995005844 1.4747308619 35.7953465404
1139 1 25.303888793 63.1381756721 2.0138024175
1140 1 9.5983524641 53.908131659 21.3973924317
1141 1 41.0386504663 42.3129132745 28.4224975824
1142 1 53.3230578997 53.6809423975 11.8289264885
1143 1 28.2853778091 59.4031892523 24.4378360219
1144 1 46.9152121785 60.1413811415 15.456270422
1145 1 43.037311305 11.9502998477 12.4330219159
1146 1 46.570995568 2.3011303834 4.5910368958
1147 1 57.2378683676 8.9712042865 45.0105259387
1148 1 6.3794453159 21.1902326088 21.2025777974
1149 1 59.6869396329 21.1508665738 58.6814996049
1150 1 40.0088349894 31.9219176485 54.9269246461
1151 1 24.1173650038 16.6522420597 9.6697781981
1152 1 15.0001283007 63.9909384697 4.0538826236
1153 1 35.5412624038 17.6375896634 3.8586333883
1154 1 32.5929668284 43.8512749385 63.6927643739
1155 1 33.9963502315 47.2116856616 61.4638279765
1156 1 10.5971789982 58.7931731731 6.1314959822
1157 1 39.4859910583 19.9611935018 2.5990840295
1158 1 31.0844603653 22.3981085355 34.818376029
1159 1 53.4286848449 30.0844371037 22.5699334052
1160 1 45.5939620709 58.1808266247 20.2581708702
1161 1 15.2031310703 46.1512591559 8.0795163534
1162 1 37.9281038409 47.2967162974 58.8565367432
1163 1 44.8475820464 11.0183010947 10.3996559807
1164 1 49.440622059 38.1403655019 29.4492267622
1165 1 48.6289259091 32.8776619938 34.5298387385
1166 1 40.0837879202 58.7723879066 56.1380128411
1167 1 17.00124558 26.3396249216 14.8643942119
1168 1 5.4367578971 52.6654876502 56.0005781396
1169 1 4.3694848505 24.4888544033 61.6656340186
1170 1 14.3064672703 14.5838560997 3.0284572469
1171 1 6.3359474218 36.9016266038 41.7516480931
1172 1 36.3491794143 31.2989895099 51.4178677746
1173 1 23.7765496187 18.7763703253 43.3053152716
1174 1 37.915254767 47.5698850878 36.7703015108
1175 1 22.9482882413 39.2777604793 33.2114229854
1176 1 18.2157350005 6.5191789939 23.8851998755
1177 1 4.4261467467 37.4289425164 62.8585193591
1178 1 7.1502322822 14.4185187525 15.4992266395
1179 1 5.1358250295 5.8560534096 12.2444428616
1180 1 57.4620973032 48.0653932441 15.9983249783
1181 1 50.5206371037 35.6264190108 6.3798988126
1182 1 34.8045821703 46.2170791665 4.0673300612
1183 1 50.5861421861 17.2758630405 6.9176514485
1184 1 14.4832050213 40.9141278243 25.0254292075
1185 1 59.5643695462 19.4973671304 51.7618954281
1186 1 37.7170389074 41.3208262056 26.3695431082
1187 1 49.9039445451 20.6763326409 19.3030563814
1188 1 2.013563072 37.0733255022 25.5878911163
1189 1 5.1413803643 25.1013899087 52.4799319074
1190 1 30.5510978296 49.8779314691 15.1366182174
1191 1 44.1608494382 62.1269409637 4.135713588
1192 1 55.2831715168 24.2591457156 29.8028282354
1193 1 57.3518724051 16.0319593186 34.3479361637
1194 1 47.9853384753 44.540338016 52.7949861591
1195 1 58.4979594031 25.6185651308 46.8536751925
1196 1 28.7138062418 43.6626328986 61.8447022388
1197 1 62.8065561928 31.068210066 59.0687984041
1198 1 19.0568454518 53.9819508479 56.7934415783
1199 1 55.294131021 44.4127290768 31.4541861665
1200 1 51.1232208755 23.7126821635 38.8994056433
1201 1 14.4177629246 51.2128494641 51.6663461878
1202 1 19.6955200044 34.7244014301 2.3739229061
1203 1 45.8139079819 59.0460605823 59.3437307929
1204 1 2.4643199197 47.2683097665 6.726118367
1205 1 49.3132650624 40.646249829 15.6615406752
1206 1 42.3905745884 46.5276614366 29.1751131869
1207 1 19.613008795 48.4227738567 34.6992701533
1208 1 26.0430884527 12.5518758489 60.4707331371
1209 1 34.9978851488 16.3738454598 27.8703653212
1210 1 46.2296133121 34.7636414938 51.7215846082
1211 1 63.7755905116 63.5745402974 51.3753524567
1212 1 32.8052284894 10.5842669387 50.1760425793
1213 1 28.2770007169 3.8286396189 1.9897418969
1214 1 56.9408909992 58.2539529714 60.0562875201
1215 1 18.2134045312 52.8186687658 53.156334868
1216 1 6.5163257437 56.8027004697 11.5172734622
1217 1 43.7719759975 7.1912359443 54.120204363
1218 1 2.2371684496 17.6052150361 40.0313208687
1219 1 39.9141675484 33.8126210727 3.5030856583
1220 1 19.7471682424 40.0516652356 57.1234234305
1221 1 60.5436705269 42.0726229965 11.1059141423
1222 1 34.4155197727 50.3177603055 33.3610769043
1223 1 22.8779332635 4.5960757483 11.8560103206
1224 1 18.369482987 48.212653708 43.5878059391
1225 1 40.3105992677 50.4243950213 12.277888245
1226 1 44.0195096259 37.7089137577 23.0170685777
1227 1 28.5676795197 9.7917184282 49.6400976318
1228 1 10.9976417995 63.1354043032 47.2361240962
1229 1 32.5554273774 42.9670822985 30.1991339834
1230 1 32.793576143 8.6609369447 27.5435327518
1231 1 34.8709690518 1.974732415 28.9140376425
1232 1 21.1484731189 23.2145915952 24.3746614089
1233 1 4.635026078 7.6307435538 60.9063419346
1234 1 56.1443114067 27.2684743917 43.7701494135
1235 1 25.7187753096 32.2283428653 8.1095605113
1236 1 38.0191181139 24.6683005375 36.7963775725
1237 1 24.8888133194 63.0424374748 14.0841279044
1238 1 6.5448393502 27.8928512005 12.3459127536
1239 1 63.8225148254 6.3856997916 40.122272156
1240 1 24.0394517472 53.4570913758 26.4584788546
1241 1 34.3430232825 15.2421191914 31.3682107459
1242 1 46.3682447411 62.6799550241 39.5237194663
1243 1 24.9572157419 44.9617750409 11.2053684933
1244 1 3.9374914297 52.4512104482 27.1957889446
1245 1 49.8204885508 42.5850113087 34.4924252587
1246 1 3.8899939465 27.8613583724 37.9299934106
1247 1 62.3791355307 53.7060736743 56.2505052229
1248 1 42.3481222562 45.1205618798 41.0898578047
1249 1 1.1700635748 27.0815959502 11.2022192105
1250 1 12.5797784946 27.2364776785 20.9979374008
1251 1 36.2094142435 44.4687233251 23.7550085244
1252 1 30.3675576278 38.2240104531 20.7938638751
1253 1 33.2530565041 44.9114495016 48.2292189356
1254 1 59.4359417934 61.6902614101 12.5981703061
1255 1 20.5982304273 37.6607927165 42.8823665911
1256 1 15.3067424745 42.2763815939 37.6561317779
1257 1 3.2506580445 54.2097699659 43.9344160046
1258 1 28.6963592151 33.102709743 50.8525715113
1259 1 6.6489294454 34.5499941484 14.4288484001
1260 1 14.0076633179 32.813353639 52.0727926265
1261 1 9.5381381769 9.2744172349 27.7527081157
1262 1 4.6050134129 43.8143023584 19.706038609
1263 1 35.2565672383 14.0621459104 26.3539226655
1264 1 63.0966051391 36.8146434127 62.0675454901
1265 1 57.9676831646 58.9061064545 46.2434701564
1266 1 24.7644166487 17.1879350646 52.9013689322
1267 1 60.0043873395 56.0663981502 38.8666531021
1268 1 43.1617079758 42.3023316842 59.9580928823
1269 1 51.6637637759 62.8595271296 61.3558075764
1270 1 58.7659003841 10.0770434503 40.3524217433
1271 1 3.4559157005 3.7807138332 46.7517014153
1272 1 3.2354722028 26.63036671 56.450295724
1273 1 7.931248119 56.27374693 13.7978580975
1274 1 61.6089469281 18.9944266666 62.1413016933
1275 1 59.8632994699 28.6751960346 6.5994416155
1276 1 62.3228893398 41.3995582757 33.0570451424
1277 1 9.5382641482 5.8052743737 55.5854396804
1278 1 44.7161309821 40.8554251928 35.11560534
1279 1 33.2963906355 9.6241765831 8.4975521528
1280 1 41.4046601138 37.9182780785 48.6536792719
1281 1 16.4276352101 42.4991618595 42.2593124811
1282 1 63.5238998299 2.3569419732 30.2999110332
1283 1 55.6020049079 45.5472267141 1.0923455737
1284 1 19.5919715858 5.2671438238 7.802127524
1285 1 19.8298684088 7.4103567432 6.1270491949
1286 1 31.3925861948 16.3189219677 51.8486896622
1287 1 50.1316376918 46.2064345906 35.8007003212
1288 1 41.9814827522 46.3936909461 15.8114465367
1289 1 41.2762323611 54.3878304157 11.9636528068
1290 1 35.6588566237 45.9172674436 20.4741486849
1291 1 54.8355954447 38.8765418501 2.8673525358
1292 1 60.9483533672 33.6385917049 18.4327205857
1293 1 3.8443671372 23.634202036 38.2577707648
1294 1 14.1427045645 36.5147687041 45.9995267104
1295 1 23.8734215578 21.1812886457 60.0694515223
1296 1 56.8241785785 21.6385015231 15.3614770096
1297 1 61.8256805707 11.9430564973 13.6531800455
1298 1 38.6456994206 48.6169586344 23.1774930438
1299 1 2.2726230754 8.2481289547 35.1581206578
1300 1 40.0975187932 23.4894609983 26.5225352668
1301 1 31.0973094391 50.0745097017 51.6453719643
1302 1 22.9235978641 8.7785311646 30.0852559173
1303 1 47.9920779405 26.3721255201 34.3146167516
1304 1 56.3575808382 38.2194754859 24.4196331673
1305 1 8.1215907717 22.6839374427 62.1799748862
1306 1 26.5519495682 39.7429095495 62.0560821006
1307 1 53.2528288931 35.0628863458 3.0398072622
1308 1 57.3197497205 8.9856280017 10.8377842044
1309 1 7.1083216266 49.6494824945 47.0692750933
1310 1 26.2265026832 1.1073613541 21.3842284296
1311 1 44.1940428789 2.3515441025 24.0984063213
1312 1 32.3221285072 45.4356791172 29.0903974795
1313 1 13.556749006 51.8294160514 19.2948682461
1314 1 12.8350593587 15.0825135389 35.2773525048
1315 1 54.1684513756 36.3595090619 53.2431291021
1316 1 21.0999741637 25.097484798 47.9346980078
1317 1 47.5943235223 48.9360439681 5.725332979
1318 1 56.6503381677 56.1946999316 26.9377996973
1319 1 59.8609690006 48.3298070284 41.8583457945
1320 1 19.4285238083 56.1424848227 20.4028489222
1321 1 13.6587857689 13.2376636723 15.7805835652
1322 1 4.0475777594 8.3121223813 58.4211169027
1323 1 44.5259143008 45.5829395811 4.2424805736
1324 1 55.6906887117 14.2616214832 18.9285436704
1325 1 35.530050957 17.8178546111 6.6005816558
1326 1 6.5468233984 61.3541699493 45.676725223
1327 1 51.1990556054 44.1017059071 1.2329295581
1328 1 47.0079270642 19.7922029865 26.8179379938
1329 1 1.7444127664 40.3226925137 40.2801771958
1330 1 38.8100289973 6.6885474231 44.6519485986
1331 1 52.4036562779 4.7433299136 29.5843939801
1332 1 48.1289457711 25.8251580827 42.4597328388
1333 1 46.079266551 32.954378523 16.571053549
1334 1 23.2184967059 4.4061991894 25.7093274612
1335 1 42.0503260743 45.6097084849 24.0926116409
1336 1 56.7877098836 43.3375639275 14.2342227228
1337 1 29.3844775077 23.8222142194 43.9582245825
1338 1 59.1831803556 59.1566633944 42.0519637013
1339 1 46.3440582492 28.8032458734 6.8617642759
1340 1 2.7970101551 31.1403916279 56.0589658428
1341 1 3.2327701181 47.3371530886 10.7585482491
1342 1 10.5433892479 8.2915890574 59.0641374656
1343 1 59.3791917173 10.6956885643 14.0128911273
1344 1 17.1925960032 20.6939056389 41.7597102571
1345 1 47.6552306518 12.1792527076 52.7240013247
1346 1 17.869502849 41.8394500977 38.3363768636
1347 1 44.0956592841 1.8763110288 36.4286043266
1348 1 4.3662725821 46.2652002077 59.3399516536
1349 1 61.0410052673 2.5898377351 33.8418464171
1350 1 34.4623181151 30.4487461385 48.2055363289
1351 1 5.9889342482 3.9089652261 62.351232885
1352 1 12.0533443811 24.2622949984 46.8800661824
1353 1 22.7034000105 33.3898613491 27.552476715
1354 1 1.7649145975 47.4120430336 48.9454288309
1355 1 59.0818994206 32.4998740287 20.2317798803
1356 1 53.6893824754 14.0698931461 27.756676212
1357 1 19.3125042298 41.9407310327 14.2904689137
1358 1 54.4130246781 51.3427888725 11.2458052845
1359 1 28.6598275345 63.9510055638 18.1141391373
1360 1 3.4235662675 46.7547247268 45.3677805799
1361 1 21.933022451 55.7844743536 48.9556954928
1362 1 50.9977534485 18.815799346 27.1768932478
1363 1 63.4857305223 41.5322060674 14.227042358
1364 1 19.874714196 39.7896449063 12.4847961252
1365 1 27.2395639756 2.7848980135 61.1729602168
1366 1 37.874062148 54.4328021741 16.8918394954
1367 1 17.005465619 34.9298606402 61.4960136468
1368 1 13.4103703413 56.5324920052 39.0736869536
1369 1 1.4252058704 61.8804780915 2.7552002766
1370 1 26.9286667772 46.5766012914 47.6286507049
1371 1 56.8043380968 16.6637684347 19.6122529671
1372 1 62.8888154597 45.9028437283 12.5715273736
1373 1 8.5224314869 10.9742741211 63.8213180979
1374 1 52.1895680329 48.4444409224 48.4027444181
1375 1 2.0198427419 58.7425956913 12.6189555727
1376 1 44.4173900154 9.9871629191 39.2077204298
1377 1 32.3517947512 1.8711399065 10.2757631952
1378 1 63.3991252452 25.9460905424 32.9623147156
1379 1 50.4550060501 24.3744724519 7.0727158352
1380 1 14.3438177644 31.4078917093 45.4218222729
1381 1 63.2390157075 2.558143353 45.1581643165
1382 1 63.4771644731 20.2901045978 37.2546612061
1383 1 53.9549929871 41.2617456602 47.5438090261
1384 1 41.2857431951 59.9017837058 36.8409084313
1385 1 51.4193164447 32.963889357 33.8790709398
1386 1 56.8312329719 63.5798940782 56.172277038
1387 1 16.6676105597 18.8824381701 22.243982635
1388 1 32.7879074339 14.5503477307 19.1229803907
1389 1 27.5234403276 7.7877667944 29.2160538634
1390 1 21.928802412 46.9050714879 63.390559196
1391 1 61.451293831 18.6409511647 45.5977412103
1392 1 29.7136405464 15.8627798464 60.3959691634
1393 1 26.6944861079 27.9428618114 61.9951749712
1394 1 45.8506286194 27.566207588 38.7520821937
1395 1 50.2656081823 14.5250274969 4.3490711994
1396 1 54.806433086 39.8125086994 11.3113103668
1397 1 28.5713326877 43.2628629394 5.9554636706
1398 1 33.237499047 25.3039517787 42.5035708554
1399 1 48.0930439472 32.3112949744 43.876091287
1400 1 56.4908584865 22.8229467857 61.8313492798
1401 1 3.0589549016 54.6569681241 52.3576137633
1402 1 29.8695300452 15.3003179376 14.6799092252
1403 1 27.8471865998 57.94324473 41.8332775034
1404 1 21.2124035598 28.5409736015 33.7351487157
1405 1 25.5032383945 21.7325391077 5.2409669852
1406 1 32.3699976059 15.0048522249 23.4320810656
1407 1 19.8236328289 55.793544288 46.9608767791
1408 1 31.4536192956 2.8235838034 38.968311951
1409 1 23.9998967552 31.9820059644 22.1481814521
1410 1 26.9855428246 37.7452564813 15.9658243797
1411 1 63.1714950841 58.0917019214 32.9369944819
1412 1 34.6208530115 60.2249001215 14.5479542757
1413 1 60.0149689298 37.6941751142 29.954182767
1414 1 35.0558319524 28.8223305272 57.1922037669
1415 1 18.9821444637 45.5859628926 42.7703151089
1416 1 10.2531513447 25.8119940806 17.5043750008
1417 1 19.09123562 18.5806738918 50.5900472967
1418 1 36.5668578417 15.9902628143 57.0541392088
1419 1 21.2133483446 55.7755933761 38.9083496064
1420 1 46.7845799278 32.7817348396 48.3020933397
1421 1 60.6358815274 16.1195093805 5.2360289097
1422 1 49.7779102473 45.3207302948 10.4764354955
1423 1 28.4453613756 26.9931011034 17.5782571753
1424 1 7.9463016908 10.4038760197 61.1979025366
1425 1 36.2751082827 44.4064934969 2.621072322
1426 1 51.6044312879 61.9303627311 46.2422104433
1427 1 11.8371776094 40.4199423667 48.6972653459
1428 1 25.3683861048 58.0592643085 57.7544767187
1429 1 63.2616905437 51.2552388106 60.5973343059
1430 1 14.9156645359 57.4333758441 50.6541666946
1431 1 36.1321308434 9.2370667408 41.5906567562
1432 1 1.4068644474 4.4170264237 62.8280343015
1433 1 53.1706955976 32.9060055391 29.8284004118
1434 1 32.7246068496 6.8960032785 63.0447679441
1435 1 42.3758989305 59.8316806706 22.5922933131
1436 1 47.2288177601 24.7860207287 18.6777977735
1437 1 12.3500698069 46.5997800128 42.9171976589
1438 1 45.8943406648 6.1270428963 37.1621352773
1439 1 41.4161864889 39.7771737464 15.5618343816
1440 1 37.215484128 28.6983117704 35.1778981538
1441 1 40.3557599831 2.7296469959 43.4601340143
1442 1 47.3414990988 34.5608906669 19.862431993
1443 1 46.0022980793 38.7141018431 10.5005590018
1444 1 44.9262511308 18.2868458062 39.3847101234
1445 1 9.3417489012 38.4407440957 19.3229598487
1446 1 16.7430043901 39.3229211947 28.6140369626
1447 1 33.9686995284 47.7168936091 34.6437797903
1448 1 37.2131536587 33.6958456663 3.2738178702
1449 1 56.9102169847 12.2447577899 7.7176637592
1450 1 21.7765660813 40.0075752763 48.6636939912
1451 1 22.5492111244 3.785255099 61.5984913092
1452 1 56.0572022444 15.9077516048 48.1143330989
1453 1 9.3076106756 52.7720593803 53.2343111102
1454 1 28.8788286607 58.9716115368 60.1625443219
1455 1 26.3672126389 28.4099634369 32.3760442288
1456 1 53.6884376906 2.0785894633 47.5807186206
1457 1 21.4427421041 27.1750036781 29.8323685081
1458 1 48.8193315474 14.4039060803 47.7733287569
1459 1 30.3994283698 6.352764592 35.1896134859
1460 1 34.2401047205 6.7515330792 39.1281065605
1461 1 32.4792777192 26.5024428425 44.6921964328
1462 1 49.4908846125 60.7393669603 21.7574184418
1463 1 48.192876212 52.7024602303 34.3160024361
1464 1 21.8619746309 5.3019245031 42.6679634178
1465 1 41.7226117057 19.3696952055 63.9745621992
1466 1 18.9274729142 57.4816228566 50.985219303
1467 1 58.068334243 49.8150717844 17.938913042
1468 1 36.9179398887 57.8762909776 8.5887553828
1469 1 14.407811191 14.0099937872 50.039111763
1470 1 16.6657839757 33.604705422 8.8826464541
1471 1 14.546253663 35.4940861474 11.4480522262
1472 1 43.6632627551 38.6010425904 30.9474665633
1473 1 54.2141789619 25.7699196623 16.5030920261
1474 1 38.1386019035 60.5050603197 2.9927380814
1475 1 42.9651927288 28.4376771255 3.8535504459
1476 1 18.7227065463 52.9392862972 26.2431308964
1477 1 32.8755834672 1.8207261873 30.9841242152
1478 1 5.1164002531 60.6467150602 60.8622519753
1479 1 48.0387503116 21.4326643991 52.0368278169
1480 1 9.3054061777 47.7526694617 4.6004658485
1481 1 5.1365304688 19.896129319 54.4013093461
1482 1 30.2219977766 53.0951128103 47.3360193467
1483 1 9.650189659 22.644508422 11.9826744749
1484 1 60.8082102824 48.8679564739 1.684129195
1485 1 61.7078344082 40.3694908561 19.7870381627
1486 1 7.9871793816 17.8881466032 41.2861840947
1487 1 8.8715609786 28.7155068545 37.1215725148
1488 1 44.4228697674 46.7514494727 56.7421712542
1489 1 17.8809662384 10.6682898039 48.9600415031
1490 1 63.9642955372 35.5125409446 49.3717157512
1491 1 45.1914207429 49.3367587121 27.4253086754
1492 1 50.2588057314 2.2362866504 55.0431331815
1493 1 12.0055382681 42.1153272713 11.0227100907
1494 1 14.8334052691 7.2167640307 54.0398346658
1495 1 39.8016121809 27.4488653108 29.4390860715
1496 1 39.8562837304 12.4173384875 15.2483547713
1497 1 31.6707938377 2.1016170192 45.6462401655
1498 1 32.8628603647 19.8073825296 63.7722522718
1499 1 61.4770549643 32.3882004605 5.1212942386
1500 1 39.1434120749 15.8542767828 47.0906902163
1501 1 27.2652621233 37.4329106128 43.2034044801
1502 1 9.8814729882 49.6024322094 10.3508420973
1503 1 57.9194991377 47.6275169631 31.7704371456
1504 1 40.7887863687 29.1203786518 13.2964292894
1505 1 36.6986238342 18.4559622928 19.5786186267
1506 1 49.3222720112 36.9324265896 33.3133967626
1507 1 10.7941981304 56.2166819256 54.7495570385
1508 1 57.2920360318 27.2090159324 10.6018399367
1509 1 51.8946691911 60.360697196 30.854121821
1510 1 19.4113287242 44.0558523495 1.7196908964
1511 1 43.6483351546 43.3880154381 53.5198880749
1512 1 13.1467753706 60.4442161759 45.5251817345
1513 1 52.1214805386 34.296413897 37.9439132406
1514 1 25.1444720975 54.4392896967 32.2142340784
1515 1 35.1191955224 30.8153856425 28.7301195267
1516 1 18.2421889761 51.0593534202 29.7685010528
1517 1 60.8310110899 3.737493076 17.8358685087
1518 1 45.0743933939 38.3194967077 28.668708512
1519 1 55.5579779343 52.2615606378 62.5691632551
1520 1 25.2027338293 55.4568859563 58.3301026296
1521 1 37.9108457711 35.553859535 14.7624204347
1522 1 32.3771779706 17.3557918381 39.3898119615
1523 1 18.0092680199 37.9620531095 56.9093981711
1524 1 34.8901796769 57.2835329682 34.0260164755
1525 1 11.8889518187 14.0334244512 54.0616906885
1526 1 49.5765451048 6.5503065052 43.9785689495
1527 1 42.7315159448 56.644606473 34.954991917
1528 1 56.1182353451 19.8931060075 23.2239134723
1529 1 36.3417471069 40.8159331864 31.2178639849
1530 1 7.14027425 38.8854228276 47.2041903686
1531 1 27.1268196512 54.3606835979 56.5758891222
1532 1 57.1712925291 60.4866055225 19.7949113697
1533 1 56.1732218229 55.7148122179 40.7348076614
1534 1 49.4628559956 41.5591009425 48.2382258844
1535 1 21.5630447072 28.137424503 5.2288611421
1536 1 9.8119368238 59.7633412337 49.040096272
1537 1 51.4459593772 56.5172494764 8.4659963391
1538 1 47.3263195557 23.7579688502 27.635806738
1539 1 10.9983976274 26.2744347675 4.1482351364
1540 1 54.8943610619 50.7153887523 33.3019333732
1541 1 37.9063108039 48.4347411314 40.9596664536
1542 1 54.2704881384 59.0352900351 60.4462317169
1543 1 32.9359867114 58.8857620876 4.8598344817
1544 1 2.9246442886 42.5273164478 5.5259455861
1545 1 12.7539338336 35.0516119134 55.9976178137
1546 1 42.1177207263 63.7400666016 37.9093341154
1547 1 63.144411252 22.8508494313 62.8854772199
1548 1 57.5444825414 3.5982569847 28.0833828101
1549 1 50.8137723471 19.4294056075 56.3817043445
1550 1 50.1986544299 44.917244182 28.0862801503
1551 1 62.3865678381 37.6553129644 19.6919928077
1552 1 59.745894207 10.9301211762 20.8152160125
1553 1 22.4520872427 2.2142605665 59.3573356946
1554 1 10.9441039919 48.9507826116 30.8805757966
1555 1 13.6851767588 56.4739783307 58.3693426934
1556 1 14.9904285097 7.3859812943 44.4539846815
1557 1 41.9918753854 15.9700444187 32.4567918399
1558 1 21.798233147 41.0006071301 26.8826242626
1559 1 50.2230298788 6.3211520912 38.980027283
1560 1 56.8487429843 56.471710847 63.8431111349
1561 1 14.0770105252 9.9658107816 60.3685074173
1562 1 5.0370320279 61.4387596854 11.3392759981
1563 1 17.084386646 13.1414215898 50.4621234292
1564 1 46.1770832749 26.247791835 61.1189815095
1565 1 54.7459668561 27.8836552947 18.1113047827
1566 1 32.9790689001 33.2182254363 41.9023727681
1567 1 4.6329475513 14.8937455276 50.6270828625
1568 1 61.8783995648 20.1314437301 5.7571533324
1569 1 29.8599562255 28.2828583829 7.3175158862
1570 1 8.3187358752 8.6048167251 14.0174260946
1571 1 34.5627172509 58.4413982839 7.0499213263
1572 1 55.6262543855 1.7952799823 27.4491172534
1573 1 43.3194240586 12.1575856419 47.8973475137
1574 1 59.602853782 25.4976326711 35.5069352212
1575 1 63.6249288223 11.9555276572 34.2421832471
1576 1 17.4252650167 51.2693475976 12.1882596564
1577 1 17.1447898902 7.4686184751 57.744902899
1578 1 10.3730130482 18.3089537715 42.426728355
1579 1 21.6970781833 34.1566487262 8.7038931621
1580 1 40.2921444705 29.5421935905 56.2078009481
1581 1 32.5264539756 34.1060712444 2.1115183643
1582 1 57.7141029132 59.3648309877 17.4507742074
1583 1 14.5027305747 1.3215018772 56.138768669
1584 1 10.7169147304 47.0841397081 20.7941788034
1585 1 42.6187086347 36.8957689377 28.0558580784
1586 1 19.7044009819 47.6010629875 56.9150038945
1587 1 56.3063105142 36.9937116329 14.2090284604
1588 1 14.0222130044 13.5632365286 55.7873716937
1589 1 32.0166480753 60.078836385 17.7852280412
1590 1 31.9966186366 29.2908178371 41.5495901084
1591 1 58.3175684841 41.8751629647 34.6834607536
1592 1 40.0783081681 60.7445947698 5.0619113621
1593 1 39.0493115047 24.4242941059 21.6257784206
1594 1 1.46960194 25.8013495047 44.0304061444
1595 1 53.2385941349 33.5484592311 9.7170804258
1596 1 29.5172512707 37.0102768605 57.7950394813
1597 1 56.1366901424 38.3521862633 5.2412315249
1598 1 29.6169575643 11.5679139297 7.5527673116
1599 1 54.756800389 23.6752686838 51.4696419839
1600 1 1.5105703301 35.2963111873 55.4790569072
1601 1 42.8900508411 56.0838451769 58.1538057783
1602 1 31.1345339619 3.9081590097 58.1783071985
1603 1 26.8251813443 50.9878647005 19.922331352
1604 1 57.0315273583 62.4600091131 37.23343504
1605 1 56.0351572648 26.2688290441 22.4619130051
1606 1 9.9753846014 62.7753153074 18.1681178445
1607 1 3.1511281107 28.5957081366 49.711838294
1608 1 11.795670062 49.3875251509 8.5035987758
1609 1 14.7270854816 4.126215351 24.1722884959
1610 1 57.7377855199 35.02440211 54.8852911274
1611 1 32.1845678344 50.8545240666 60.5223813751
1612 1 29.4925608935 3.4859976498 62.5983256138
1613 1 56.4285656726 51.9480810275 9.3282699708
1614 1 57.8019049178 44.6653015577 10.5893057912
1615 1 56.6691078932 42.8057130476 8.934483649
1616 1 22.1496301222 60.9840662342 4.3060960862
1617 1 29.8405566434 36.3783417731 33.1211015546
1618 1 48.5113946748 27.8885681758 49.5568935801
1619 1 6.299100813 16.2284745656 1.2262946491
1620 1 25.7539842913 2.8266008163 1.9766534775
1621 1 1.1773107044 44.0419955051 60.8281767354
1622 1 2.5012862013 14.0687594043 38.0260465361
1623 1 47.0442068021 52.9823684859 29.309146663
1624 1 51.2554907532 12.8064008851 27.1668785285
1625 1 5.8167881516 62.9123091094 25.369078947
1626 1 41.9583040307 24.0609298559 24.5083799567
1627 1 40.3504062024 41.5920424406 51.8215428444
1628 1 2.7331867898 57.2723215215 32.6098469842
1629 1 54.3790754095 6.6332082257 29.3058084233
1630 1 39.7945577875 8.7028853916 50.2875901763
1631 1 5.9102714623 55.2177924058 24.6298792873
1632 1 36.6264422723 48.3378691923 19.1580004154
1633 1 30.1280861634 2.7199975934 3.8760804151
1634 1 1.0890615016 43.7077306283 51.4530137707
1635 1 5.0116236142 44.5969621208 49.8037343663
1636 1 7.9725037237 47.7282310271 60.5614324819
1637 1 33.9407338971 43.1262470514 46.0907299404
1638 1 60.9935770683 25.5525561632 26.0522213729
1639 1 29.2332489475 45.2649250036 15.5722270149
1640 1 18.0997784077 36.2999246312 52.7371653268
1641 1 3.7361451829 36.9813034587 55.6320490659
1642 1 11.086199632 45.9090793083 23.4155788238
1643 1 17.7205417724 6.7999123616 44.7554340315
1644 1 20.0273284406 17.4252020311 17.8334750538
1645 1 3.0834122319 25.841030468 39.4614896381
1646 1 44.2531234243 20.5778230748 60.9712171603
1647 1 29.3510321243 43.8479996844 3.4171228349
1648 1 45.9749623045 40.1870214105 12.77182176
1649 1 2.3771036817 39.8484735091 17.4446016131
1650 1 43.7797232332 38.4576242515 41.6525716561
1651 1 48.1019879103 30.7639893472 25.6876603955
1652 1 19.5994668789 30.983242416 63.253376437
1653 1 6.899404504 44.3853933021 32.3196720666
1654 1 14.7966216459 21.0493336962 62.4402946027
1655 1 35.7128983166 27.6104235186 39.6717987438
1656 1 30.0965933353 50.9696618459 38.9149001147
1657 1 31.3836422317 18.548047322 18.9902696133
1658 1 46.0450653398 23.0158088646 1.3146188048
1659 1 46.4834455061 20.8078466908 62.4542774184
1660 1 6.1525268928 52.4338893928 37.3893875244
1661 1 54.1785290805 39.8305855827 39.0096305414
1662 1 48.7130117599 58.9281514341 59.8981935234
1663 1 16.6883958263 4.1375905605 1.3957833809
1664 1 62.9628865912 43.1923819903 12.1081419019
1665 1 61.1525528642 62.6158986119 10.7337948862
1666 1 34.7426672703 35.1828740207 36.3840104821
1667 1 30.7226077711 41.2600450474 29.5745052321
1668 1 4.4917526061 48.0056828422 43.1077292685
1669 1 40.164220603 55.8938174525 16.5347738111
1670 1 8.8266522058 49.3399709805 23.2800336919
1671 1 39.6270159423 1.1727291277 23.481650777
1672 1 39.9491245875 45.9965033989 4.6402349917
1673 1 29.4684373873 32.5339492686 56.9830284031
1674 1 33.2909108834 39.8603148124 25.660828506
1675 1 49.5526735411 41.1631101227 8.9245319154
1676 1 9.1735142138 59.3822780144 34.7497846495
1677 1 16.0462570625 6.5947995726 17.6679487496
1678 1 9.1640663654 26.3209811674 49.8645155244
1679 1 14.3216468134 4.3905787467 62.9866951692
1680 1 58.7809539559 52.7048536852 33.5756060489
1681 1 17.1324447016 18.1506078321 26.8989375475
1682 1 52.6550320313 51.4752477073 22.3676864636
1683 1 24.7846350443 25.8511711587 19.1522057351
1684 1 43.2974420646 23.652341905 1.1966057302
1685 1 46.5284802502 31.3448430675 3.5528758195
1686 1 10.4570988991 20.7403260675 24.2338254819
1687 1 11.8915972163 60.9225292482 17.1136749761
1688 1 34.6529756961 53.0296707136 32.2412549248
1689 1 48.1632729537 13.7634679293 50.5176137923
1690 1 22.8914121939 39.9682722269 15.3942925365
1691 1 52.674305642 37.8952253284 40.1824234576
1692 1 55.7708694519 45.9214874825 20.0174396926
1693 1 13.7227162098 46.4607076842 23.8318510248
1694 1 24.8335119134 29.8671995759 40.1133281929
1695 1 55.6334977359 56.3255211393 51.6916664216
1696 1 18.3440997676 57.6232775971 48.2900000937
1697 1 15.6344568431 38.1686460614 37.7801505347
1698 1 37.3437859094 30.0801540791 63.4798728563
1699 1 17.3477296741 36.0707828144 15.3211661897
1700 1 1.1564114338 44.9209603357 37.2517638659
1701 1 63.6768290029 54.3466377966 53.8398552078
1702 1 43.5323785618 5.6300293828 62.4705277176
1703 1 10.0762876224 43.7760070795 57.1184475637
1704 1 31.1771122654 26.6355315338 55.04634545
1705 1 10.7921196037 24.6620019719 51.4272526373
1706 1 46.225960144 24.2798050108 59.0606732545
1707 1 11.768019359 40.8066113093 17.4424601008
1708 1 2.5400979625 52.7808773721 21.9197954632
1709 1 10.9372385554 31.7638236518 54.7423136881
1710 1 52.674683556 27.9489084344 34.9099571729
1711 1 32.0522349709 29.384603479 1.7716162713
1712 1 58.0554851691 55.1319429566 55.3427559475
1713 1 39.017944648 43.1839419124 61.4181633759
1714 1 55.1461147292 62.4610798692 19.8165784354
1715 1 51.8113391681 44.3374612178 42.1228225644
1716 1 11.5793143334 39.7328318445 63.249912226
1717 1 26.4639586067 18.8502524998 55.9118943358
1718 1 43.2085063182 9.0157351454 44.75096205
1719 1 59.8862262487 53.6759665307 63.58871207
1720 1 20.6175040381 18.7630803518 52.8701910325
1721 1 2.2894213499 2.7628152424 20.7383105265
1722 1 17.8205000086 8.2391220059 61.4863138558
1723 1 19.1173116816 39.9941593316 36.4438468554
1724 1 35.7494929828 33.6994988344 60.2955070419
1725 1 6.4605897366 15.6922776754 10.9828401704
1726 1 6.0975152207 19.7023224553 5.8572564356
1727 1 17.023038617 43.6924880996 57.2803206998
1728 1 28.3624722522 50.7823425048 59.2158699111
1729 1 55.9495597581 18.0614201431 9.335009436
1730 1 25.2430446492 6.8263411429 3.6941211532
1731 1 30.2735200433 52.5391384241 5.2386680087
1732 1 14.2172795813 55.6600776828 34.603720913
1733 1 15.9316231685 9.6984366716 4.4840746546
1734 1 10.5526481393 39.9293470915 41.6004825186
1735 1 54.0727131783 6.2884814314 18.01071669
1736 1 21.2789793982 26.5209606254 11.1467918331
1737 1 8.2867391619 45.3008898132 37.7261088418
1738 1 59.1235329393 54.9669205377 22.8320797058
1739 1 6.5173964999 3.3269840625 6.4507261829
1740 1 21.7723460423 6.2234676372 16.2957432463
1741 1 15.8579929365 1.6452859409 43.6302582713
1742 1 48.8913241523 62.432925281 32.7086714786
1743 1 48.230793577 13.9126179629 42.2993713584
1744 1 22.1605896264 34.7840488464 18.7979114196
1745 1 32.6642036054 30.8931099421 50.1049317736
1746 1 15.9354023078 49.3051399127 36.0895525399
1747 1 58.2841231007 12.1679152895 49.6115021439
1748 1 20.2868923293 41.6679401562 44.6028827725
1749 1 10.6394423734 5.4242489458 10.9048639281
1750 1 45.7556462501 20.4454272257 20.7765428197
1751 1 57.2228777814 58.304404482 37.6750904604
1752 1 22.7855962917 31.669093225 48.1885931874
1753 1 53.0461729555 15.6072470397 14.5000851771
1754 1 21.3888893681 14.5238937551 28.5725294152
1755 1 5.7622425734 32.0946243175 13.6618090804
1756 1 44.8227027122 59.8473011133 11.6317813849
1757 1 57.9040676519 20.5941993454 56.7062694303
1758 1 3.0663494176 33.6015561392 26.1617534288
1759 1 38.0579172781 17.673176559 2.8303295672
1760 1 50.777177681 34.2086118925 2.0773927359
1761 1 47.5419194565 31.9702276467 20.3693405532
1762 1 29.6704323863 48.5261333184 7.9194068156
1763 1 54.0698788238 25.8404006115 63.2465110005
1764 1 14.5691174562 34.9163817098 24.0960128664
1765 1 51.9696221218 10.2289648527 30.2151323401
1766 1 60.6964737285 5.604085591 61.0719942101
1767 1 21.0876919607 57.0674291822 44.9220310919
1768 1 54.728771772 15.3108995278 12.446374875
1769 1 1.0962689503 50.4093414495 4.3397304266
1770 1 25.6048342577 19.3160314265 17.344076506
1771 1 63.6828756259 2.3914392171 61.0964956303
1772 1 35.7457768291 51.0810204859 15.5860838592
1773 1 19.2015864895 57.1452794531 42.856920386
1774 1 4.0845692352 23.9602787775 30.8611762145
1775 1 16.2546136128 2.7874867239 14.792023693
1776 1 27.7005559925 26.9283518489 51.5519012507
1777 1 2.6209085593 21.0895815304 27.5480047334
1778 1 41.5892080861 44.4968149277 21.6620581585
1779 1 57.4192040714 54.5027162524 52.7828929131
1780 1 48.7336710551 18.7569077575 11.4998894211
1781 1 23.4890830844 24.1732332807 20.9240552262
1782 1 18.4742911187 61.6270867971 6.6423915343
1783 1 61.4488373904 22.5828454647 40.8371593525
1784 1 53.0576363449 31.7968281355 5.2890817278
1785 1 22.1310493537 17.6617131696 56.3147505921
1786 1 11.2360425078 46.7789112187 40.4889116601
1787 1 15.6505181854 58.336086267 58.9488107293
1788 1 27.8992127517 5.1929089296 50.3748882956
1789 1 41.4147378188 31.8409810804 9.6412456959
1790 1 20.1352858552 62.8216097646 4.7707601668
1791 1 28.1488878924 58.0793567328 57.6656669437
1792 1 1.9717531935 57.7677666922 22.6873386682
1793 1 25.8123090089 50.4628162715 55.6332457933
1794 1 39.6083721881 28.3163037663 7.5951566582
1795 1 58.6285286681 27.0612515833 40.4114393031
1796 1 16.0720811815 35.1646081804 33.1079375525
1797 1 10.9583387501 18.9170802809 5.019181893
1798 1 12.2628346732 24.0428529726 8.4181272405
1799 1 39.8084776175 39.130751958 13.2859736705
1800 1 54.5496405661 59.2585112002 8.3347972175
1801 1 22.3256120453 44.7456082692 26.7273016347
1802 1 20.8989239495 57.4251877088 60.28524038
1803 1 13.8433337412 61.1294371284 25.6441373071
1804 1 39.8286330274 42.4420968551 57.0314643726
1805 1 37.495140441 55.1021507413 9.4110331229
1806 1 11.901171036 9.0044607129 9.6105716814
1807 1 18.3205431322 54.7408020323 34.116400892
1808 1 5.8477581987 25.932611612 4.3754999807
1809 1 39.9655638437 24.510710426 38.7365877223
1810 1 7.1842130436 49.1788536723 49.9472786765
1811 1 35.5398767193 54.6512364294 34.6415752923
1812 1 6.6397272411 48.557878089 7.9740783651
1813 1 33.2496552787 5.0354825808 50.4123017753
1814 1 46.4488033952 63.9727356151 45.4371907729
1815 1 9.3386626041 9.7468726411 5.8132546563
1816 1 63.8927438319 31.8091103385 15.5210826621
1817 1 31.8532632834 62.3773089466 46.1443307337
1818 1 21.3990300587 34.845837775 63.0559164052
1819 1 50.5238493722 44.062906743 49.1274573769
1820 1 7.1995878423 43.5120971805 48.524558677
1821 1 18.5968612054 61.0273373799 25.258098221
1822 1 51.026600879 20.4623703672 45.7108004629
1823 1 34.0610994859 31.8711512097 61.5630303849
1824 1 62.6890249586 29.4385821863 25.7403793896
1825 1 15.4702532377 39.8501111361 32.8109601841
1826 1 52.5273601064 24.820032983 43.2502028226
1827 1 30.6822969512 9.2532540544 18.0451068582
1828 1 29.8661288198 35.2257672525 49.6237843468
1829 1 45.5885453045 42.391204445 1.1477811392
1830 1 50.8098042508 6.9882835633 25.0519461687
1831 1 33.7637442036 19.1306646407 51.302415067
1832 1 27.3569062529 47.7694866319 45.2203311591
1833 1 32.7952767557 20.5026182014 31.1058754884
1834 1 20.0146053381 13.9126809485 15.1259736416
1835 1 26.1094123486 47.5040020915 2.8753580127
1836 1 57.4509488421 44.7563788164 2.9315223222
1837 1 58.2779505064 48.8547924718 35.0329051736
1838 1 12.8583640514 26.5700264515 42.6822611617
1839 1 47.2739154899 44.3818661053 30.9514346596
1840 1 56.9832803457 43.6376905788 16.8805650629
1841 1 20.862203312 24.2162524838 32.3651477103
1842 1 47.9976206782 31.1504693329 17.631794983
1843 1 42.987678608 52.0681946736 6.0506979826
1844 1 39.7704342812 39.9663826572 27.6735981316
1845 1 29.6812659192 26.8991894902 49.5917876336
1846 1 45.9737025914 19.6684361723 52.4241896018
1847 1 26.4896567543 15.3497616776 38.80404536
1848 1 29.2422558963 20.350507842 32.4137726368
1849 1 60.3732313415 18.5189479489 23.8351262789
1850 1 32.0901523359 29.1174813116 44.2195520696
1851 1 36.9980576432 26.2799145196 2.4008114827
1852 1 47.1410157555 12.8693235556 1.8135017326
1853 1 46.6106765313 33.9410488254 23.856352445
1854 1 35.7536500361 60.8865644386 54.604060173
1855 1 59.220467864 62.880879267 27.9909828526
1856 1 8.4212765233 63.3879137984 4.6028844977
1857 1 28.9239893761 29.2048424166 48.2875436531
1858 1 6.2830583664 22.7121550167 25.0991224251
1859 1 46.0463880385 36.3795385005 59.6242689051
1860 1 2.5550822501 2.2414955642 41.1306725099
1861 1 51.7634070838 35.5317515697 33.1049772266
1862 1 13.289374896 6.7377959076 39.8286330274
1863 1 26.6742677123 3.6688261137 58.664997363
1864 1 26.7034930567 53.1689949849 18.4038731552
1865 1 56.0238198467 29.1952685969 55.0728624112
1866 1 32.7317872144 53.2506243952 57.0014202147
1867 1 41.2362994551 21.8123419339 49.2695530171
1868 1 7.8258101307 10.0566360977 46.269735175
1869 1 1.6161538152 22.1265143864 11.7637363344
1870 1 58.9333792436 38.1673863483 42.2758777087
1871 1 58.9160581881 45.8483611358 8.3797689759
1872 1 44.6605146478 3.3790983943 41.7616628125
1873 1 19.1904380283 54.9284363018 63.5839881458
1874 1 1.2283133394 50.4684849805 38.9024289548
1875 1 6.373209736 31.1256529844 59.4117553015
1876 1 35.176953369 1.7577342327 14.7557439551
1877 1 35.6689343286 35.2570081379 44.9748760573
1878 1 28.1735152839 51.1317869247 22.3561600885
1879 1 5.2844900735 48.3265947599 26.6114710132
1880 1 24.6108576192 12.5210128775 1.1841131552
1881 1 52.4966231063 39.4538053881 34.0143011434
1882 1 60.4405000222 39.4394446585 24.4792805836
1883 1 4.1983213301 48.4585497094 21.5735633117
1884 1 17.9988753866 49.1951039716 10.4258580136
1885 1 6.3723783253 33.661833412 23.9589560787
1886 1 36.3855851235 1.574465499 12.3765237824
1887 1 5.6230505721 60.5790684656 2.0443756549
1888 1 20.0952269779 44.5117425282 21.3320133207
1889 1 29.7576045343 35.4018121612 8.9131315116
1890 1 46.9719622546 9.5785119824 52.7568798372
1891 1 46.9969045744 59.563676704 22.1173814663
1892 1 5.451578422 49.2349738919 34.1507910602
1893 1 44.5257253438 30.0269311997 58.11173136
1894 1 38.7783472123 38.5350966085 48.1010431255
1895 1 8.4641067694 24.7862096857 63.8264829217
1896 1 45.208804784 12.9497562384 8.4529583083
1897 1 56.0312521541 33.804873837 36.7226213692
1898 1 51.7177424832 45.7471431865 55.1253294627
1899 1 8.4576192468 54.4926385474 34.2679443805
1900 1 46.8969463382 13.9856183383 46.0123127986
1901 1 21.4380811655 61.3497609534 18.1162806496
1902 1 25.2961415573 12.4773008321 14.5769276775
1903 1 5.7707204427 63.7140535256 7.2463546919
1904 1 33.6984280782 20.3291557046 53.8649864846
1905 1 62.7342486596 31.6362776982 53.2348779812
1906 1 23.329099518 34.1093464985 30.0226481751
1907 1 26.5108199348 30.0662342491 49.3628977594
1908 1 1.8061827993 39.1552533783 43.7685747721
1909 1 30.2975805639 58.7915355461 13.6150737235
1910 1 24.6520502382 18.202633984 2.4773453534
1911 1 47.6125893626 35.0803963582 61.4106050972
1912 1 25.2815918707 54.7322989688 14.639472434
1913 1 4.7868026134 50.6598354037 60.2784379291
1914 1 31.3491890778 13.1593725018 38.2089568813
1915 1 43.3230772267 25.1753350689 14.262566268
1916 1 32.3398274766 46.6317137405 63.5324028935
1917 1 39.0636722343 48.1269932158 25.7426468732
1918 1 26.2978654316 54.2922811754 47.8074039968
1919 1 57.4778437172 19.8310021506 43.6241486627
1920 1 47.5120012698 52.089357854 55.9385372683
1921 1 53.8736785051 49.2841656893 37.0624919694
1922 1 10.9045489998 24.3216904721 55.8759295262
1923 1 25.5951344667 56.2726131882 9.5962739374
1924 1 48.500372185 27.2990854206 38.3666729642
1925 1 30.0407250584 13.9568338934 51.344174557
1926 1 34.5865888146 12.3307332104 53.7469513651
1927 1 24.6247144635 61.6459195083 40.1028095883
1928 1 59.9675407307 17.3666253709 16.7227859945
1929 1 20.3253765652 21.4862651924 12.3118375136
1930 1 45.2265037534 26.1463849287 34.8700872526
1931 1 16.5833987376 21.6540589802 9.013593633
1932 1 36.1022126568 5.5854355383 50.6467343872
1933 1 40.3929215202 59.527963837 11.3103025963
1934 1 4.565861529 39.0767732508 18.7615686961
1935 1 56.7703258425 62.527781679 26.565176556
1936 1 41.1024549359 17.0300300248 48.6240130279
1937 1 61.3291646438 53.8533341382 33.3854523532
1938 1 14.5354201302 35.908972664 58.0016324332
1939 1 51.4261818812 47.7343406358 59.220467864
1940 1 18.7540104174 45.0682837853 31.3632978647
1941 1 38.8894539096 27.3113046379 55.335701554
1942 1 4.3662662835 56.9786823928 28.0229165803
1943 1 33.8720165464 56.7199373176 41.9749952296
1944 1 12.9547950909 15.2232234945 17.6688935344
1945 1 53.5616475649 38.0161577881 44.1537950447
1946 1 14.9053348883 61.2287025224 31.895085759
1947 1 38.8966342744 16.7899287039 19.7967379537
1948 1 16.2546136128 53.0068069205 16.2148066782
1949 1 40.9089630005 44.1107128559 14.574093323
1950 1 47.2671760247 55.1185270118 14.7357775022
1951 1 57.9168537401 39.4220606174 14.0694522465
1952 1 51.1248585025 61.3302983857 57.4420048789
1953 1 61.621796002 31.1882607265 17.041178486
1954 1 61.058263337 10.550506627 46.4467248686
1955 1 7.996816187 1.8108059465 11.4755139722
1956 1 48.5187010109 55.3230414371 37.6919706162
1957 1 4.8809031836 37.1245958263 9.6585037656
1958 1 2.8313436362 3.6910474532 2.0585474276
1959 1 29.3314435853 6.6158556774 15.0187090693
1960 1 51.7296467722 15.2972946261 38.2049257993
1961 1 49.8037343663 14.3572966948 25.6560415961
1962 1 8.6594882746 32.010097567 44.7268385437
1963 1 61.8323570503 31.8293917197 11.9118785975
1964 1 63.860306219 21.2988198799 59.0355419777
1965 1 29.394681184 14.7964956746 41.3332973655
1966 1 4.0475714609 61.6385501865 20.3584440347
1967 1 50.0061702649 51.4399127542 8.1106312675
1968 1 49.9788344902 15.5425607709 51.6885171388
1969 1 28.8572875663 49.7566840812 63.2412831911
1970 1 37.2673843086 21.0258400465 19.1086196611
1971 1 47.6572461927 13.7251726504 24.2365338651
1972 1 44.5006570527 57.6822951569 39.1270358043
1973 1 30.9306493931 17.9311658063 47.5594924545
1974 1 41.5075786758 49.4698474034 34.7599253401
1975 1 32.8774730369 23.0132264527 59.851017267
1976 1 60.1944150639 58.5012346572 44.5986627336
1977 1 41.7360276504 18.347500993 33.8972108088
1978 1 45.125474761 26.7082799666 21.695125628
1979 1 59.0084581456 53.3835871152 36.2728407991
1980 1 8.7712248285 24.2284717011 43.1812965148
1981 1 1.4034128334 60.4609703605 44.1949876637
1982 1 25.8505413021 52.6039506642 42.773590363
1983 1 61.2775793915 33.7428329657 62.4779600251
1984 1 61.9507700837 23.9205348285 49.4564314586
1985 1 48.5973700954 16.0223854989 8.3028634899
1986 1 24.0053135216 22.1724939154 40.8815012544
1987 1 16.7875352489 59.0727665005 54.530429941
1988 1 17.3471628032 57.8863056969 56.8703470644
1989 1 38.4998876268 38.9099872335 21.4698259362
1990 1 3.8491351514 1.6256860644 17.0370844183
1991 1 50.9379170753 23.5107501501 58.2581730104
1992 1 47.7835954188 37.1595528654 57.4905668198
1993 1 9.4906469922 19.9392744934 8.3431743097
1994 1 19.7506954391 43.5423932811 18.7526247329
1995 1 19.3814735232 14.5072025562 48.9367368103
1996 1 44.0203914251 34.5220285171 62.0671675761
1997 1 11.6821699098 46.9142673936 63.8473941595
1998 1 44.3222816747 59.5562443965 48.6231942144
1999 1 13.622506031 39.1498995975 45.1206878511
2000 1 51.004996799 29.0865553545 15.9999626053
2001 1 35.6063895722 27.5318804055 4.5636444339
2002 1 11.5519785587 4.3001628374 36.6801060513
2003 1 39.8244759741 56.1645298023 52.7047277139
2004 1 51.5340133244 34.116400892 62.476133441
2005 1 47.9656869506 51.74287376 42.7956353426
2006 1 11.8195416257 37.6206078679 14.4581367302
2007 1 49.3846278107 30.0634628802 11.6252938624
2008 1 15.924757732 21.6102209636 34.3533529301
2009 1 16.6291263239 50.8826786549 31.9765262123
2010 1 56.4600585007 15.2806664129 31.9613466692
2011 1 41.4743222494 4.0929526261 63.3103784558
2012 1 26.8901825413 17.8769351565 47.4952470853
2013 1 30.1942211023 46.8614854138 59.028172656
2014 1 24.1725404385 4.2535597505 3.7402266535
2015 1 61.1889585734 20.923740298 24.4722891758
2016 1 40.4772593137 31.3035874628 37.3568869259
2017 1 60.9691386337 58.5026203416 20.0039607622
2018 1 22.2077028971 12.7025375383 23.1088386786
2019 1 30.7537856709 48.2205269151 3.9705085107
2020 1 22.0522542979 23.3043461551 53.1293140216
2021 1 38.6834278286 59.3438567642 28.2467046163
2022 1 13.2178231907 55.3094365354 51.2462948474
2023 1 1.9435608138 9.9030140825 3.7701448401
2024 1 27.2307459838 53.4075216645 2.0702879538
2025 1 28.7182782234 31.0015712419 26.7861302375
2026 1 52.2821569473 4.3646601493 48.0859895537
2027 1 58.32821306 21.175179037 8.1386598845
2028 1 55.5608752745 52.2397676008 39.4960687633
2029 1 38.7125901873 60.5958856358 57.8493331168
2030 1 37.3502104464 22.9542718786 42.2587456102
2031 1 22.0109986932 50.126472868 42.1433558883
2032 1 35.4549090693 26.0537960143 22.797626552
2033 1 53.5600099378 26.5285189041 2.84432498
2034 1 11.9765018807 53.7654061623 15.5431276418
2035 1 18.9430933569 48.6017790913 18.3616727656
2036 1 37.9005791092 14.5426634806 49.0943269218
2037 1 38.7273918165 36.7104651376 10.2670711747
2038 1 19.9761211023 47.8152772038 11.6171687127
2039 1 56.835075097 62.9831679725 23.7537488112
2040 1 13.8905729832 35.6861923984 43.3912906922
2041 1 9.8834885292 5.0493079323 63.3186925624
2042 1 48.3515370797 22.6612626066 58.6545417441
2043 1 55.9004939321 61.5638491984 58.153301893
2044 1 13.5780381578 43.5916480642 20.4330820371
2045 1 22.968128723 47.7703684311 45.3430902028
2046 1 19.0030557015 52.7289142059 43.3571524666
2047 1 22.4920831343 33.0578639559 45.9430285769
2048 1 18.5127753546 30.7544785131 45.0427116089
2049 1 20.7934859612 59.4579867731 28.3641728649
2050 1 19.3380764062 5.4423069334 48.9952504848
2051 1 27.1980564283 38.3105527446 28.2414138212
2052 1 24.6972109536 12.8278789939 31.2567891203
2053 1 35.1954081662 10.8364615056 19.1061632205
2054 1 6.8367526719 8.7499986624 19.7575608757
2055 1 62.9309528636 31.461051603 9.4001366044
2056 1 25.7626763119 40.9924189948 9.9585044455
2057 1 49.4554236881 1.5591007781 31.1593503104
2058 1 36.130556202 9.5325954391 15.4548847376
2059 1 59.7668054448 50.9763383255 44.8948212884
2060 1 4.7241444828 49.9687567852 55.9353879855
2061 1 51.3575275161 30.1614685611 57.2517252119
2062 1 10.6760370396 2.0741111832 40.2697845626
2063 1 18.0458626861 36.1384923947 20.1611729598
2064 1 55.6663762484 60.4488141288 38.3500447509
2065 1 28.4716893798 59.676484014 5.7497714135
2066 1 31.9086276751 58.1555693767 27.0005963964
2067 1 50.8684438966 50.8678770257 28.3858399306
2068 1 2.967354862 15.0820726393 40.5319938488
2069 1 54.6017926894 31.0637380844 46.0606857825
2070 1 24.7976100894 24.2475563549 6.0702739245
2071 1 49.5408322378 56.4612552281 30.1762701903
2072 1 52.1846551517 31.228823489 31.9444035277
2073 1 39.6154895672 58.349628183 45.2341250177
2074 1 32.3270413884 37.253401493 53.2392239914
2075 1 51.9934306998 56.5476085626 26.5701524228
2076 1 32.9417813917 48.1874594456 10.8893694567
2077 1 37.5447101523 17.6460927269 45.744119875
2078 1 39.8424898717 18.1510487317 62.2451650402
2079 1 42.4837303737 59.9159554784 4.1804648966
2080 1 15.0682787806 14.5133121649 9.4678461847
2081 1 46.6582307017 17.046658238 27.3490960315
2082 1 15.490156705 16.5129807741 42.4737156544
2083 1 5.8714659996 17.9160492489 33.3371423549
2084 1 51.5457286564 48.5615942427 12.9927754415
2085 1 24.2799309821 24.9625695227 59.2625422822
2086 1 34.3317488501 54.4393526823 46.3390823823
2087 1 37.2089336198 50.4173406278 33.2789436087
2088 1 6.3392289745 4.9280857386 20.8594949288
2089 1 57.4130314771 25.462675632 8.4273231463
2090 1 55.2855019861 42.9616655321 36.9632265754
2091 1 50.9052905054 60.0966613257 5.6953203138
2092 1 31.3935939653 40.7065271018 20.4441045269
2093 1 26.4413467561 62.2192149499 36.073050298
2094 1 16.5361594955 63.1428366106 41.4216662409
2095 1 63.7823299768 36.9285214789 35.3715160606
2096 1 2.4361527343 28.595456194 17.4544273755
2097 1 41.9957804961 41.865589145 4.0035570844
2098 1 21.5809956191 15.422573096 16.8409470853
2099 1 17.9506913597 52.6811080929 38.0990469115
2100 1 16.5062413089 9.1286684267 9.2256663371
2101 1 52.3882247921 28.2099839788 52.3961609848
2102 1 5.9792155615 35.654951513 54.9416003039
2103 1 32.9348529696 52.3802256138 5.5207744637
2104 1 24.5972527174 9.668140571 56.0044832502
2105 1 28.9933995691 21.1062727293 24.2167563691
2106 1 44.9930789119 4.5565585476 50.1948123049
2107 1 58.6217892029 40.9719486565 38.444901149
2108 1 46.2275977711 26.1090974203 56.8542227364
2109 1 9.1115363283 28.0307897873 54.1398558877
2110 1 8.6858792645 43.3224473701 30.6525677216
2111 1 7.8570510161 59.7641600473 54.7287087864
2112 1 31.294580514 37.8570560208 38.7418785174
2113 1 35.2831471852 24.508694885 50.489270247
2114 1 59.2609676408 6.6721774511 33.1576962208
2115 1 40.9861204292 7.7660997288 45.9701753947
2116 1 15.4371227826 58.1007088702 42.7792590721
2117 1 5.9656610483 16.2679665719 17.1988315831
2118 1 44.0321067571 3.9298575682 15.3456046243
2119 1 29.9496477997 4.2901166253 7.6362233059
2120 1 57.0873326496 53.9143042533 4.1888167946
2121 1 62.7605136782 60.4770946884 34.1509170315
2122 1 28.8470838901 2.5660795457 57.3289456263
2123 1 24.2160635269 28.946538241 35.6455036646
2124 1 61.4742206098 50.1977726307 42.7922341172
2125 1 21.3976443743 47.2042533542 38.9125696454
2126 1 55.8152743394 20.3442092764 17.5701950114
2127 1 1.7126742943 53.2086759482 57.4625382028
2128 1 21.8845864814 60.0860797355 9.2905415628
2129 1 43.6607433289 51.4462743055 14.4722455171
2130 1 20.9434548083 48.058275865 54.495094988
2131 1 9.1165751807 37.5939649354 3.5197453644
2132 1 47.0920759008 36.1331386139 10.3614236875
2133 1 16.5226805651 21.0941164977 17.9545334847
2134 1 25.3700237319 8.7685164452 39.6362118481
2135 1 39.5184286712 47.8031839579 39.027644439
2136 1 5.407513657 61.9033418847 41.2116720636
2137 1 44.1012020218 24.171721625 21.0960060673
2138 1 3.1730534176 39.6286535693 54.7208355794
2139 1 6.2078220002 44.4970668703 62.9820972163
2140 1 46.7560474256 18.2813030685 63.9206464775
2141 1 36.4634353944 24.2214173076 61.5393477782
2142 1 10.3631243002 15.1357994039 30.2916599122
2143 1 54.4859620678 59.6467547843 62.9646501896
2144 1 27.2003239119 12.9639909967 63.0547196778
2145 1 56.9087683146 34.130131765 43.1413006232
2146 1 21.0410825752 3.8256478002 37.7677423605
2147 1 33.917681147 26.8358259201 58.7216214678
2148 1 59.9466294929 31.9337589519 36.170300151
2149 1 45.8317959083 39.5188695708 43.1943975313
2150 1 22.0705831238 60.8722666946 59.4170460966
2151 1 9.9930835707 37.0016478256 35.085561182
2152 1 23.3391142373 11.0797750951 47.6958563999
2153 1 50.329034738 1.0693257021 16.0192362161
2154 1 23.7511663993 52.2472628938 55.3425040049
2155 1 1.2460853721 58.3045934389 8.0545740336
2156 1 26.7014145301 41.1906978401 28.3976182483
2157 1 39.4605448533 6.090435633 63.2601788879
2158 1 19.0550818534 15.8130211781 45.0355312441
2159 1 13.9228846248 26.1143882154 8.7933327937
2160 1 31.9270194867 50.6256971781 56.5438924089
2161 1 34.7143237251 25.7986411215 6.4592607393
2162 1 56.8609622016 18.1193039611 62.8883115744
2163 1 22.234471801 51.2855349112 29.9091480229
2164 1 11.3743590085 56.7525009018 60.15996191
2165 1 12.7652082661 24.125931053 23.1300018591
2166 1 17.8017302831 9.4036008155 6.6155470477
2167 1 15.6047905991 51.9107305334 59.5508276301
2168 1 54.7665631657 31.6296012186 54.6942556325
2169 1 14.1585769498 61.6600912809 10.2825026604
2170 1 30.7377873142 59.7705215985 28.8162839042
2171 1 54.469459826 27.2133619427 48.7786428136
2172 1 26.1885853183 32.8604039241 49.6059594062
2173 1 20.8518736644 3.5013283585 27.1589423358
2174 1 58.208792256 21.3355405174 35.4668133583
2175 1 35.3470146404 6.5930863628 53.3150587213
2176 1 45.5839473516 15.6434008062 39.5126339908
2177 1 36.0600122672 24.341845882 16.3374397506
2178 1 54.0297569609 6.200792801 44.215080088
2179 1 40.1152177626 63.6624682733 8.2836528648
2180 1 5.0939206725 1.5295592457 37.2509450524
2181 1 58.9532197252 32.8850313156 26.8421874714
2182 1 19.9171035425 10.4705778295 2.0274577077
2183 1 2.5773287838 50.8908038045 13.0544383988
2184 1 23.5021841009 53.3553695412 44.1493860487
2185 1 11.2631893256 32.4754985798 52.0047051323
2186 1 56.9839102023 40.4669926518 19.5298677289
2187 1 60.8009039463 31.3791072644 57.2934847019
2188 1 33.7250710107 48.2197081015 41.7466092407
2189 1 58.0088757836 11.377571277 11.698609166
2190 1 4.4010658585 12.8358781722 62.8529136357
2191 1 26.2858981569 45.2379041571 21.1754309797
2192 1 14.6736106596 30.4085612899 15.4155187026
2193 1 20.1498985274 53.0183962812 30.2025981945
2194 1 35.3359921506 39.3359592255 40.7494203336
2195 1 53.6373563235 58.3668232671 30.5930462766
2196 1 50.2527591084 16.5980743954 34.1488385048
2197 1 20.4689838611 1.1984971895 28.5531298331
2198 1 21.803712899 32.2247526829 62.1269409637
2199 1 30.60633625 8.3638965906 25.7284751006
2200 1 22.6775758915 22.5720119319 12.9450952998
2201 1 54.4427539078 27.2537987339 54.0204350838
2202 1 25.2384466963 59.3319524752 11.8539317939
2203 1 9.5330993244 18.3313136794 14.7532875145
2204 1 30.1612796041 47.4277894477 45.0468686622
2205 1 31.4555088652 49.9437514797 9.4348417009
2206 1 48.0274128935 41.0584279623 63.7627414378
2207 1 3.0138445747 41.7148014843 51.4914980065
2208 1 33.1450990896 62.7692056988 48.7445675736
2209 1 38.643431937 35.8412630837 41.4134781057
2210 1 63.717643708 26.1732168182 13.7342425848
2211 1 13.7110638634 13.49521202 27.6768733858
2212 1 59.4815434084 21.6766078451 15.4849288956
2213 1 54.9303888571 60.1733778548 55.9036432149
2214 1 10.178009457 17.4463652115 20.7225641124
2215 1 34.0565645187 47.1956243193 49.7056027141
2216 1 54.0056334546 16.0880165525 31.8629630744
2217 1 41.4124073495 49.6637172528 39.1044239538
2218 1 16.8774157801 13.9332772581 3.484530084
2219 1 62.543906007 47.877884946 47.1877511123
2220 1 48.4021145615 5.9129546513 46.4539052334
2221 1 40.8182636557 31.9046595787 1.6605284697
2222 1 43.7632209913 42.1804544397 28.3123986556
2223 1 24.220976408 54.2018337733 18.496210127
2224 1 18.3781120219 53.4535641791 10.9903354634
2225 1 44.2005304015 4.7972267395 59.8944773697
2226 1 31.7233868605 40.5386703284 55.5503566699
2227 1 39.2365678603 31.9041556935 45.3207302948
2228 1 9.0402995512 20.6970549217 31.8055201561
2229 1 5.854988952 59.7259907397 8.1147253351
2230 1 6.4384061886 40.7523176738 26.6973204624
2231 1 63.3704667717 22.6248568973 27.8194729111
2232 1 62.3650897294 45.9359111978 35.2873042385
2233 1 16.0494063453 23.562776302 2.7428172966
2234 1 41.461032276 62.6773726122 63.7340199786
2235 1 29.9181549717 24.9136296679 2.473711081
2236 1 42.8538340889 2.8598950341 50.080682296
2237 1 16.43387079 25.3398536026 21.6464377158
2238 1 37.3495176041 5.0246238537 1.5798331367
2239 1 1.8909740896 34.8792201727 42.3561844202
2240 1 55.0430701959 45.3638754693 13.0141275789
2241 1 8.1265036528 14.0671217772 34.9018950089
2242 1 62.4531436766 42.9039706711 23.5690748676
2243 1 20.919709216 47.8174187162 23.2189376055
2244 1 12.6528418556 49.7173810318 32.9651490701
2245 1 3.7178730441 5.0700365117 20.3439573338
2246 1 17.1408847795 33.5621901041 30.968944672
2247 1 57.9860119905 18.7988562045 25.0460885027
2248 1 1.0415418474 34.4323999285 63.1592758669
2249 1 20.917693675 63.3525788454 63.8201213704
2250 1 11.1213456281 8.4702163781 14.288390387
2251 1 12.1653958632 23.2097416997 13.2639286909
2252 1 55.3211518674 49.3487889724 15.2443236893
2253 1 44.3538374884 27.9918646518 1.6255279704
2254 1 58.6648713917 54.8603488076 25.5321488106
2255 1 23.9771589334 54.060493961 53.2937065839
2256 1 5.0265008262 7.1104946318 4.121315067
2257 1 3.6454458382 57.0499821555 55.6620932238
2258 1 20.6290933988 24.0180366241 16.5390568357
2259 1 46.3031175727 27.8558156347 51.1420535866
2260 1 10.6243888016 2.5776185179 7.9514665146
2261 1 11.6582983461 20.7427195224 32.0539985693
2262 1 29.4702009856 61.7142589451 60.1318073218
2263 1 36.9353869154 57.9808471667 44.6398553526
2264 1 54.4707825247 16.7109446911 50.2332335551
2265 1 39.2050120466 33.0756888966 33.7088207115
2266 1 10.2299726232 53.9481905362 29.5706001214
2267 1 18.4026764278 15.6673353556 25.9592545445
2268 1 17.9840737575 12.1237623446 12.4262194651
2269 1 5.0676304596 19.7188246972 61.9176396286
2270 1 5.222134274 10.6308133385 23.102540113
2271 1 9.932239427 2.8530925833 2.1521189182
2272 1 50.4471958288 47.7719430725 39.7242657953
2273 1 34.8736144493 36.8133207139 29.3421511468
2274 1 42.698133547 36.2293177108 10.0554393702
2275 1 3.6614945834 4.903647304 61.2438190799
2276 1 28.0409304779 18.9209853916 14.0548395743
2277 1 46.3028656301 3.6208184467 32.4382110714
2278 1 13.5286574034 29.0425283809 19.2772952481
2279 1 40.0519801639 44.0369566526 63.7413263147
2280 1 58.0815612308 14.6942069691 56.8976198534
2281 1 58.7533032528 24.1828071004 25.3446405125
2282 1 28.9775271838 30.9227761861 21.7642208927
2283 1 25.8991032429 7.0908116142 18.6939221015
2284 1 41.0300844171 1.6348750418 17.6959773665
2285 1 59.6687997639 41.7402476894 29.0384343132
2286 1 34.1923615932 46.6807795666 30.7095067546
2287 1 59.1380196402 35.7861506346 21.9568940146
2288 1 56.2366483786 62.9269847672 60.5436075412
2289 1 17.7017090612 23.2643502635 7.0151910355
2290 1 27.9341068052 14.0836870048 10.7962136714
2291 1 47.3850221872 54.4151032048 52.1262674485
2292 1 21.2805540396 37.4009138995 45.5382197653
2293 1 10.9253342664 13.4552791141 28.3441434263
2294 1 45.2770812352 25.0844467672 26.1950728409
2295 1 41.5235770325 41.0243527224 45.4484652054
2296 1 51.6882651961 10.9316958176 39.9073021118
2297 1 6.2613661065 17.0627195803 37.393859506
2298 1 43.3062600565 16.8076276732 47.130119237
2299 1 32.8100153992 11.9756830671 34.0680908937
2300 1 13.0346609028 55.2783216213 7.0726213568
2301 1 45.6808822763 16.0211257858 4.7260466496
2302 1 22.3225887338 5.098770568 45.4575351398
2303 1 11.3312138341 63.2307016009 42.2637844627
2304 1 1.4565141505 40.7839364731 63.7949900937
2305 1 21.5001850224 26.007879471 6.9853547303
2306 1 42.9173866158 52.4073094459 22.5092152328
2307 1 7.1251324982 53.6355927251 20.5363155274
2308 1 4.5562877093 31.235059069 1.6861573331
2309 1 15.8455847623 47.2353052827 34.234876911
2310 1 22.7000617707 36.9729263664 53.2604501575
2311 1 7.3287273329 11.0262372874 50.7703122444
2312 1 40.5432682813 39.4917857387 34.2355697533
2313 1 30.3048869 29.4587375962 61.1820931369
2314 1 52.2204310043 9.0485506722 41.9159146842
2315 1 19.2911520924 30.7044679022 29.0877520819
2316 1 28.8944491034 46.507820955 31.2403498641
2317 1 5.4976272351 56.910342956 36.5601183765
2318 1 19.4959184603 29.4640283913 16.4455861221
2319 1 10.1834262234 1.351946624 34.8074795104
2320 1 48.2614046059 49.5448003341 3.2620773439
2321 1 33.7856632119 60.2270416338 49.3911783189
2322 1 19.5356624093 43.7523874585 10.5017557292
2323 1 45.7273656905 22.2631302745 40.162394019
2324 1 5.6201973218 54.9256649329 38.4261314235
2325 1 17.1646303719 63.3014974783 52.7437788207
2326 1 61.9639970715 10.0550614563 19.7578758039
2327 1 55.533854428 46.7110126815 52.4890018419
2328 1 12.9091934759 19.9640908419 27.8975751247
2329 1 50.3427026253 47.8695708394 31.4931113019
2330 1 2.4798080925 42.2588715815 59.0141268547
2331 1 17.994403405 45.6679072312 62.877037142
2332 1 55.7946150442 62.4101874591 44.7207919207
2333 1 57.447295674 60.4017638437 11.2235083622
2334 1 46.8856719058 15.577328853 57.1999510026
2335 1 10.6192869635 1.4663121991 44.8038070154
2336 1 51.5757098287 24.4386548354 19.8628728926
2337 1 52.2747876255 51.5920860993 33.7634922609
2338 1 13.2081863853 19.1845173767 30.3112484513
2339 1 58.8872737433 46.9530035721 45.7546384796
2340 1 24.6897156606 16.9077118807 55.5204384833
2341 1 35.8734487539 46.6377603635 41.0841890957
2342 1 3.2164127432 52.0390953005 15.464143629
2343 1 10.4809074771 35.0902851062 51.7887903032
2344 1 16.317221355 15.3430222124 19.7917620869
2345 1 40.6853009357 28.1965680341 40.5234277996
2346 1 53.5922585937 50.7216873179 48.1924353124
2347 1 58.4247070851 10.9893906786 58.4631283353
2348 1 57.1275804838 16.6633275351 12.7052459215
2349 1 14.0150956253 7.7348588433 35.3937499972
2350 1 22.4658181157 10.362242501 35.0025460873
2351 1 4.9831666948 47.9180697946 3.4510154164
2352 1 8.3511105024 26.3777312435 13.721582468
2353 1 37.0016478256 2.9799771875 33.0636586363
2354 1 11.7640512627 13.3845462223 51.3806432518
2355 1 59.6812709239 30.1331880015 12.5118799573
2356 1 18.2151051439 3.2320583802 31.5824249622
2357 1 13.2520873876 5.1380106317 43.9349828755
2358 1 10.3738318617 5.6825090314 21.7947059502
2359 1 51.716860684 60.5985310333 52.5805200001
2360 1 7.210263911 18.9122303854 57.7930869259
2361 1 21.6172123714 30.9137062517 27.6234615494
2362 1 57.6969078291 24.6485860272 18.704440706
2363 1 10.094679434 57.166190691 24.8132935178
2364 1 1.1820780887 6.791831302 44.6072287828
2365 1 56.6415201758 52.2155181232 31.9946030956
2366 1 41.7712366322 23.4456859674 42.7951314574
2367 1 11.0058299348 31.5397836731 32.0068852986
2368 1 11.2512850366 61.2217741002 25.9457756141
2369 1 1.0324360741 63.7547422594 13.9533066967
2370 1 22.3751817566 8.2570099322 27.423734034
2371 1 28.7549988609 56.6377410365 33.6685728772
2372 1 42.8397253019 33.1142361181 30.2943053098
2373 1 22.7345779102 57.9696357199 27.5029699893
2374 1 55.90893401 35.2789901319 40.9114824267
2375 1 32.1904255004 22.7272715741 11.3191205882
2376 1 57.6424252366 63.5463227235 13.1057087228
2377 1 62.0133148402 63.1485683053 49.2339661214
2378 1 59.6245838334 33.7716174106 1.6653468723
2379 1 63.6371480395 17.9598872655 50.3178862768
2380 1 20.2950804646 41.4467345321 50.4058142527
2381 1 19.4409949682 8.7514473324 45.3180219116
2382 1 26.8531469756 4.1071621901 13.1746780162
2383 1 37.3536746574 14.0302751684 35.0214417841
2384 1 32.180599738 36.8795816241 22.2627523605
2385 1 33.2514818627 38.8401361409 33.5817156575
2386 1 30.1126546776 11.9156577369 53.1216927572
2387 1 31.2660480118 4.0798705053 21.7047624333
2388 1 28.4201041275 5.6774323875 18.8524569978
2389 1 24.0184775237 5.1526170054 19.4933990341
2390 1 33.546821604 62.6878912168 15.0987008525
2391 1 62.0987233898 44.748568595 21.6051821111
2392 1 50.9759604115 54.6148937058 31.8032526725
2393 1 12.1700568018 58.2412298689 3.754486606
2394 1 37.0539889058 50.9985722621 41.0725367493
2395 1 11.4787262407 32.0697449833 11.5059990297
2396 1 16.6916080947 29.8035210776 37.3899543953
2397 1 4.4998903529 30.334742101 21.2410620333
2398 1 13.2234918997 57.8785584612 44.4842807821
2399 1 28.2157156735 43.7538361286 19.9788294855
2400 1 54.5388070333 38.6519350005 51.9080221502
2401 1 48.0371126846 29.9680396113 1.5814909191
2402 1 48.3529227641 57.1238643301 11.5960055323
2403 1 58.4715684132 63.4684724526 30.804489124
2404 1 60.7794888232 61.0441545501 8.4828764949
2405 1 29.418489762 12.7787501821 15.6074989823
2406 1 14.6175534257 44.9971099939 45.7145796023
2407 1 46.4425678153 58.6764607524 6.2680740788
2408 1 33.388412679 58.7052451973 61.7057558815
2409 1 37.3678464301 17.6712240037 54.9953270686
2410 1 41.268548111 53.9294208107 47.421868796
2411 1 39.0915118943 1.3248061048 28.9113292593
2412 1 29.1759949861 61.8448282102 46.396462315
2413 1 2.2631122414 8.1774590486 27.0247199027
2414 1 18.6051123264 44.6122676353 35.8640009055
2415 1 4.3648176134 39.3895600189 34.4699393795
2416 1 2.2806537466 47.9330603807 4.087428784
2417 1 19.3394620906 13.8255717862 10.8947232375
2418 1 57.8444202356 36.2254126001 4.537108577
2419 1 61.4340987469 22.4474263042 32.4717194404
2420 1 15.232482386 58.7140631891 6.982110969
2421 1 45.9137402468 37.8337513281 63.3960389481
2422 1 29.9216191828 41.3045129206 47.7553778449
2423 1 50.4924195298 17.4387439471 49.5975823139
2424 1 18.8618418606 21.700794337 19.53333194
2425 1 52.5628840164 3.6129515382 34.0753972298
2426 1 19.2007046903 35.6176640046 35.9427329756
2427 1 40.7341148192 38.9515577665 43.9855603573
2428 1 53.5319183352 47.2254165347 1.3817690724
2429 1 61.9385508664 53.533429991 13.2418837113
2430 1 39.858740171 11.6573535613 8.7122702544
2431 1 16.2322537049 38.1336260367 19.6000337498
2432 1 55.654912859 17.5201214148 35.9211918812
2433 1 44.1207275752 23.2155993657 38.2790599165
2434 1 43.0150143828 33.0863964581 13.3133724309
2435 1 27.994761992 63.4995873667 26.3427742044
2436 1 32.1914962565 16.4649227185 59.7494843894
2437 1 7.7693749829 60.6863960236 61.0992669992
2438 1 62.7028188173 45.5950958127 59.1516875275
2439 1 37.0183390245 62.5645653022 17.8203740373
2440 1 18.7329732082 57.2162013019 7.6614175683
2441 1 19.210089553 40.8645581129 18.8093748091
2442 1 13.5837698525 38.2222468548 20.8511808222
2443 1 29.9821483982 17.0074181743 10.1400291064
2444 1 32.6449299946 53.3888779103 59.690403844
2445 1 1.8378204944 49.3875881365 25.1137350973
2446 1 53.295533168 51.5435871441 58.2157836639
2447 1 63.092951971 46.1603290904 7.7154592613
2448 1 59.2112719582 61.5363244667 23.29137111
2449 1 48.1015470107 22.8033582467 7.7977185281
2450 1 7.4081522453 3.0131832253 3.7530757273
2451 1 60.2262858059 62.3328410735 44.9084891758
2452 1 25.8349838451 11.7153003649 27.445527071
2453 1 45.6596561102 25.5293774418 52.9054000142
2454 1 11.0470225539 24.8651936984 1.7051034185
2455 1 30.7105145251 42.0963685889 7.1572614814
2456 1 14.9306551221 33.2482695942 2.7134092938
2457 1 16.983105711 46.910362283 6.1666797697
2458 1 41.2422201068 24.4399775342 33.1872994791
2459 1 60.4602145326 32.1689473917 45.3175180264
2460 1 53.8774576445 3.3061799003 51.4819241868
2461 1 8.9788885365 7.9385544551 54.0585414057
2462 1 59.1215803839 59.0568311295 24.3342246177
2463 1 63.3937084788 5.3582084854 57.5643860087
2464 1 29.7791456287 49.2727652855 49.3080372529
2465 1 55.8405945731 7.8024424523 42.983647526
2466 1 38.1079908746 16.430217622 13.7133943327
2467 1 36.2354273194 54.2186509434 63.7462391959
2468 1 14.7168188197 41.4161235032 4.2562618352
2469 1 10.6815797773 27.6253511191 12.8337366599
2470 1 3.511021851 31.6547324954 34.5496792201
2471 1 8.4081755068 30.9491041904 26.5921344168
2472 1 24.8031528272 60.1984461459 59.2998927763
2473 1 48.9956913844 45.8482981502 50.5244792288
2474 1 3.5744987952 11.7321805207 18.3446666385
2475 1 22.6197550592 51.1072225188 60.8975239427
2476 1 8.0274902015 26.8798528937 16.3590438306
2477 1 5.1119849586 17.6944657108 47.6583799346
2478 1 19.3915512282 48.7413553052 3.1691546055
2479 1 58.2135791659 26.1308904573 50.9898802415
2480 1 40.1602525067 60.5088394591 49.4467946533
2481 1 19.1686449913 46.9926845355 37.3549973562
2482 1 2.008095917 27.770784999 35.9467010719
2483 1 25.9774573991 27.6761175579 23.5911198472
2484 1 31.6488118438 52.1641848135 25.1208524764
2485 1 2.4215400621 48.8837028879 29.8792928219
2486 1 27.8872454771 43.9688061728 44.1066817739
2487 1 8.7709099002 23.8214583915 25.9280766447
2488 1 44.4291053474 19.8757849521 44.0954703271
2489 1 10.911666379 9.9510091525 54.1196374921
2490 1 29.424158471 4.8199771585 48.1569743881
2491 1 59.0352270495 59.5891858947 55.7378019824
2492 1 16.8217994458 16.5347738111 46.4834455061
2493 1 40.2815628803 52.335316841 38.9315283279
2494 1 54.1279515987 5.3444335224 11.1355803863
2495 1 32.8998959304 42.0949199188 5.382993341
2496 1 10.9932328036 44.5459437394 47.6669459838
2497 1 3.0337102507 25.6232260693 9.8778198201
2498 1 25.4178928305 10.9959411868 21.3773000074
2499 1 63.4695432087 47.2354942396 10.2601427525
2500 1 9.1146226254 59.4879049597 32.0034840731
2501 1 42.1970826529 7.5560425657 8.0369380499
2502 1 54.2286026771 42.0272733241 9.7289847148
2503 1 53.1883315813 54.7474155262 61.1483958109
2504 1 62.4477898958 63.8291913049 32.2234929698
2505 1 63.3640422348 33.9013678621 25.6145340488
2506 1 11.2497103952 59.3716334386 51.4442587645
2507 1 40.1686295989 63.2705085355 5.3833775536
2508 1 6.6575017932 61.4851801139 28.9809284092
2509 1 49.4752011841 9.9568038328 33.4684044622
2510 1 13.6181600207 21.2469196993 54.6849337554
2511 1 45.0993986994 33.2956977932 2.4576434402
2512 1 7.6750854557 48.8284644675 52.7056095131
2513 1 44.0355079826 49.0446312392 18.1210045738
2514 1 44.6104410512 9.3198928786 59.5115875664
2515 1 53.1768681919 48.1451330847 43.1082961394
2516 1 1.615447746 24.8056092678 61.6684683731
2517 1 50.3489382053 1.1260095173 28.6337514729
2518 1 28.1593435113 49.0271842125 18.6833405112
2519 1 60.8422855224 61.7082123221 31.2696381942
2520 1 61.0211018 9.2999264256 8.278110127
2521 1 29.3614247576 24.5725623403 47.9763945121
2522 1 25.9476651838 49.2516650907 39.9585094502
2523 1 45.6197232043 11.6091065487 37.203579839
2524 1 55.2596148815 48.5305423143 31.8153459184
2525 1 37.4230848504 52.2254068712 52.7253240235
2526 1 42.9776638887 8.6186735694 35.4700256267
2527 1 30.3094848529 14.7567517256 11.9399702001
2528 1 45.1832955933 15.0504538399 60.826791051
2529 1 23.003652633 1.7033146258 11.2065022351
2530 1 24.5713026271 14.0723495867 5.2819076616
2531 1 48.5857807347 7.6147451972 8.4726728186
2532 1 54.7721688891 41.5037365508 41.0414218352
2533 1 24.2806238243 57.733376524 29.765729684
2534 1 13.5316177292 2.2148022432 61.4841093578
2535 1 26.8218431045 28.3501900492 35.2743291933
2536 1 58.9319935591 4.3248595132 1.3909687573
2537 1 56.4763717856 20.0163059508 53.5520737452
2538 1 34.4128743751 54.0908530473 6.9772421778
2539 1 28.6701571821 55.5645284425 22.0708980521
2540 1 40.2760201425 61.3037184388 31.9949810096
2541 1 10.4895994976 56.232176397 20.2861994871
2542 1 10.8687731472 27.860161645 25.9379653927
2543 1 54.4110721228 32.0604860919 60.4467985878
2544 1 36.8810932799 43.5389920557 7.0215084968
2545 1 39.10549471 51.3254678171 30.4732475587
2546 1 18.4027394134 50.3216654162 39.6575639855
2547 1 34.9100831442 20.2664849768 44.7244450887
2548 1 49.4492510938 47.8650358722 1.5988686616
2549 1 25.8128128941 6.3462077852 58.443224868
2550 1 44.2597999039 12.7078283334 29.2743155952
2551 1 61.2050199157 21.2111438466 27.1411173952
2552 1 39.4863059866 48.80566366 47.7303725395
2553 1 28.3506309488 28.0880437486 22.0052040128
2554 1 62.9754837224 58.5689442375 36.3777749022
2555 1 22.0693863964 27.9143293092 24.7734235975
2556 1 54.6892797657 37.1726538819 26.3749598746
2557 1 43.6034263819 1.4832540809 56.4767496995
2558 1 28.5382652183 21.8864760511 18.7159040954
2559 1 27.8660822966 12.9477406974 43.9456274513
2560 1 33.1816307701 2.1070148899 40.9772394517
2561 1 31.3202786616 60.4568133071 1.2087399169
2562 1 40.5535349432 29.4036251472 3.0171009332
2563 1 49.0332938211 10.6296166111 14.1131013062
2564 1 39.2961522909 29.7986081964 5.4519815302
2565 1 27.6037470391 58.1448618151 21.9681684471
2566 1 56.327221752 29.3783678991 57.7753879566
2567 1 24.8945450141 63.5950736213 9.6197675872
2568 1 14.0035692502 12.6621637327 31.8686317835
2569 1 52.091751309 17.4917148839 57.7647433807
2570 1 50.5293921099 31.829895605 16.2655101313
2571 1 21.2135373016 45.6283522391 41.1783526515
2572 1 43.8508970246 22.0935099027 7.0502047618
2573 1 52.3216489537 23.870083318 33.2032978358
2574 1 26.7106734215 16.8355933045 18.0115355035
2575 1 23.3260132208 9.9513870664 3.520721642
2576 1 12.8128254221 53.239853848 35.381341823
2577 1 11.2510960796 41.8564562249 6.3530039375
2578 1 37.4225809652 13.4268725832 56.7625156212
2579 1 10.1514924958 42.1064462938 35.4538383131
2580 1 29.1876473325 55.5740392766 57.8504668586
2581 1 9.7646975818 60.9491091951 42.3161255429
2582 1 24.7668101036 30.2000787683 31.1246452139
2583 1 52.6196970782 12.8067158134 48.6921635078
2584 1 1.1875143806 39.8674951772 31.6426392495
2585 1 21.5857195433 31.3216643461 16.747224429
2586 1 27.4959155959 63.2343547689 10.7266145214
2587 1 2.7242302295 62.7588760512 44.3435708264
2588 1 40.8493155842 63.2932463573 35.623269728
2589 1 17.3688298689 40.6313852141 4.3436355373
2590 1 47.1823343459 25.5352351078 63.5133812253
2591 1 3.6867959214 58.2621411067 4.6975267445
2592 1 58.9280884485 10.9971379143 44.7815100932
2593 1 5.3760964117 13.838231903 34.8132112052
2594 1 2.9740376401 25.2369980262 26.8370856333
2595 1 53.7496597483 50.7051220904 16.975610418
2596 1 29.0771704917 10.2830065457 19.7634815273
2597 1 49.3201304989 17.5141377774 31.6735022209
2598 1 14.8768023861 45.4115556109 49.9702054553
2599 1 4.5982361563 15.032313971 46.9336039901
2600 1 40.2923964131 8.5631202208 6.0833812395
2601 1 24.4569836614 30.3351200149 2.0701367883
2602 1 56.2322393826 46.9198101314 11.0907975849
2603 1 20.4529855044 9.9399866627 42.879091337
2604 1 53.624633221 25.4434650069 55.9895556498
2605 1 38.4261944091 20.4845413181 15.4499088708
2606 1 6.9498434174 9.7345274525 39.3677039962
2607 1 32.9553862935 18.5568023282 37.1278710804
2608 1 58.5130759606 5.6591224573 20.7037314013
2609 1 39.0741278532 33.4583897429 57.1595142114
2610 1 42.6499495201 60.0615153296 10.0173330483
2611 1 5.1715945836 62.3194881144 14.0150956253
2612 1 49.2069452749 3.3162513067 7.8591925284
2613 1 37.8101946927 7.653607347 51.9534977939
2614 1 3.756546237 60.8647714016 3.9992677612
2615 1 11.7511392032 13.4339269767 33.336953398
2616 1 46.9829217588 27.558334381 2.3584032404
2617 1 45.4147678794 37.1785745335 55.658943941
2618 1 16.6494706908 14.5410258536 24.0905331143
2619 1 2.648288424 29.2024489617 33.7318104759
2620 1 6.9463036235 29.533312613 32.7432506038
2621 1 42.8380876748 11.2981463647 31.1025372486
2622 1 11.1238020687 30.7809954743 47.7517246769
2623 1 28.8520597569 56.6537393931 13.1209512516
2624 1 34.9097052303 4.7394374001 32.7007982716
2625 1 60.1119668401 6.1472675905 18.678616587
2626 1 20.4421519716 62.6114266303 42.991898647
2627 1 35.940465492 52.9557885391 8.9484664647
2628 1 59.3513520573 7.5209595553 40.5552355559
2629 1 25.3789047094 54.0459442745 40.4879038896
2630 1 5.9925937148 13.4365723742 54.3750443275
2631 1 59.2396155034 26.8762627113 18.2838854804
2632 1 21.2160567278 38.1643000512 14.395340031
2633 1 31.6520870979 17.0933306092 15.2963498413
2634 1 21.4706447497 12.3079324029 25.7750844861
2635 1 44.1785484075 6.1096525567 21.3842284296
2636 1 18.970177189 5.8254801721 51.7765081003
2637 1 13.8498212637 40.8736280474 62.3155830037
2638 1 60.5798872791 4.675160538 50.7351032627
2639 1 58.4751585956 17.3220315264 47.9884877581
2640 1 25.962466813 63.1788644059 4.6657000925
2641 1 39.5637783436 12.6403706957 29.4268038686
2642 1 24.5881197973 16.7051500108 63.0304072145
2643 1 33.6229082766 31.6653770713 1.2967037946
2644 1 7.6983901485 20.5107433511 45.4941927917
2645 1 4.7150808469 11.0237808468 58.2244126987
2646 1 43.5548014554 44.2216305963 11.3447557502
2647 1 50.3358371888 64.0879363801 2.730081597
2648 1 8.2005747844 59.4001659408 2.3355331487
2649 1 40.3339669461 37.3600362087 52.8938106535
2650 1 25.2979051557 11.9099260422 3.8480706938
2651 1 4.8536052003 13.175811758 29.7305207022
2652 1 50.646230502 13.1014256982 59.7194402314
2653 1 55.4788679503 56.4324077976 38.1585683565
2654 1 10.7715232942 53.6092017352 55.2747314389
2655 1 20.9595161506 23.3869833359 3.7296513618
2656 1 61.4552619273 7.0553947798 38.7918891283
2657 1 17.6802309525 18.17296774 7.0922539858
2658 1 23.0301066085 29.2280841237 29.1117496169
2659 1 42.946297032 37.6054283248 14.7428318956
2660 1 2.4399570679 37.9589038267 46.1388509817
2661 1 35.2985156852 56.8988795666 46.6730953165
2662 1 50.1126790093 38.7765206283 37.1196199594
2663 1 33.2749755124 31.1361715889 40.1099269674
2664 1 25.5228269335 54.5253281029 3.6903672081
2665 1 27.6595523303 10.6359151767 45.3162583133
2666 1 33.681799865 2.2400657898 1.189774306
2667 1 55.260244738 9.4728220515 4.326660903
2668 1 59.3987802563 58.6871053283 39.446121138
2669 1 5.5555740387 54.7321100118 61.801997964
2670 1 63.5921132954 51.3336559524 8.5655136757
2671 1 46.3104868945 52.1554927929 20.6282115996
2672 1 45.089950851 6.7712475896 27.6168480555
2673 1 17.9344410605 21.2113957893 47.3043375617
2674 1 37.4354930247 41.9622721271 3.2740194243
2675 1 53.0794293819 29.2860309273 50.0185784391
2676 1 53.7423534122 59.7981723015 12.3255683866
2677 1 4.433900281 59.4576088591 32.5558052913
2678 1 28.5763085546 38.4763309914 12.0018851001
2679 1 26.1848691646 57.2299951606 13.3738386608
2680 1 46.2374235334 1.7632517762 53.1065761997
2681 1 58.3501950539 49.3026834721 63.8247193233
2682 1 61.0621684477 11.1629161611 1.6121529664
2683 1 56.1469568043 37.9554396156 9.9418762323
2684 1 20.9811202306 3.0479828003 63.7470580094
2685 1 0.955227942 36.9918220633 28.1639414642
2686 1 61.9798064711 37.7358086329 6.6296432376
2687 1 5.6440751841 57.5604179124 6.3986622396
2688 1 14.47684347 8.6519929815 1.9813837003
2689 1 55.8804015078 4.3330854399 44.6802291582
2690 1 12.59709955 21.9383762317 61.0686559703
2691 1 12.9095084041 31.2518132535 20.812381658
2692 1 23.9827646567 8.7554154288 46.3826684563
2693 1 63.983380191 4.8578441349 12.1342179635
2694 1 47.9974947069 54.8716862257 40.2510778227
2695 1 49.7821302862 23.9986370421 26.6788656652
2696 1 12.9352065518 39.7879442936 2.889737638
2697 1 32.7266853762 18.3064973309 55.7846633105
2698 1 53.388374025 20.7027236308 8.2902663586
2699 1 49.9326660043 54.5254540742 51.2655054725
2700 1 21.0982105653 22.5048692225 37.8067304816
2701 1 33.1921493747 9.6093749539 62.7909357501
2702 1 54.7568633746 53.6565039629 41.7549233473
2703 1 11.5015270482 19.1919496841 16.378758341
2704 1 22.9035054398 50.7909715396 16.5624874998
2705 1 50.5686951593 17.8666055089 44.9700261618
2706 1 19.2805705022 1.1970289938 34.8322328733
2707 1 43.446088213 12.0948519284 33.6041385511
2708 1 58.928718305 61.709157107 16.8685348026
2709 1 5.785144158 20.0096924569 24.7912485382
2710 1 17.5432371506 45.1605577714 53.2722914609
2711 1 22.6034417743 24.5449746229 63.1549928423
2712 1 10.618090236 2.6983179306 14.6483534115
2713 1 29.0274748091 17.3009313316 62.5532908697
2714 1 39.2592426964 55.6940269514 22.8582817388
2715 1 56.1763711057 43.503216203 55.991886119
2716 1 33.636009293 63.3190074907 33.195739557
2717 1 36.0625316935 30.6999959206 7.4797039506
2718 1 55.6132163547 55.5463885736 56.9766668518
2719 1 53.8915034458 34.9566925297 19.0186761442
2720 1 3.5332746833 16.6653430761 32.6760449087
2721 1 5.8117870905 6.1609417764 30.5792524179
2722 1 2.3245484503 17.8004075843 44.3543413736
2723 1 59.8068013364 14.5002111484 37.6270953905
2724 1 40.0611760696 39.8584882284 53.8399811791
2725 1 14.66548551 62.0601131826 36.422305761
2726 1 48.3499624383 63.0283286879 4.2992369483
2727 1 17.8751085724 57.7314239686 10.2061010596
2728 1 58.2251685266 14.6511247804 39.9040268577
2729 1 13.3838533801 58.9916409754 10.7860099951
2730 1 41.6053324141 53.5146602655 20.5419212508
2731 1 50.6110215202 39.055673056 31.9062972058
2732 1 45.4914844085 17.0405486294 29.6883832983
2733 1 55.2848091439 28.9157382552 28.1133639824
2734 1 18.8775252889 51.0335293012 19.7294692731
2735 1 22.3923138551 27.2536727626 37.0077574343
2736 1 5.7696181938 17.4548682751 50.5117561262
2737 1 45.3517822233 13.1656080818 54.0183565571
2738 1 10.5792910719 13.2537250146 7.9250755247
2739 1 58.1416495467 61.6408806558 8.916910651
2740 1 4.1939312299 44.1165075363 45.3802517398
2741 1 59.5198386873 36.3455262462 32.3150111281
2742 1 38.7107006177 63.2620054719 51.9457505582
2743 1 52.9724797379 33.2049984485 16.1444517004
2744 1 12.4548149529 29.4320946637 16.7104408059
2745 1 10.1308961862 26.5544060088 20.0486805781
2746 1 27.6370034655 58.9107044074 37.6239461077
2747 1 48.8496906336 50.6068014813 24.3363031443
2748 1 21.5726185269 32.2726217816 59.4207622503
2749 1 10.7861359664 36.0388490868 22.6419260101
2750 1 44.3210219616 6.0639501646 41.2492745003
2751 1 42.2365746593 35.9867599492 30.681604109
2752 1 9.5376342916 49.4035235075 16.3785063983
2753 1 59.0781832669 27.0007223678 1.7758363102
2754 1 22.4347032016 56.7314636927 5.9964736313
2755 1 55.8598051982 59.6318901695 29.5618451152
2756 1 51.6724557965 33.2747865554 18.6482575008
2757 1 18.6349045417 22.644508422 63.2927424721
2758 1 37.2522677511 33.1729387495 7.8031982802
2759 1 33.2692438177 30.5329579607 56.2108242596
2760 1 51.2408150954 53.1778129767 53.2779601699
2761 1 59.5636137183 58.1998482929 48.5192048962
2762 1 43.4383409773 14.6319771409 24.4957198398
2763 1 49.1956078568 53.3595265945 60.3502415771
2764 1 6.5525487945 31.0632971848 28.6930839609
2765 1 40.7040706612 32.3665963804 5.6400000121
2766 1 32.3699976059 4.3402343118 31.9542922757
2767 1 30.5928573196 42.5597540606 33.8346030667
2768 1 27.8007031856 16.3623820704 31.3752021537
2769 1 27.9985411314 1.4742779951 36.3704055804
2770 1 22.7463562279 17.1473723021 49.4460388254
2771 1 18.3940473929 32.4571697539 13.2654403466
2772 1 23.0797393055 3.7918182044 15.8338694302
2773 1 22.359372357 50.5484137781 51.4147814774
2774 1 54.6251603678 42.9624843456 59.9542507573
2775 1 54.3649036369 16.533325141 26.5647356564
2776 1 57.424053967 26.2312266074 14.4011347114
2777 1 46.2782382386 50.9124078846 15.2217118388
2778 1 7.6481275949 51.6984058868 13.2186420042
2779 1 26.1425428037 27.3693144271 44.5375036615
2780 1 56.8073614083 2.39748584 34.423518951
2781 1 29.0879410389 24.2537289492 35.4342497741
2782 1 22.4107686523 27.8058050238 8.8278489333
2783 1 9.3328049381 38.6560290682 32.9135638178
2784 1 23.7851786536 4.1476808626 40.9786251361
2785 1 25.5691843764 33.7981343718 55.4895125261
2786 1 41.9288267437 51.0887677216 30.0772567389
2787 1 61.9052314543 62.4402316171 57.9637150682
2788 1 34.9956806508 51.5388002343 42.6553033009
2789 1 1.4341189706 46.8662093381 14.5043682017
2790 1 44.7558119455 56.7264878259 54.4506271148
2791 1 14.6646037108 6.6762211302 12.2853205524
2792 1 21.5108295983 50.526809698 23.1141294738
2793 1 10.4542645445 60.4323748726 21.4976655962
2794 1 52.1927173157 28.9397357901 18.4788260859
2795 1 18.7992971041 8.470594292 52.341363464
2796 1 17.5640854027 14.9372056303 32.7082935647
2797 1 55.8938174525 54.8688518711 61.778378343
2798 1 48.3606070142 13.4989281737 30.5920385061
2799 1 53.3340803895 42.8564165008 32.2718659537
2800 1 51.832061449 18.5665651049 9.0866569941
2801 1 13.0622486201 11.5269732532 39.4661505767
2802 1 46.9790796337 6.131716432 17.4835897342
2803 1 22.6393435982 31.2162263578 52.7721853516
2804 1 39.2553375858 8.85921579 27.1863410962
2805 1 52.3031941564 31.5571047285 41.5314502395
2806 1 8.5871177557 36.9941525325 21.4906112027
2807 1 16.936055426 2.0673654194 33.7100174389
2808 1 11.0026176664 29.6145641094 41.1416949997
2809 1 60.0460838439 26.2237943 42.5315994724
2810 1 22.4711089108 28.6772115756 2.6870371996
2811 1 9.3644237374 17.620079651 6.998814765
2812 1 12.392711096 4.0690117782 9.3098781592
2813 1 12.8667411437 41.9498639528 26.7870750223
2814 1 14.7631132769 47.9634824526 42.4127455393
2815 1 34.1644589475 24.2098279469 28.8909219067
2816 1 51.1069705762 62.5447878062 35.5718734326
2817 1 19.6510521312 5.5330125767 19.9336687701
2818 1 33.3299619902 35.0301338047 15.0635548564
2819 1 41.0126373904 57.1236123875 12.4626251743
2820 1 40.7624583644 63.4960601699 21.1520003156
2821 1 47.9496256083 47.1771695221 16.7946526281
2822 1 28.8918666915 12.6170030173 55.4481939358
2823 1 23.0369090594 41.5829095205 9.2126283063
2824 1 41.5750992992 52.5424136782 51.3626923399
2825 1 33.3239783528 56.3388740984 10.7256067509
2826 1 58.885510145 46.53950274 29.5423825475
2827 1 55.4321955791 17.6031365095 21.77788878
2828 1 29.2974943167 57.8202337437 39.46407205
2829 1 9.8244079838 41.9130803297 63.3275105543
2830 1 20.1180907711 6.2986599134 3.6239803266
2831 1 29.4423613257 14.5792581468 45.6203530608
2832 1 25.2358012988 35.8091403991 25.1046651628
2833 1 4.7843272772 35.0301338047 19.6821040597
2834 1 47.3116438978 12.4949368158 6.7416506298
2835 1 32.6793201629 63.070969977 53.8927001732
2836 1 6.1633037385 44.6251167091 5.9682182659
2837 1 38.2213020699 19.6744827953 58.465017905
2838 1 56.9028476629 50.6655041127 58.3499431113
2839 1 7.9812587299 37.5283338817 6.3110680877
2840 1 3.9353499174 56.695876797 12.7650193091
2841 1 2.0438654711 60.1748265249 28.8159059903
2842 1 51.5466734413 14.5364279007 23.6022053227
2843 1 13.3063180374 3.0186503803 17.8240272054
2844 1 40.1050140863 18.0782373133 54.6981607432
2845 1 59.7294549508 21.8718633789 5.9955414435
2846 1 62.8507091377 59.7475948197 54.0532506106
2847 1 62.2671470342 40.2514557367 7.4389522311
2848 1 38.0220784397 9.1657039925 43.5970018449
2849 1 47.3282091254 20.4178395083 44.875673649
2850 1 63.9195757214 35.9769341869 21.4109973334
2851 1 39.1330194417 46.2428402998 11.3779491909
2852 1 56.3226867848 10.3107202343 1.9321667086
2853 1 10.0223719008 36.9032642308 59.3309447047
2854 1 1.3537492734 29.6533632735 30.2356026783
2855 1 24.0038018659 56.1186132591 20.2274968557
2856 1 27.7207114024 21.6638847425 14.1677728556
2857 1 44.0908723743 24.8384247946 6.9581008369
2858 1 20.5967817573 2.4415128136 5.3455483685
2859 1 50.5269356694 21.4452615303 48.1918684415
2860 1 14.9812955895 52.940042125 31.3475514507
2861 1 34.5395385295 58.7546889373 26.440087043
2862 1 27.719136761 4.066782086 9.1003248815
2863 1 32.6577160828 47.9027012945 51.8933464923
2864 1 60.9809169514 44.4301131179 7.0234106637
2865 1 63.7171398228 33.9992475716 9.4584613219
2866 1 61.4245879128 58.7015920292 25.9112594746
2867 1 54.7755071288 20.616433282 27.4818068089
2868 1 35.438847727 42.2125141387 22.1282779848
2869 1 57.1572467278 42.3348952684 51.3136894994
2870 1 31.0857200784 47.1992774874 25.0960991136
2871 1 16.9961437419 26.3212960956 17.6966072231
2872 1 3.6479841601 28.1221189886 29.8231726023
2873 1 62.8539214062 3.8737625429 47.6600805473
2874 1 33.3339930721 9.2889669214 38.3108676729
2875 1 18.615441974 7.0931735763 35.7503747819
2876 1 46.1035160286 8.5035357901 48.1626430971
2877 1 13.2411278834 45.6596561102 59.5486231321
2878 1 27.6895335026 20.4248309162 6.1132553362
2879 1 61.6297321946 5.7548921474 55.5519313113
2880 1 31.5422401137 50.6550484938 47.8079078821
2881 1 60.4644345715 1.7587546003 58.72854989
2882 1 37.270974491 31.6242474379 23.9272742937
2883 1 15.2040758551 60.2356706687 47.3348226193
2884 1 59.3980244285 21.3810791467 1.6883807268
2885 1 18.4205013684 22.6838114714 38.0334158578
2886 1 49.8386284197 31.9345777654 51.2892510649
2887 1 42.906553083 58.1684184505 8.274079045
2888 1 14.8957610686 19.0254785951 49.273773056
2889 1 39.583303897 20.7692994693 51.467248529
2890 1 51.1219611623 21.22298515 35.6819093738
2891 1 29.473980125 59.725927754 18.3544294152
2892 1 31.2535138662 23.1983412959 49.4165615383
2893 1 13.8852821881 48.5184490683 27.8168275136
2894 1 14.9487320054 19.2684142706 42.5465270729
2895 1 12.1830948326 5.0204101133 48.6301226365
2896 1 57.889769908 25.4093897669 57.4122126636
2897 1 8.1127727798 48.6770469503 33.7262047525
2898 1 14.7789226766 27.6223907933 48.0937367894
2899 1 5.66086716 32.9258460208 41.6504301438
2900 1 5.8343233582 48.407531328 59.287862516
2901 1 41.4755189769 14.0425573713 11.8276037897
2902 1 41.2035469139 39.646667467 31.5557190441
2903 1 32.9148865166 58.0319285338 35.7972990957
2904 1 27.0647157943 30.6263656886 54.1681994329
2905 1 54.9536935499 12.4142521904 43.7955956186
2906 1 34.3438420961 44.0198875399 25.8344169741
2907 1 28.4514079986 56.4994875214 30.8519803087
2908 1 50.6925879448 16.2664549162 2.1927761592
2909 1 29.4335433338 38.4623481757 16.6814674041
2910 1 3.3989073832 6.8405444084 18.216553814
2911 1 14.8560171196 23.5079787812 50.5536415875
2912 1 63.7144944252 10.2379088159 36.3442035475
2913 1 16.9412832354 63.4483170426 62.3923625185
2914 1 48.0211143279 9.9847694641 27.7256242836
2915 1 3.9878988503 43.0358626349 14.3282603073
2916 1 21.2866006626 13.83218528 50.9760233972
2917 1 12.827312123 21.4758725591 23.1065082094
2918 1 51.7197580242 53.4832304231 59.1831173699
2919 1 11.8286115602 49.2371783898 54.4391637254
2920 1 36.1333905566 24.3231391422 10.0509673887
2921 1 2.7275306779 27.0254127449 15.2846345092
2922 1 9.590857171 12.2643463289 21.2094432339
2923 1 11.195353774 56.6748395879 37.6607927165
2924 1 56.2986892498 30.0602506118 44.1847839875
2925 1 59.3148833624 55.4279125545 48.9843539663
2926 1 40.0587196291 35.531688584 60.7627346387
2927 1 62.0567749429 60.5276721702 45.7291292889
2928 1 29.9855496237 5.0312562432 39.4684180603
2929 1 36.7865518101 38.1481757232 30.8242036344
2930 1 34.1129996665 6.1845613974 11.1695926406
2931 1 53.4593588594 51.9807075973 45.8726106134
2932 1 21.9383132461 53.3385523711 59.6910337005
2933 1 63.8213180979 59.4490428099 24.7929491509
2934 1 21.3354775317 15.4844250103 2.7675706595
2935 1 33.7629883757 8.871120079 42.8533931893
2936 1 25.0695821524 51.3178465527 62.428894199
2937 1 12.184858431 15.9338906521 61.4491523187
2938 1 31.7311340962 60.3520051754 22.2989691128
2939 1 9.4934813467 29.0971999303 6.5523850318
2940 1 28.113426968 30.7231116564 35.8405702415
2941 1 63.3864021427 45.8111366131 32.7376448804
2942 1 41.4462306468 4.6581166195 38.1463491392
2943 1 53.1221336568 15.9799961523 61.7927390726
2944 1 16.4278241671 30.1059781981 40.1685666133
2945 1 28.7987738918 16.1828099649 7.7677373558
2946 1 5.5248370385 23.4626291088 22.5545019195
2947 1 29.2973053597 34.2720384481 24.282891308
2948 1 45.7181697847 54.084491496 18.6852930666
2949 1 51.59599121 23.3663870264 4.8967377776
2950 1 50.4982142102 6.091537882 31.1554451997
2951 1 18.7960848356 2.7961535502 25.3960368078
2952 1 14.1868575094 49.464430637 48.3279174587
2953 1 32.0553842537 4.6424961768 55.6122715698
2954 1 14.8800146546 63.1475605348 33.8499715667
2955 1 48.2319903045 7.9003221619 40.2706663618
2956 1 1.5230125166 2.2107270712 18.2794134988
2957 1 62.8697308059 16.6153324652 61.9187733704
2958 1 43.7888561534 36.5426083641 18.2451493019
2959 1 46.0739127702 35.9431108896 6.4406547765
2960 1 30.6748646438 6.4801656785 17.4202261642
2961 1 25.0177449574 3.3496526001 17.6433213581
2962 1 8.2716226044 23.3850937662 59.5450959354
2963 1 7.1825754166 53.6986413669 57.866150287
2964 1 7.0476223499 18.8129020058 17.6562964032
2965 1 32.0085859113 10.5625368873 58.5416714484
2966 1 48.1993637346 54.6782572759 56.6058073088
2967 1 4.3694281634 32.8057323746 45.7480249857
2968 1 19.8640066344 60.0486662558 13.3575253758
2969 1 5.2914247942 25.9854565774 41.2449914756
2970 1 22.5287407862 41.7892505298 61.7780004291
2971 1 39.6156155385 14.8327124269 33.6184992806
2972 1 42.7346022419 25.1277808986 16.8420178414
2973 1 48.4305840781 38.5105322026 1.5209585544
2974 1 39.9743188499 13.4071580728 50.5504293191
2975 1 63.0292104871 25.5925520548 30.1719871657
2976 1 35.2483161173 57.6639033453 57.7859695468
2977 1 55.3578095193 2.0213858905 8.4341885828
2978 1 28.5227077612 28.9736220731 30.725190183
2979 1 21.4892255182 9.9044627526 37.8320507154
2980 1 10.2348225188 18.1073366864 12.1817721338
2981 1 60.0220863089 50.5578616265 49.3843128824
2982 1 58.8011093658 29.4734132541 36.7258966233
2983 1 37.1373189288 53.9019590647 12.1150073384
2984 1 41.3589955131 14.1404370809 2.7413119394
2985 1 5.0586487051 9.2288786055 6.0667026378
2986 1 37.602279042 52.912391422 32.0794447744
2987 1 47.0183196975 33.4650662224 32.3398274766
2988 1 6.1496295526 39.7458698753 41.9606345
2989 1 52.426709028 62.9560211547 48.5513275808
2990 1 6.6779910272 46.4232312189 25.1680287328
2991 1 31.0568726479 58.6189548484 24.4508110671
2992 1 11.9023677634 21.7932572801 47.9445867558
2993 1 33.9288296081 23.8181831374 1.9289607387
2994 1 25.2323370877 23.9389266401 23.0185172478
2995 1 21.7229023023 54.2071245684 5.4608814034
2996 1 58.9356467272 42.6173859359 1.8860108199
2997 1 13.1000400138 57.9768790704 0.9995234234
2998 1 26.5721049781 41.5005242824 5.4932434334
2999 1 30.0071537037 44.9040171942 10.8136606981
3000 1 29.777445016 30.457438159 44.713233642
3001 1 33.1391784379 27.0521816488 40.4599382583
3002 1 18.6513437979 31.8560346523 40.0118583009
3003 1 14.5352311732 5.6274406723 21.8716114363
3004 1 59.9574000401 40.1960283593 33.1300455178
3005 1 47.4730131487 50.1156393352 50.1846086286
3006 1 26.3404437351 19.9228352372 43.3591050219
3007 1 7.7735320362 31.1913470237 7.1539673316
3008 1 37.1463888633 34.4771197443 37.3567609546
3009 1 11.9985468603 1.8929140478 31.1413993984
3010 1 45.7555832644 7.8900554999 31.4455571316
3011 1 51.9238315499 59.2771549544 8.1932684483
3012 1 50.7824684761 6.1810782907 22.4059817425
3013 1 20.1915950317 2.9136721873 48.6102821549
3014 1 16.6965839615 32.6682346874 44.6062839979
3015 1 1.1457939418 54.8177705041 38.2574558365
3016 1 41.3310928675 20.0117079979 18.5673209327
3017 1 24.9133147397 7.7595492205 51.5807486812
3018 1 52.9395382398 19.6935044634 61.175479643
3019 1 27.9705755001 31.8203217853 24.1472831904
3020 1 58.1301231716 46.9470199348 4.1041892671
3021 1 40.9665318901 12.5880296155 34.5456481381
3022 1 36.3436996622 27.0722740731 50.0180115682
3023 1 54.4597600349 18.2081137361 54.1866542302
3024 1 12.037975881 50.6998312953 38.9261745471
3025 1 14.5257833248 15.7730882721 44.9792220676
3026 1 33.30690924 55.090120481 22.5915374853
3027 1 18.5375287174 5.4239340175 37.9247026154
3028 1 41.5330248809 46.7108867102 56.3427162234
3029 1 6.1101942333 47.4915309316 13.935292799
3030 1 14.1898178353 5.4897540281 30.6622045269
3031 1 10.9903354634 52.4154345956 59.7583023812
3032 1 50.4528645378 55.8627655241 41.2230094817
3033 1 11.7332512769 22.4522761997 36.3292129613
3034 1 5.0955331053 40.9023495066 53.18052136
3035 1 46.1584395207 40.4144626146 5.0268094559
3036 1 48.668858815 52.1673340963 53.4373768654
3037 1 16.6111124262 23.6668915915 46.6686233349
3038 1 38.2561331377 62.5418274803 35.5985793508
3039 1 14.9535189152 60.9583051008 59.0249603875
3040 1 45.9626801016 22.8059406586 48.5887410605
3041 1 40.6070097652 48.6560727268 4.4558696778
3042 1 15.7273606858 33.9249874831 59.2199009931
3043 1 27.3322788614 53.3642505187 15.7254081305
3044 1 46.3856917678 8.6917999161 57.3132621979
3045 1 61.7592936892 15.3633035937 16.2966880311
3046 1 49.2131808549 60.8931779325 18.980065937
3047 1 24.2537919348 17.1197215991 60.4896918196
3048 1 37.6444794316 18.3791197924 34.8358230557
3049 1 51.6941228622 49.571191324 57.1537195311
3050 1 18.3591533394 59.0317628384 27.2743320578
3051 1 53.6368524382 55.4260229848 9.8911097935
3052 1 6.465615992 25.9654271388 50.2393431637
3053 1 12.3713589586 60.9735476296 37.1209426582
3054 1 56.2413093171 39.0542243859 63.4825812395
3055 1 33.1672700405 43.1193816149 32.866639504
3056 1 12.355171645 8.4593198596 24.7782105074
3057 1 46.3831093559 17.895326968 58.4383749724
3058 1 47.8085377386 59.8071792504 45.7019824711
3059 1 63.2867588348 57.2592834907 58.3230482362
3060 1 27.9016062067 15.8772035616 58.3256936337
3061 1 48.583702208 8.2733862028 61.7072675373
3062 1 40.7853221576 10.8544124176 4.5570183429
3063 1 60.3829311326 38.7109525603 50.5617667372
3064 1 59.4624587546 53.723709658 45.0286658076
3065 1 4.2468076882 45.8116404983 17.8007854983
3066 1 48.9257773062 10.0749649236 23.098886945
3067 1 10.0866802557 18.2719182057 35.78955186
3068 1 45.7037460695 48.4530069716 15.9963094373
3069 1 25.9068504786 59.0264090576 5.0457618398
3070 1 53.6733841188 22.799264179 55.2520566027
3071 1 3.5315551749 40.5333165476 42.3731905473
3072 1 2.0341026944 12.0963005985 53.418229226
3073 1 29.6654565195 32.3796973969 12.5080378323
3074 1 51.0277976065 24.9693719736 31.0015712419
3075 1 57.544923441 16.6328424776 1.9848731056
3076 1 14.3709015965 4.2399107588 13.4961568049
3077 1 16.5333881266 32.7319131857 63.3246761997
3078 1 14.5158315911 39.4798814497 30.280889365
3079 1 39.1002039148 59.9451808228 15.194565021
3080 1 60.2219397956 50.9920847395 23.7526150694
3081 1 15.0413839054 21.229031773 13.7086074228
3082 1 52.6372070906 54.0371892683 21.3027249906
3083 1 51.8932835067 25.5535639337 35.4546571267
3084 1 16.6014126352 43.7918164792 51.1554695314
3085 1 16.1235404625 14.3887895228 62.1943356157
3086 1 62.1543397241 54.3772488255 15.7729623008
3087 1 16.5255149196 59.6123646161 29.1191189387
3088 1 33.118645114 9.1963150213 19.4962333886
3089 1 10.3816420831 50.6065495386 44.3339340211
3090 1 3.7088534982 34.861584189 62.2765948826
3091 1 58.3447153019 54.8873066684 18.2369611666
3092 1 7.4004050096 32.4798445901 49.4552977168
3093 1 28.4582104494 60.7236205463 1.6343503713
3094 1 59.5026436032 59.5251294824 50.7886410704
3095 1 13.0676024009 54.0666035697 48.7314035715
3096 1 39.364995613 63.0979278378 57.3717758724
3097 1 29.5603964451 11.2560719464 37.5320500355
3098 1 47.2368799241 26.8533359325 5.0171096649
3099 1 34.5731728698 19.3178580106 42.3309271721
3100 1 15.4992266395 35.7707191489 3.6397267406
3101 1 30.5391935406 6.3619730949 59.2753913561
3102 1 53.4875764333 59.5735024663 22.3215179777
3103 1 29.6995317594 47.2093551924 63.2767441155
3104 1 18.4337913419 25.6234780119 47.265286455
3105 1 30.9739205389 12.4334628155 46.7294674787
3106 1 16.7620890439 57.2051788121 52.4688464319
3107 1 57.967242265 61.595971883 46.1708476949
3108 1 54.267086913 41.7524669067 55.1398791493
3109 1 29.8703488587 20.0132826393 58.7387535663
3110 1 30.745156636 20.7880062091 17.5613770195
3111 1 50.4446134169 7.6323811809 17.3869697378
3112 1 53.382516359 60.1607807236 37.1296976644
3113 1 5.6924166751 27.9755513669 20.7212414137
3114 1 25.0604492323 26.2203300889 31.700586053
3115 1 21.3620574786 20.0102593279 1.1379245139
3116 1 31.752234291 46.2214881624 12.3119004993
3117 1 29.7108691775 37.031251084 28.1024674639
3118 1 25.4334502875 21.3251478842 55.8273045997
3119 1 3.3417479003 16.65035249 16.1575527168
3120 1 2.0779281139 9.8585462093 49.9736066807
3121 1 26.3335782986 46.2355339637 57.7781593254
3122 1 30.6107452459 19.6289441659 15.1664104328
3123 1 48.468501443 14.67316976 35.0039947574
3124 1 58.4072600583 21.5059167171 50.4164588286
3125 1 57.2061865826 3.8411233759 42.3901966745
3126 1 63.3094966566 49.7127200932 55.2426087543
3127 1 17.732698004 1.7453008642 48.0531110412
3128 1 27.3928710625 17.5060126278 51.9841718084
3129 1 44.4020215153 29.0586527088 16.65803674
3130 1 59.3920407911 23.9086935252 59.0825922628
3131 1 34.5646698063 58.3951668124 39.960021106
3132 1 38.9074048216 49.7668247718 19.2473770614
3133 1 43.128514535 29.5396741643 60.5039895636
3134 1 47.7930432673 21.3476337634 28.7260884447
3135 1 32.5480580556 10.2755742382 29.5617821296
3136 1 29.2030788182 42.7452468178 14.3028141023
3137 1 4.7765548472 11.9574802125 43.3788825179
3138 1 8.4692715932 1.1037680225 32.3907828724
3139 1 6.9133306325 38.7969279808 22.5323309686
3140 1 41.2359845268 49.8079544052 25.8534386423
3141 1 16.5602200161 38.1715434016 40.312929737
3142 1 11.8708119498 61.3153707852 6.8437566768
3143 1 54.7511316799 23.2839388025 59.7496103607
3144 1 41.4570641797 16.3643346257 29.9010858589
3145 1 23.1370562526 5.3866402105 38.5842884059
3146 1 59.335101758 43.3280530935 17.9402357408
3147 1 18.0851027498 42.0559317977 61.2536448422
3148 1 36.9798547886 57.1990062178 5.8422028638
3149 1 37.8231697378 43.0667885921 31.337788674
3150 1 8.0646517386 48.6830305876 63.0926370427
3151 1 20.5295130766 11.4406829044 16.1259339175
3152 1 53.3214832583 61.645226666 17.816216984
3153 1 58.6142939099 60.8242086391 63.5821615618
3154 1 12.6308598617 16.8729437986 24.4534564646
3155 1 56.1869526959 24.0749756572 20.8770049412
3156 1 57.7294714133 12.2108085213 3.1713339092
3157 1 42.1724552614 61.8909337104 60.2280494043
3158 1 39.6420695141 36.9899954792 34.5932023085
3159 1 23.0354603893 14.3004206473 8.4341255971
3160 1 52.3451426034 55.7209218266 6.177752648
3161 1 50.9042197493 14.5790691898 42.545582288
3162 1 36.0900564252 33.673926658 19.6541384284
3163 1 18.8662508565 10.8361465773 38.1952260083
3164 1 50.5202591898 28.5843077329 7.4249694154
3165 1 56.7578546826 7.6848482324 21.0613639565
3166 1 25.6016849749 37.3859233133 3.7228867023
3167 1 25.0760066893 18.7878337147 8.4205206954
3168 1 43.2621700972 22.2454942908 44.9312899833
3169 1 30.7937185768 33.979029176 34.5356334188
3170 1 35.0720822516 52.2772440661 19.9945129138
3171 1 57.9900430725 46.128899248 34.4310772297
3172 1 33.0799719212 50.0490634967 6.8869522398
3173 1 38.633354232 34.5923834949 19.4577491527
3174 1 35.2357819718 18.6616104599 46.9933773777
3175 1 26.9718119516 8.8120395336 20.6396120034
3176 1 38.7958572247 20.3651205142 61.0119688798
3177 1 42.0154320208 39.3806790414 23.9713012673
3178 1 46.3989817413 14.8089668345 9.8598689081
3179 1 15.9511487219 9.969778878 58.3376609084
3180 1 20.0823149184 19.91830027 32.7559737063
3181 1 22.0758109333 21.8351427414 32.9286173896
3182 1 45.7309558729 57.0414790919 2.8162711687
3183 1 47.7823986914 2.1967820469 16.3413448613
3184 1 15.1805192197 10.1000332148 48.5494380111
3185 1 39.0828198738 43.1379623834 16.4188172182
3186 1 52.1799942131 53.8928261446 35.4069139994
3187 1 40.5624159207 36.0587525541 8.4176233552
3188 1 57.869803455 47.3212177176 23.287151071
3189 1 40.3882605817 24.3934311344 9.1330774226
3190 1 36.3731139636 30.7534707426 36.7861109105
3191 1 23.8628399676 42.6609720099 42.4244608714
3192 1 15.652974626 54.2203515562 45.25642194
3193 1 12.6093187673 23.2789629357 38.9350555246
3194 1 26.4557704714 55.0360158024 54.042732006
3195 1 26.4508575902 33.882346194 3.5497958209
3196 1 58.314104273 46.6253521892 20.7075105406
3197 1 28.2677418254 2.7127857358 11.3881528672
3198 1 40.5787921913 17.4946122241 17.7174554753
3199 1 59.8152414143 13.2369078444 63.0607663008
3200 1 32.7666182822 2.9945646654 60.2262858059
3201 1 45.1487794538 11.405410937 19.971397178
3202 1 42.4861868143 33.9399780693 48.9434762755
3203 1 34.6120980053 4.9425598424 37.2289630584
3204 1 41.5410240592 23.2894185546 21.841819221
3205 1 8.0059491071 21.4004787288 6.6913502848
3206 1 3.1309034166 54.1627826665 2.5837218279
3207 1 26.1065779941 3.0577077856 23.1918537734
3208 1 31.2759367598 11.0618241831 9.5370674207
3209 1 63.176093037 26.7702578522 63.0676947229
3210 1 26.7565269791 26.5636649002 42.0307375352
3211 1 10.1061428234 22.8314498493 27.9849992153
3212 1 42.2783971349 17.4568838161 58.2710850699
3213 1 45.8776494659 47.4017763717 10.5935888158
3214 1 3.0601642262 23.2327314642 3.8952721445
3215 1 19.6830488445 10.0097117839 12.7295583847
3216 1 32.5127231025 49.9174864611 39.8682510051
3217 1 18.6915286465 39.7182821579 8.559970938
3218 1 4.909360103 14.6135223437 42.275814723
3219 1 43.6602394436 16.3858757201 20.5809093719
3220 1 38.7129051156 59.7247310265 9.2135730911
3221 1 59.1646625727 4.657152939 56.2590712721
3222 1 43.7881003255 31.5905501119 17.3553509385
3223 1 10.3507791116 37.6417710483 30.5155109339
3224 1 10.6161376807 35.4191962023 13.8403104297
3225 1 59.9453697798 2.4617690006 3.0272164295
3226 1 44.9772065266 51.2480584458 56.777380236
3227 1 26.3742670324 41.9433134446 42.9247559376
3228 1 11.0772556688 35.3897189152 42.864793593
3229 1 44.1728796985 15.299877038 43.5401887832
3230 1 43.935423775 56.747336078 51.8493195187
3231 1 62.5127910929 57.8691735985 11.7472970782
3232 1 7.2146414141 31.2960921697 9.8493503036
3233 1 33.9162324769 38.8265312392 3.0027465021
3234 1 50.7390083734 53.2460894279 12.3455978253
3235 1 33.4786081385 34.9203498061 57.0636500429
3236 1 27.7593845952 40.7025590055 24.9262267991
3237 1 25.7252628322 1.6160612263 27.3859426403
3238 1 23.963491046 20.8656045374 47.0435769456
3239 1 27.32446864 51.2349574293 28.7244508177
3240 1 55.9488669159 50.1987804012 35.7713490054
3241 1 43.9856233429 43.8675882235 8.6775021722
3242 1 50.0005015558 9.2848098681 50.1668466736
3243 1 55.0113254252 8.8030325848 38.2104685371
3244 1 8.2854794488 22.864832247 20.0377840596
3245 1 18.6446043327 19.9570364485 1.0690401881
3246 1 4.4355694009 55.9671327562 15.5607006398
3247 1 22.7097615617 55.6588179697 32.9596063324
3248 1 35.0995439977 31.2533249092 18.7313985668
3249 1 7.6345856789 23.4332148075 8.4767668863
3250 1 49.0142091673 12.5470259534 22.1597708129
3251 1 23.3226119954 10.6745883695 58.5300820877
3252 1 0.9841145495 24.1047678726 59.0306920822
3253 1 26.433851463 53.3757139081 38.2167671027
3254 1 56.8751339742 55.2948868489 6.4983874289
3255 1 15.8535839406 46.7655582596 54.6388282551
3256 1 34.3721226556 35.9769971725 59.3999139981
3257 1 13.9888306067 51.2666392143 24.3278000807
3258 1 21.7067149887 55.4858593581 53.4432345315
3259 1 7.5292736619 53.7958912198 14.7339509181
3260 1 31.3886180985 25.3100613873 10.5988166252
3261 1 23.1037368405 53.9677790753 57.3119394991
3262 1 36.3521397401 59.5688415277 50.2366977661
3263 1 33.1377927535 46.2769155398 26.5480444575
3264 1 6.0430578225 34.1036148038 58.9080590098
3265 1 31.2805347127 42.8210815477 61.6081911003
3266 1 13.9725173218 29.7683120959 60.7039690216
3267 1 56.1758042348 6.102774523 48.6561986982
3268 1 12.4187871576 17.2863186594 45.7394589365
3269 1 8.7823732896 34.8969821277 3.6866006659
3270 1 60.1265165267 36.0321096216 51.2588919786
3271 1 16.8510877759 25.4183967157 32.4599411227
3272 1 45.5089314352 51.4262448668 9.1999681894
3273 1 2.790037643 60.6078529104 26.2765132942
3274 1 56.0640046952 15.4554516085 23.3440901041
3275 1 23.3185179277 58.875243483 36.5012897737
3276 1 21.9852375599 10.4007267369 14.0663029637
3277 1 35.4700256267 46.6211951359 15.4272970202
3278 1 12.0178834567 48.962623915 35.4827487293
3279 1 10.4594293683 16.233891332 44.2263545205
3280 1 45.8995054886 38.3136390417 24.8920255879
3281 1 20.7146909054 30.3819183574 25.1775395669
3282 1 50.4046805109 57.1889285128 36.7258336376
3283 1 45.8004290515 44.7336409945 57.9649747814
3284 1 26.392658844 54.7462817844 6.2694912561
3285 1 35.863371049 2.8953118686 56.9133032818
3286 1 58.6447159818 31.4171506007 63.8196174852
3287 1 62.7380907847 45.5338107694 27.4804211245
3288 1 60.2153892874 36.1519083395 19.4670080442
3289 1 52.3222158246 21.4767543583 57.0682479958
3290 1 30.837997493 32.5959901399 20.4122967706
3291 1 17.2083424172 26.96733997 28.1482580359
3292 1 19.0804650728 32.1609482133 51.2734416652
3293 1 35.4753794075 20.0734339409 49.3804707574
3294 1 24.9401466291 23.1108542196 36.7202908999
3295 1 19.8107207694 1.9150912973 44.3630963798
3296 1 11.258717344 46.3237768679 57.7631057536
3297 1 62.7676310574 61.4973363456 39.6706020163
3298 1 49.9026218463 48.6417119973 18.0436581881
3299 1 14.2805801657 35.3953246386 51.9441129311
3300 1 48.103688523 18.0435322168 43.5287253937
3301 1 27.2516572216 20.4223114899 20.6467923682
3302 1 38.2129249777 9.8734108242 21.9043009918
3303 1 24.0053135216 41.3312188388 48.2168107614
3304 1 4.927978663 37.1093532975 2.5987502055
3305 1 4.2490121861 60.4791732151 15.9462988263
3306 1 18.4167852147 26.62268246 25.7378599634
3307 1 60.0559096062 23.5179935005 42.8753121976
3308 1 42.9689718682 28.2477753725 21.8602110325
3309 1 57.5409553446 17.4104633875 60.3802227494
3310 1 62.7271312805 40.8512051538 25.5538158763
3311 1 22.1170035524 42.3129132745 6.6790491862
3312 1 6.247975356 40.9844198164 48.55220938
3313 1 42.0083146417 48.954561751 2.1618187093
3314 1 10.6914685253 40.1630238755 15.0516505674
3315 1 6.3637807832 15.3464234378 19.7945964414
3316 1 29.5272030044 10.8613408398 57.3977889484
3317 1 30.2664026641 15.6508331137 38.9104281331
3318 1 59.9885149542 62.3094104094 61.7326507567
3319 1 18.452624053 42.6442808111 8.3444340229
3320 1 50.4861209642 53.0465508695 48.9299973451
3321 1 12.4704353956 24.6920461298 59.8710467056
3322 1 61.2991834715 48.0430963219 6.6067542501
3323 1 27.6444357729 11.1455951057 14.2391985896
3324 1 7.6384278039 2.3829235564 60.3884108846
3325 1 1.3652888755 8.0130035006 58.3586981175
3326 1 44.6749383631 20.8596209001 26.1279931171
3327 1 25.1268990994 55.3828148248 36.6302843974
3328 1 17.8080918344 63.8270497926 28.8776949189
3329 1 38.2798787301 50.9243751592 49.0629600651
3330 1 3.4013764209 30.3088549963 38.9647217686
3331 1 10.6822096339 42.3796150842 13.2813757176
3332 1 59.5986967287 28.3437655123 20.5148374187
3333 1 31.2536398375 12.3432043703 5.3497558103
3334 1 16.5023991839 25.1093261014 24.4210818374
3335 1 63.939794117 11.9451350239 56.0475024534
3336 1 53.8939598864 54.8574514674 14.2863118604
3337 1 63.9593196704 10.9756598056 21.3935503067
3338 1 29.0561332826 50.4230723225 12.5868958737
3339 1 36.790960806 47.2123785039 61.3173233405
3340 1 47.2569723484 10.4379512596 5.042700737
3341 1 54.7962923953 9.1851035746 56.6791226125
3342 1 36.1895737618 51.7777048278 38.6462662915
3343 1 48.3070692065 11.6653527396 37.6262135913
3344 1 3.4543977462 62.4434438855 6.3660671626
3345 1 40.7536403726 46.3246586671 51.1246695455
3346 1 2.7759540503 5.7660972956 3.6999032364
3347 1 17.4384290188 32.1836230495 22.2211188419
3348 1 62.7390985552 7.3430880625 42.3997704942
3349 1 46.6931247551 28.8807812161 45.7141387027
3350 1 28.4902701484 53.4264803469 42.4099111848
3351 1 41.679151603 9.1847256606 18.9297403978
3352 1 27.9054483317 18.1780065925 11.4999524068
3353 1 29.1203156661 38.6224577135 34.4611213877
3354 1 47.5678695468 26.8306610963 54.4789076744
3355 1 9.0015003871 56.1866377676 46.52558291
3356 1 38.9439365021 2.5152501212 60.7167551098
3357 1 47.5831750612 46.091359797 63.7522228332
3358 1 25.5777504256 16.5921537438 4.5618934327
3359 1 46.9439336377 49.2109763569 43.146654404
3360 1 56.2602679996 22.2692398831 55.0973008457
3361 1 59.747909748 23.8391573609 51.031009875
3362 1 2.2224361047 37.9660212058 33.4355259497
3363 1 52.1666412541 10.4560911286 26.1649656972
3364 1 21.1284436802 31.5038818491 55.0828771305
3365 1 32.7323540853 33.0066566175 51.7495502395
3366 1 46.3640876878 39.6564932293 39.0282113099
3367 1 51.3314514544 28.6682676124 32.5414445617
3368 1 15.5004233669 33.9388443275 37.4111175758
3369 1 10.7147102324 3.443772066 54.8178964754
3370 1 22.855132456 14.7238102275 63.659948847
3371 1 36.7024659592 56.3108454814 39.3166226291
3372 1 9.8607507073 41.9173003686 39.8925004827
3373 1 44.8275526077 32.7389045935 57.7016317533
3374 1 6.2125459244 25.4352768716 7.0163436731
3375 1 14.3838766416 15.5486073939 40.086559289
3376 1 21.3976443743 57.0169776717 36.4641912223
3377 1 25.7356554654 19.25972225 60.1596469818
3378 1 54.5454205272 35.0220716407 7.7520539274
3379 1 28.127724712 7.9886280517 53.7715787566
3380 1 13.5376013666 15.1814640046 20.3260694074
3381 1 6.2959515302 6.9695516291 35.9910429738
3382 1 58.0072381566 24.215496656 29.458044754
3383 1 16.0623184048 38.7410597039 26.0570712684
3384 1 51.7106880897 29.6407031566 62.3800173299
3385 1 61.0081897405 43.7930132067 47.7742105561
3386 1 41.0127633617 60.3657360485 51.9312638573
3387 1 35.5403806046 31.4669722547 15.9424567013
3388 1 39.7874404083 3.5508854727 54.9244682055
3389 1 8.3585428098 40.9391961154 4.2896820243
3390 1 36.0602012242 18.7843695036 10.4940714792
3391 1 27.0404663167 38.8462457495 48.9674108248
3392 1 42.7255952931 59.2671402351 29.3681012371
3393 1 11.3271197665 55.6387255454 1.3499802118
3394 1 60.3146546814 23.4732736847 53.828643761
3395 1 36.8640871527 2.0553099648 16.7742452755
3396 1 18.5494959921 43.188413894 4.1239730617
3397 1 8.7557933427 26.416089508 26.606936046
3398 1 14.7305496927 29.3105953331 32.2741334373
3399 1 8.7920730806 51.3242710897 63.8672976268
3400 1 34.1587272528 31.3439612683 11.8968250257
3401 1 27.2859844041 52.7542974253 35.6499126605
3402 1 46.1928926746 56.8049049677 37.2898701878
3403 1 41.106108104 19.1159889828 25.3868409021
3404 1 44.9569251453 42.8578021852 16.0817179869
3405 1 2.2824299421 12.5939502672 6.8112875711
3406 1 24.9269196414 47.3018181355 43.5872390682
3407 1 26.9610414044 26.7589834197 37.5751952099
3408 1 39.8412301586 39.4323272793 63.9522652769
3409 1 12.0003734443 52.6348766213 27.9907938957
3410 1 31.4770499596 10.5787871866 1.7973585089
3411 1 61.4648987327 15.8077933686 55.5764327315
3412 1 26.9119125927 32.7961585549 57.9185543528
3413 1 30.836548823 16.5513390386 5.9664105776
3414 1 36.0435100253 6.8901708068 2.8179717815
3415 1 11.5390664992 29.141037947 57.7871032886
3416 1 14.7862919983 28.6644254874 45.669040973
3417 1 4.8490135459 57.6841217409 23.7938076885
3418 1 42.7651502851 15.8248624814 17.9142856505
3419 1 35.7290226445 29.6961935197 61.3118435884
3420 1 33.1261404071 24.6179749983 31.4993468819
3421 1 36.4868660585 47.0023843265 22.9356281244
3422 1 28.7762880126 53.2898014733 39.5731632063
3423 1 7.2681414304 5.9846323279 3.2510548541
3424 1 50.931555524 29.0546846125 28.4377401112
3425 1 36.4570738432 1.5781451211 61.0153701053
3426 1 30.9452620654 21.5888688262 63.334690919
3427 1 25.4932236752 59.1373897836 9.0865310228
3428 1 47.2310222581 59.1440032775 3.679508481
3429 1 23.1199871398 59.7042606883 63.2984741668
3430 1 25.6155418193 32.622696058 30.3118783078
3431 1 54.7627210407 20.3719229651 43.0504123215
3432 1 3.9023958222 48.183176421 47.600244174
3433 1 49.837116764 4.0887892742 62.006386418
3434 1 23.20785213 61.4182263615 37.6314414007
3435 1 45.175296415 9.2771886037 50.7074525597
3436 1 46.0632052087 24.1365126432 42.1962638394
3437 1 19.8954994625 28.6840770121 20.816223783
3438 1 15.7584126142 18.5243647153 61.5553461348
3439 1 39.3997636952 24.0128718003 13.2313651067
3440 1 57.2369865684 50.4995998946 44.2169696577
3441 1 31.2450737883 0.9671713451 50.0822569374
3442 1 21.4618267578 3.9779534152 3.2413739588
3443 1 30.4763338558 63.1230591146 4.8398743272
3444 1 44.0057157672 5.1966376804 23.8937659247
3445 1 51.3139414421 51.6062578719 1.293645841
3446 1 44.2648387563 8.3076503997 9.7313781697
3447 1 2.6134258633 1.3334376591 59.5729355954
3448 1 20.7334606309 49.232202523 44.3009295373
3449 1 15.2668725542 53.5439485955 20.6374075054
3450 1 45.2904971799 15.652785669 55.0914431797
3451 1 46.6742290583 7.0560687263 21.2799871687
3452 1 21.1481581906 20.217356165 56.2044627083
3453 1 49.9520655863 37.9003901522 15.8847618403
3454 1 32.432605348 30.8030404539 19.0327219455
3455 1 27.2281635719 35.170906746 14.9621479501
3456 1 10.5342563278 31.6656919996 58.6953564492
3457 1 13.5791718996 5.9210168153 2.1179743941
3458 1 48.5037734104 20.8916176134 60.7481849522
3459 1 12.6636124028 53.2803536248 1.634632547
3460 1 39.3624761868 12.7584688009 25.2312033459
3461 1 53.428117974 8.1962917598 46.1383470964
3462 1 60.344383911 42.3992666089 36.7121027646
3463 1 28.2305802884 44.4047298985 28.2141410321
3464 1 56.0645085805 10.2077386866 27.6752357587
3465 1 33.2648978074 15.5487333652 44.451339284
3466 1 14.6441963582 57.0331019997 23.7104776655
3467 1 48.6382477862 30.6652908241 56.6408903193
3468 1 57.6205692139 22.6858270124 43.4181225817
3469 1 56.9816427187 8.3398990556 23.7303811328
3470 1 42.9555559234 7.7624465607 16.9855621516
3471 1 7.5632859162 4.9823919713 39.6913242971
3472 1 56.924262786 54.6917362063 45.6781109074
3473 1 56.0714999883 38.0293847758 19.6061433584
3474 1 52.9972960864 57.5014003526 37.8231067522
3475 1 27.5963777173 52.1025848418 46.9881495682
3476 1 4.9459484706 20.7208634997 17.7769769203
3477 1 17.2912315406 61.8424977409 30.6450094428
3478 1 49.7371585278 11.4797340112 29.1346134101
3479 1 27.4561086612 22.9305262863 56.6535504361
3480 1 30.8114175462 52.5070157395 19.9007902576
3481 1 52.7663276856 8.631018758 50.2700801639
3482 1 52.5069527538 62.4497424511 2.4868309932
3483 1 60.146231037 56.5355783023 4.2646515245
3484 1 37.6424009049 57.5914068552 61.980751256
3485 1 21.2103250331 55.6406781007 56.2706606328
3486 1 30.6074699918 17.0203932194 54.5571358592
3487 1 3.6314630225 58.4868739276 61.6198434466
3488 1 4.660081772 29.5384144512 27.6207531662
3489 1 39.5589284481 54.8963766029 28.3316092807
3490 1 58.7048042977 54.7742474157 40.8275225472
3491 1 32.0433539934 55.3142234453 62.6320229398
3492 1 51.397838336 5.4996553732 11.4457217569
3493 1 39.3815608405 35.6260410968 26.1912937015
3494 1 22.3707727607 37.4307061148 49.3599374335
3495 1 20.7958794161 45.1780677838 51.2335087592
3496 1 5.981136624 9.3661243501 34.7533118462
3497 1 24.2627988837 46.0365622762 62.3837334836
3498 1 1.2339215822 3.3008387167 37.0410768463
3499 1 26.8772704818 7.5680098404 49.6947061956
3500 1 53.4884582325 10.2698425435 9.3517636205
3501 1 37.1414129964 31.8087324245 43.4629683688
3502 1 55.3575575767 11.6450713584 52.5189200285
3503 1 55.1927241147 51.3157050404 53.8368318963
3504 1 35.5427110739 12.6527158843 45.3868022481
3505 1 19.8141219948 13.9980894982 33.8987224645
3506 1 51.6451830074 27.1139075917 20.415697996
3507 1 16.3346053961 22.2271654649 29.5686475661
3508 1 36.8410973883 29.9526081255 58.8399085299
3509 1 12.7257162597 24.2369747647 44.1726277558
3510 1 3.0998766824 9.3565505304 21.8100114646
3511 1 57.8908406642 20.6442099563 19.2624306332
3512 1 6.7838132279 28.6017547596 55.3255608634
3513 1 62.6777505261 15.7546334749 9.0149163318
3514 1 61.7048110967 63.3060954312 41.3127010559
3515 1 61.3887490745 24.0522378354 21.9185987357
3516 1 34.284509608 36.1533570095 1.6495248755
3517 1 33.7679642425 57.2432221484 31.6257590936
3518 1 10.4331643498 28.4575176072 46.2880640009
3519 1 6.9523943364 12.1017173649 38.2199163855
3520 1 58.0097575828 44.3917548533 42.8219003612
3521 1 3.0972438819 9.8848742136 39.9411883948
3522 1 52.2987851605 54.4501862152 45.1001545273
3523 1 24.4157910423 36.1460506734 51.2796772452
3524 1 44.8627615895 61.1861242189 13.9335292007
3525 1 25.0225318673 10.1713329774 31.2923130303
3526 1 11.5908407085 2.232261867 59.589122909
3527 1 25.2597988337 18.9412667729 33.8172190256
3528 1 15.0507057825 47.3104471704 29.9381844103
3529 1 55.7105291933 45.2776481061 48.5622870849
3530 1 7.9025266598 50.8651056568 9.0634782727
3531 1 46.5864270538 45.4952005622 42.7012828298
3532 1 48.8857814146 54.0660996844 3.9176887395
3533 1 25.3807312934 28.4321343878 27.9300757232
3534 1 23.6766543682 22.3160382256 24.4858940775
3535 1 36.015544394 55.7191582282 55.9483630307
3536 1 31.8526334268 43.0784409384 56.8387912507
3537 1 49.8808288093 4.411584463 59.3469430614
3538 1 29.4764365656 13.6511015188 3.547314186
3539 1 57.8454280061 6.3868461305 57.8762909776
3540 1 43.6673568228 20.7711890389 53.3492599326
3541 1 3.2493731371 28.8775059619 52.458390813
3542 1 51.0361746988 8.4294016729 54.1671916624
3543 1 61.7378785661 23.3769686166 45.0666461582
3544 1 3.7439239115 43.2996465626 42.8460238675
3545 1 43.1382143261 25.0627797015 9.5189905374
3546 1 56.6970105388 62.8240032196 53.5957857905
3547 1 2.2445881599 29.6420258554 11.9155947512
3548 1 56.7714595843 46.5113481517 27.6087229059
3549 1 57.9469608837 59.3322674035 33.037141675
3550 1 37.4550815637 62.2750832268 44.9456507129
3551 1 2.627698413 30.5298716635 9.2867624235
3552 1 34.6753985897 17.9882308108 21.5665089182
3553 1 60.1429557829 16.9885224775 2.5568836399
3554 1 43.8835865801 52.8955112662 41.0574831775
3555 1 40.1000382194 23.6428310709 47.634130457
3556 1 46.959806023 28.6455927763 17.6465336265
3557 1 58.6733744553 21.3616795647 47.6838261396
3558 1 46.5289211498 24.2493199533 5.8084677464
3559 1 20.1575197918 4.789636968 12.2866432512
3560 1 8.2155653705 53.2761965715 27.9809051477
3561 1 30.6594961437 5.8889193249 41.9235359486
3562 1 36.4428390849 39.5610699604 36.6834442911
3563 1 46.0381999032 17.9574308249 34.5941470933
3564 1 52.8296912556 18.1414119263 20.842425816
3565 1 27.405972079 44.6659314143 7.91934383
3566 1 16.2321277336 49.3696372246 55.2642128344
3567 1 26.4930579798 14.3217727847 27.5696088135
3568 1 63.5465116804 20.931235591 7.7555181385
3569 1 14.6879713892 56.1685608843 20.9932764623
3570 1 43.5430861233 59.3923557194 51.1700822036
3571 1 43.8459211578 16.6620048364 6.6296558347
3572 1 21.7178634498 13.6277968261 41.3448237405
3573 1 52.3386550808 6.6072077469 40.6901508312
3574 1 30.9429945817 56.0420227013 23.5718462365
3575 1 10.2295947093 25.1495739356 58.4418391835
3576 1 50.0819420092 35.4365802434 45.8813656196
3577 1 56.7094816987 31.7392592459 41.9610124139
3578 1 62.658539901 15.0508947395 53.2170530405
3579 1 26.7835478256 10.4816003193 25.2793243871
3580 1 52.1479345142 31.6682744115 55.0079871854
3581 1 30.5970143729 15.8396011249 43.6319588841
3582 1 40.9961351485 10.8234234748 54.0521798544
3583 1 38.2627466316 60.2467561441 61.8580551979
3584 1 30.0885311714 14.472812388 19.6806553896
3585 1 57.4871655943 51.637372786 49.3060217119
3586 1 30.3878390091 55.401458579 38.9304575717
3587 1 18.8131539484 17.6212133928 13.5508283543
3588 1 51.2047243144 24.9851183876 13.0706257124
3589 1 53.6725653052 11.2591582436 35.4609556923
3590 1 31.4483285005 18.7172267942 32.8559949282
3591 1 43.9648380764 32.5591435311 8.670951664
3592 1 28.5317776957 12.2589925482 41.352067091
3593 1 56.0172063528 32.2216034001 52.4964341493
3594 1 54.6463865339 2.1928706377 56.2411203601
3595 1 32.6839181158 62.8068711211 17.816028027
3596 1 5.8199248373 5.0930703661 28.1398179579
3597 1 48.609526327 30.4799870239 7.2446288849
3598 1 59.6459359708 61.7970850829 36.4437838697
3599 1 17.8822259516 54.9087217914 6.5139070945
3600 1 25.8722083678 6.8759612428 47.2121895469
3601 1 21.4797146842 52.8529959483 42.3756469879
3602 1 44.9243615611 53.4808999538 4.7098215446
3603 1 42.8457719249 47.9083700035 50.5052686037
3604 1 41.4069905831 44.4294832613 47.3343817197
3605 1 62.1895487059 20.0437047112 51.3199250794
3606 1 37.28911436 28.7372998915 9.2209424129
3607 1 43.3015361323 21.1724706538 28.5204402776
3608 1 16.5882486331 54.8811970597 53.7647763057
3609 1 29.5437682319 4.4480342622 26.4436142397
3610 1 2.1803427907 33.3615178038 4.7639199246
3611 1 5.8392110452 19.9482184566 29.2945969765
3612 1 27.6530648078 57.7885519587 17.8203110516
3613 1 33.7571307097 49.4760829833 44.1786743788
3614 1 14.3708386108 46.2075683324 26.3519701101
3615 1 2.2151990528 16.0700656405 53.572796026
3616 1 40.2187661811 24.2767187137 17.5986645279
3617 1 1.2503526503 6.2363545024 31.3100749854
3618 1 60.7956131512 2.5417985753 48.8951032917
3619 1 42.604914776 2.1662717951 31.8690726831
3620 1 3.3256298709 14.4059216213 14.613837272
3621 1 35.3879553169 43.606512679 54.306830862
3622 1 63.3377142305 43.20195581 16.3732785889
3623 1 45.3018975837 45.7521190533 12.6323085317
3624 1 29.1364399941 58.0232994989 53.3748950946
3625 1 35.7575551467 60.3894816408 43.8606598013
3626 1 62.8709275333 28.7969473078 18.4342322414
3627 1 36.7486974308 7.6732588717 33.711466109
3628 1 35.2560003674 29.8819382194 24.6474522853
3629 1 62.3392656104 31.5998090033 24.2205355084
3630 1 53.2620877846 59.2978142496 19.6778840207
3631 1 15.8630947747 38.2238214962 58.7693645951
3632 1 37.2703446344 58.9231755673 36.285689873
3633 1 45.7606851026 40.8941613713 45.4297584655
3634 1 51.6003372202 42.0992029434 15.3979457045
3635 1 26.8275118135 7.6246339452 37.6250168638
3636 1 34.1305726646 61.8118237264 37.5334987055
3637 1 8.5824568172 6.4860044489 59.4414845312
3638 1 9.6574330095 4.2257074934 60.7481219665
3639 1 31.6386081675 31.8150939758 60.4437122907
3640 1 49.7217900277 1.2717917079 12.1527357464
3641 1 39.8402853738 60.6566667939 1.0078742444
3642 1 62.6578470588 50.8719710934 2.1556335178
3643 1 48.5842690789 35.6974668308 2.4961906617
3644 1 58.4992191162 33.2944380801 22.7494425251
3645 1 28.1722555708 61.6537927153 16.5557480346
3646 1 16.2335134181 17.1493248574 33.8179118678
3647 1 56.2433878438 10.6937989946 24.9326513361
3648 1 46.0248469442 46.2119773284 38.1936513669
3649 1 19.7612140437 21.0180928108 24.1630296044
3650 1 15.1068260021 44.5511715489 22.6181804178
3651 1 41.3528859045 7.1867324699 31.3102639423
3652 1 6.6731411316 18.8487408441 22.5023497963
3653 1 8.0102321317 43.95942131 52.3947753004
3654 1 14.524649583 63.1267752683 53.5939592065
3655 1 16.3658462815 23.4368049899 62.1646063861
3656 1 9.2688744971 4.0077771234 12.6866021673
3657 1 32.674533253 10.6662112772 52.9159186188
3658 1 10.6319470803 45.9047962837 5.7747011362
3659 1 6.4017422382 33.4136699271 44.120412647
3660 1 29.3667155527 62.0773082667 9.1607281256
3661 1 46.6152114986 52.628892984 40.5539758428
3662 1 63.0567352188 31.452800482 44.7664565214
3663 1 47.1630607352 57.6686272695 24.0882656307
3664 1 19.1130916427 5.7975649294 31.563781208
3665 1 56.65247968 48.4536368282 45.7526859242
3666 1 23.293386651 57.6512432284 15.680814286
3667 1 28.3573074284 59.1906756487 30.0360011342
3668 1 22.369072148 34.7162132948 38.5361673647
3669 1 38.9504870103 31.4317002872 52.4004440094
3670 1 25.1148688391 32.4782699487 41.1264524709
3671 1 6.0694488124 59.9908454235 19.9671771391
3672 1 26.5506268694 3.5226112117 29.1982919083
3673 1 9.029906918 10.2494981766 40.9923560091
3674 1 49.2886376708 41.5982780206 43.7577412393
3675 1 36.64445617 47.8785777882 5.4018197537
3676 1 54.2303662755 6.5282867198 61.467229202
3677 1 9.2453808474 21.1235937847 38.9613205432
3678 1 5.9608678399 34.9184602365 3.7131176271
3679 1 34.77863208 53.6050446819 48.8255041417
3680 1 7.326333878 55.3979943679 2.6319121534
3681 1 35.1356977643 47.558673641 37.1310203632
3682 1 41.865589145 40.0616799549 40.1131392359
3683 1 43.0813382786 41.6838125415 51.4783969901
3684 1 42.8736115849 49.6632763532 12.6669506426
3685 1 40.6166465706 56.0823965068 55.3818070543
3686 1 52.5016619587 13.6869403571 44.6261244796
3687 1 49.1905060187 17.9988753866 40.6669091242
3688 1 30.78105846 22.8778072922 25.2272352495
3689 1 2.4532659371 52.8245894175 4.7060801966
3690 1 36.6693355041 29.9364837976 5.0736203955
3691 1 19.5988370223 28.4157581172 58.3189541685
3692 1 28.4492664863 62.6199926795 40.0665928361
3693 1 47.9745679281 56.7409115411 32.4610748645
3694 1 47.5957721924 48.8207172318 31.1054975744
3695 1 40.8525278526 57.8274141085 58.6964901911
3696 1 40.382528887 21.5917031807 9.3808629936
3697 1 45.1860039765 55.7961896856 23.570838466
3698 1 36.928143565 56.3335203176 13.4143384376
3699 1 3.0211950008 51.8946691911 40.3554450548
3700 1 59.0110405575 16.3123084738 54.984808464
3701 1 19.551093895 36.0736171689 61.3728137035
3702 1 2.1794924844 37.6413301487 50.5995581308
3703 1 26.7751707333 8.3866973981 34.970927288
3704 1 3.4877360539 31.1453674947 25.6047082864
3705 1 17.4292331131 16.3055690086 22.1955466655
3706 1 10.2402392852 5.532036299 31.0217896375
3707 1 20.7172733173 28.4173327586 38.7432642018
3708 1 37.8470413015 14.3805384019 5.1875929402
3709 1 34.0306144284 10.81624311 23.6091337449
3710 1 49.6608828983 51.0974597421 37.8864703222
3711 1 54.2534190256 12.3316779953 46.6027403387
3712 1 51.484821527 39.9401176387 47.5838679034
3713 1 35.968305152 17.4403185885 61.4611195933
3714 1 45.7704478792 33.225972672 42.6730022703
3715 1 7.6685349475 18.4729054343 47.2260463912
3716 1 49.694265296 47.4902082328 6.8873427508
3717 1 20.405998205 42.4458130088 22.982048553
3718 1 49.3759357902 21.4341130692 10.8265727576
3719 1 44.1439692823 39.1561981631 18.8041469996
3720 1 33.6758162277 39.3997636952 48.127686058
3721 1 47.1475662638 10.5510105123 11.9849419586
3722 1 8.8806309131 46.3732835936 53.3890038816
3723 1 1.2770547893 40.0109135161 9.1949923226
3724 1 9.5056375783 21.4125089891 48.9936128578
3725 1 49.5173385881 22.9823004956 37.0701762194
3726 1 40.7902350388 45.8320478509 43.172100609
3727 1 3.4838120476 3.6963508454 12.4075757109
3728 1 9.4631222605 25.2407771656 53.7627607647
3729 1 8.341851611 55.1301793582 25.7902640292
3730 1 22.8993483865 53.5587502247 3.0718606625
3731 1 50.7795711359 29.6706213433 1.9743670982
3732 1 52.9334916168 25.1050430768 8.565828604
3733 1 40.6931741427 48.6119197819 62.7116997948
3734 1 9.079161701 39.1636934562 45.3822042952
3735 1 52.188812205 29.7601239606 36.8077779762
3736 1 30.6657947093 9.325498602 38.9338587971
3737 1 56.7538865863 47.562704723 50.1274806385
3738 1 48.2548540976 59.1414838513 41.1130995118
3739 1 17.1189027856 16.1697719341 15.12150166
3740 1 10.3094605212 32.9264128917 62.7387836269
3741 1 18.0318168848 31.1449265951 4.6499977684
3742 1 39.2615731657 20.1982085256 7.2713725945
3743 1 54.6929329337 10.1348012969 42.3128502888
3744 1 37.5001792935 4.7799623712 41.1708573584
3745 1 26.1324021131 5.3048533361 42.034075775
3746 1 47.1996554013 3.4478661336 51.1235358037
3747 1 30.6774470557 54.5352798366 25.8704447694
3748 1 28.6574340796 12.6679584131 18.2900580747
3749 1 12.0025779423 11.1467918331 14.8057545661
3750 1 58.0772152205 31.2212652103 30.5063150281
3751 1 21.7893521695 57.4688997541 19.6681842297
3752 1 44.1263962843 63.1425216824 52.1719320492
3753 1 48.0544967256 41.8766116348 13.4923776655
3754 1 33.8771183845 3.2209666062 5.6462985777
3755 1 58.3694686647 34.0774127708 10.8779060673
3756 1 19.000221347 31.0791695702 59.0476982094
3757 1 34.1040557034 5.285976535 61.2494877889
3758 1 50.3454739942 54.9969646956 47.0239254209
3759 1 56.1345486301 61.7555145498 63.1074386719
3760 1 52.7474949744 48.4384572851 55.0428182532
3761 1 39.4502152057 30.2981474348 23.2731052697
3762 1 8.1503122308 48.2154250769 38.1118329997
3763 1 19.5484484975 13.4244161426 46.4385367333
3764 1 17.3906229059 27.778469249 48.4578568672
3765 1 21.7055182612 56.1994868415 23.9831425707
3766 1 53.6796826844 47.606290797 20.3925822602
3767 1 27.4835704073 29.0641324609 56.8140378878
3768 1 37.3151274359 41.7342640521 57.9203179512
3769 1 11.0447550703 17.4501443509 2.6191260652
3770 1 17.3917566477 39.4804483206 60.9332368097
3771 1 39.8234052179 41.9953395965 10.6644476789
3772 1 1.9777935179 39.4006454943 48.4908613509
3773 1 60.5248378157 45.6239432432 13.9713205943
3774 1 19.1252478743 39.2057048888 6.0715525333
3775 1 34.2979255528 30.2448615698 45.3724415185
3776 1 52.5691195964 31.0216636662 24.9928656233
3777 1 47.6201476413 57.4006862885 44.7811321792
3778 1 12.2486629006 11.9352462759 60.158324283
3779 1 55.2997367444 6.5910771203 57.0305825734
3780 1 27.4016890544 39.8048874351 32.6834772162
3781 1 2.3884473984 59.4753708141 50.535249776
3782 1 3.1811911644 58.4516019602 44.8295681487
3783 1 6.9150564395 1.0808714768 55.6973651912
3784 1 54.10023791 63.763056366 10.5328706433
3785 1 59.6887032313 7.2037889855 4.4181916584
3786 1 56.2970516227 31.4919145745 48.1716500459
3787 1 51.2171954743 13.9490236721 62.2097041158
3788 1 21.3204869456 38.7384143063 37.1981000869
3789 1 43.2799320522 8.8322579292 30.5181563315
3790 1 15.099519666 39.8795884232 13.1013627126
3791 1 52.3089888368 5.873374465 7.1604170628
3792 1 26.72780552 43.3536882555 10.1744822602
3793 1 8.9677400754 18.1548278711 27.1916318913
3794 1 43.6229519352 18.9641935517 24.5491316762
3795 1 20.0703476437 57.6949552737 57.4979361415
3796 1 27.5871818115 34.1423509823 12.4890791498
3797 1 16.0336599313 43.5233086273 35.2499537444
3798 1 2.3605069614 37.5223502444 3.8405187136
3799 1 57.035054555 35.3763659562 32.8008194934
3800 1 1.7611102639 43.7916275222 20.2494788496
3801 1 36.7980781852 15.589611056 7.3637473577
3802 1 38.7195186095 53.3830832299 47.6488061148
3803 1 44.21911117 58.0864111263 63.5478343792
3804 1 11.1318642326 49.56936474 21.7431206979
3805 1 55.0943405199 15.9738865437 52.7804994582
3806 1 1.8385826208 59.6818377948 15.1601748528
3807 1 41.0642226427 22.3673085496 34.9137363123
3808 1 31.1265347835 34.3840899303 11.2677242928
3809 1 33.4981336919 32.9153904018 23.6790478231
3810 1 56.2237363191 34.9347105357 52.4117814275
3811 1 21.5630447072 21.9834109758 49.4289067269
3812 1 40.8912640311 2.4404987446 39.5092957511
3813 1 18.9715628735 13.5949183136 41.2982773407
3814 1 4.2870114324 44.9937087685 28.7064999057
3815 1 60.3780182514 46.4188852086 47.965246051
3816 1 2.202551533 55.8543884318 8.5935422927
3817 1 14.6855779343 11.0014839246 56.1357453575
3818 1 18.7971555918 36.4352808062 6.0745128591
3819 1 55.6380327032 20.0559869142 35.0071440402
3820 1 52.0612032658 16.7054649391 18.6180243859
3821 1 11.9866425713 7.3843436673 11.8090230211
3822 1 60.8223190694 2.3041788891 10.9482610452
3823 1 18.530285367 30.2726382441 47.7454261113
3824 1 21.3457441937 39.438247931 19.5246399195
3825 1 60.5482684798 60.7510822923 14.8730232467
3826 1 59.5050370581 30.7932776772 61.4612455646
3827 1 9.7623671125 34.2564180054 34.6526607678
3828 1 13.4096145134 24.0751016286 54.7663112231
3829 1 62.5071853695 11.7110803259 38.4974311862
3830 1 11.563819862 17.6458407843 57.0006014011
3831 1 29.2998247859 46.6349889946 48.9310681013
3832 1 15.4400831084 41.2317015022 51.3934923257
3833 1 23.3511444976 19.8647624623 49.7011307325
3834 1 33.0714058719 43.3269823373 59.3158911329
3835 1 5.1425078076 18.9183399941 59.4152824982
3836 1 22.3868970887 16.1154782986 40.9946234927
3837 1 50.5458313662 49.5783716888 62.6421636305
3838 1 54.5823301216 46.9605618509 44.9414306739
3839 1 6.8342836342 18.7642770793 63.9765777401
3840 1 18.0731984608 36.4833388617 3.4623087446
3841 1 40.8073671372 44.2195520696 11.8596634886
3842 1 17.8816590807 43.1859574534 26.4451258955
3843 1 4.9897109045 41.8210582861 59.9254033268
3844 1 62.4885416153 26.9523493839 52.3099336216
3845 1 22.7500723816 33.9029425035 41.1024549359
3846 1 2.8830359642 23.6736940424 21.5687764019
3847 1 43.2111517158 61.829648667 28.8134495497
3848 1 14.2424108581 37.5600156667 41.5472596392
3849 1 27.6502934389 43.8144913154 30.9089823274
3850 1 29.077296463 34.6274665054 29.3438517595
3851 1 36.2347344772 53.4783175419 59.6871915755
3852 1 5.5373522884 31.0681470804 55.4185276917
3853 1 34.8722917506 32.8398076145 55.9857135247
3854 1 1.1589447169 13.7579881772 41.9692635349
3855 1 47.8802784009 4.7513101962 24.784320116
3856 1 28.1658310339 6.4655782006 33.6306555123
3857 1 36.6678238484 34.538719716 47.6944707155
3858 1 44.643445535 10.9820213568 22.5702483335
3859 1 9.5330993244 53.7023575206 16.6034281762
3860 1 20.7216823133 12.7507215652 8.8404460645
3861 1 17.6666890365 37.8568040782 36.0074192444
3862 1 63.9489270371 59.1936989601 62.1384043531
3863 1 51.8549882278 46.8032866676 33.6514407788
3864 1 51.2674580279 39.0842055582 25.2707583379
3865 1 6.6862925366 27.1954110307 25.1022087222
3866 1 61.2601323648 41.1606536822 42.4593549248
3867 1 56.7621377072 31.506653218 19.0929992184
3868 1 26.9697964106 40.5507005887 22.3409805454
3869 1 28.8662315295 37.6177735134 50.6728734345
3870 1 61.0459811341 1.1648685179 36.2676129897
3871 1 32.587550062 24.5836478157 54.0102943931
3872 1 5.9818987504 11.5778026777 1.7322691319
3873 1 56.289304387 41.72254872 21.7576703844
3874 1 6.4583978358 16.703827312 43.4014943685
3875 1 12.6743199643 37.015315713 34.8372087401
3876 1 56.7518080596 57.9398435046 42.1842965647
3877 1 45.3466803852 60.7696000752 52.7650679725
3878 1 9.2546397389 14.4807485807 50.79676622
3879 1 46.4009342966 63.1321920348 48.0315069612
3880 1 21.2920174291 22.5500929236 43.7370189584
3881 1 34.5695826874 41.4964932004 29.2193291175
3882 1 48.8311728507 14.7101423401 63.5358671046
3883 1 61.7160225435 22.5755391286 19.4530252285
3884 1 32.8366583317 22.6334859322 21.2113957893
3885 1 11.692562543 24.4835006226 34.733030465
3886 1 63.3379031875 19.9505489259 3.3162639038
3887 1 15.5656765066 58.7420918061 32.9393249512
3888 1 56.9824615322 9.3590699566 17.4098965166
3889 1 8.4175603696 40.6824035955 43.2413218451
3890 1 55.8545773888 55.9481110881 34.034519539
3891 1 55.25035599 46.7700302412 58.4072600583
3892 1 20.7245166678 31.8115667791 8.0607466279
3893 1 56.4807177959 35.7162365564 11.7028921906
3894 1 25.6128964217 25.3945881377 50.669661166
3895 1 61.6001919219 18.8006198029 38.5189092949
3896 1 20.6661919503 3.5414376243 35.0892773357
3897 1 2.7210746481 19.1560478601 62.9461953924
3898 1 57.8211155429 13.594666371 22.3059605206
3899 1 38.6880887671 27.9187383051 48.9342803697
3900 1 44.3513180621 40.8770292728 3.1392742102
3901 1 54.6453787634 11.4042771952 60.6348737569
3902 1 9.0975535126 22.4030214166 51.4137737069
3903 1 57.0877735491 54.2993985545 48.2537203558
3904 1 49.9790864328 6.6817449723 55.7808211855
3905 1 7.6583942569 55.6114527563 40.1433723508
3906 1 47.9149205118 60.0906776884 52.5763629468
3907 1 41.4970600713 35.6319617485 47.104484075
3908 1 49.8591617436 25.7471188548 40.273185788
3909 1 36.5084071529 20.7903366784 29.0797529036
3910 1 58.8385228455 22.6160389055 27.5024661041
3911 1 26.0024627046 55.6242388445 29.8751357686
3912 1 23.3018897145 63.4103996777 46.0147692392
3913 1 58.0011285479 39.9374722411 54.4279522786
3914 1 62.3070799401 12.4538071824 52.6022500515
3915 1 40.2702254622 51.8104573689 58.861134696
3916 1 22.8359848165 7.9769757053 39.3939690148
3917 1 33.4371635768 12.9534094064 39.9433299071
3918 1 16.2174520758 28.6805498154 61.7662221114
3919 1 26.3734482189 7.8428162579 25.2638929014
3920 1 46.8359762231 32.3701865628 27.8054271098
3921 1 15.752051063 11.9519374748 63.4913362457
3922 1 47.846392118 32.3980262228 60.6472189455
3923 1 12.4089613953 4.3842108969 25.5983467352
3924 1 20.3808669282 45.8773345376 61.439200585
3925 1 55.3564238349 9.4196621578 53.9841553459
3926 1 29.6400733001 47.1449208662 40.9292443817
3927 1 29.7969075837 17.8215707648 3.6634345416
3928 1 30.3794619168 18.6141822609 43.1753128775
3929 1 7.153526432 41.1432066554 21.2941589414
3930 1 51.3267905159 17.2005951815 42.2120732391
3931 1 35.7612083148 29.081138588 14.4445948141
3932 1 24.6822833532 25.9504365526 28.9794167535
3933 1 30.4191428801 32.2015739615 46.7545357698
3934 1 19.0945738598 19.9252286921 21.5659420473
3935 1 15.1502231192 26.2933304643 6.3587545279
3936 1 50.4558248636 31.8469647178 61.2433151946
3937 1 27.3817226014 57.3024286651 26.0006361205
3938 1 34.0403772051 17.2828544483 10.959283535
3939 1 28.5749858558 39.0630423778 46.6916130994
3940 1 6.9183631865 41.3098037157 55.3414962344
3941 1 52.395027243 16.0560198392 46.0481516369
3942 1 10.3576445481 42.2883488686 25.9037641815
3943 1 57.3489750649 10.0837199298 19.9839943093
3944 1 29.2173135765 28.1721925852 13.296870189
3945 1 49.349418829 42.0051023732 4.9032945844
3946 1 28.8682470705 24.1105625529 28.7168925389
3947 1 48.5098200334 32.12126725 5.0353566095
3948 1 45.8260642136 22.6392176269 22.4435841791
3949 1 42.987678608 27.6856913776 12.7713808604
3950 1 45.682582889 14.4439019719 30.6286961579
3951 1 53.3103977828 33.884361735 49.3870212656
3952 1 36.1600964747 3.4468142732 44.6133383914
3953 1 24.7984918886 53.9227443312 8.3975939166
3954 1 45.658774311 63.051570395 34.9609755543
3955 1 27.179979545 41.7387360336 15.6516519272
3956 1 28.7685407769 53.2961000389 9.7414558747
3957 1 27.028876956 17.798077115 6.6007580157
3958 1 12.3469835097 46.2543666749 36.1127312614
3959 1 51.6280509089 41.835922901 12.692144905
3960 1 10.3774850298 31.6954212293 21.6426585764
3961 1 24.8605327599 53.0383627342 23.8322289387
3962 1 8.1340619316 36.2116817271 39.8361913061
3963 1 9.5916759845 57.9509919657 22.3308398548
3964 1 50.8518786691 31.891054677 3.6403188058
3965 1 45.8940257365 36.6628479816 46.311116751
3966 1 56.0943637815 3.988730261 32.3162708412
3967 1 57.3832392618 29.6342786197 7.7127508781
3968 1 17.3765771046 52.3154133737 48.4070274427
3969 1 20.564596087 39.9646820445 32.0744059219
3970 1 6.1102005319 12.6261989231 19.1401754748
3971 1 44.9065366205 10.2857149289 46.4350725222
3972 1 8.6019193849 12.261952874 57.2145006892
3973 1 15.9095781888 1.8948225131 60.2902792325
3974 1 19.5088305198 7.5679468547 27.9773779509
3975 1 20.7630009036 25.474390964 41.165818506
3976 1 30.4054120071 32.0165221039 5.1732511063
3977 1 12.369091475 24.2958663531 28.3751323691
3978 1 10.6288607832 4.9612476865 50.7503457915
3979 1 13.8411292432 12.39453768 48.0032264016
3980 1 37.4521212379 63.4017076571 47.4412683781
3981 1 54.8289189652 6.4510537083 39.4664025193
3982 1 25.8871989539 33.57283468 16.7967311547
3983 1 33.7100804246 16.5471819853 35.518335625
3984 1 56.9749032535 16.2675256723 25.8148914208
3985 1 44.1374187741 6.8268261325 58.1127391305
3986 1 20.5991122265 62.7086764833 32.7880963909
3987 1 52.7459833187 46.0596150263 27.9364372745
3988 1 38.0823557126 51.2741345074 22.8803267184
3989 1 19.0841182409 25.5748530854 54.5343980374
3990 1 17.0392259306 53.5077948289 8.7701540723
3991 1 19.4009990766 47.1230018579 14.4734422446
3992 1 48.9653322982 49.8873793175 56.6704935776
3993 1 33.0573600706 53.9214846181 20.0758903815
3994 1 60.1705435003 51.8330062338 38.106101305
3995 1 38.9814759531 6.9200386049 60.6991191261
3996 1 39.8877135728 13.6667849472 45.7028642703
3997 1 40.5142948795 45.2928276492 38.9753033588
3998 1 7.6280981563 21.4581106041 34.2903042884
3999 1 63.3615857942 4.1967592859 16.8633699788
4000 1 45.2529577289 37.1489082895 39.5589284481
4001 1 60.0096781346 10.5418146065 23.4561415863
4002 1 34.8116365638 60.9590609287 29.7220806243
4003 1 25.476595462 43.6250304619 58.9969947562
4004 1 59.7002296063 14.024669445 42.0969984454
4005 1 17.4672764493 27.6046918239 6.7706051359
4006 1 47.4056184967 21.9938036091 35.4664354443
4007 1 22.75952023 22.1220424049 35.5614807994
4008 1 46.6457595418 24.5402506987 46.5633743036
4009 1 30.2014644527 34.0408181047 41.833718403
4010 1 49.3183669005 27.9490344057 21.3694268004
4011 1 41.8339703456 61.1032350955 34.2977995815
4012 1 35.0426679502 28.5899134563 22.1196489499
4013 1 58.7623731873 28.9775271838 24.6916052303
4014 1 7.4683665325 30.870057192 19.0531292981
4015 1 3.0976217959 47.1829012168 27.8181502123
4016 1 42.5081688083 11.1210936854 43.1526380413
4017 1 34.3592105961 38.990293945 17.1309330459
4018 1 5.828919189 41.5116097578 18.892704832
4019 1 59.1776376178 10.3041697261 35.9070830943
4020 1 38.3272439434 9.9219097794 53.6115951902
4021 1 51.3497172947 41.8056897861 52.4595875405
4022 1 57.1294700535 19.102950952 11.5851090138
4023 1 45.0355312441 35.1283914282 8.8793082143
4024 1 63.8076502105 34.3529750162 14.5336565318
4025 1 59.2806821512 47.9408076164 14.1685916692
4026 1 26.6474988085 24.8473057721 48.179145339
4027 1 33.3593133059 16.6706968569 47.0314836996
4028 1 61.2812955452 44.7372311769 25.2191100999
4029 1 53.5925105364 9.0940893015 28.1844118024
4030 1 44.3116370988 36.588965807 35.1133378564
4031 1 4.620917291 27.1091836675 62.6477693539
4032 1 28.2936289301 29.902534529 62.8383009635
4033 1 49.065731434 45.5661224109 15.0151188869
4034 1 39.1570799623 36.3069160391 37.1666072589
4035 1 19.0777566896 11.7202132461 6.6473359083
4036 1 27.8241968353 3.4302994342 17.4823300211
4037 1 55.781828956 36.0002388796 35.0781288746
4038 1 52.0136490954 29.3653298683 11.2247050897
4039 1 27.9133845243 62.177077546 43.9732151687
4040 1 24.2795530682 26.18827039 40.848244828
4041 1 47.0278935172 32.2971232018 51.0654630288
4042 1 58.3819398246 58.3057271807 62.6447460424
4043 1 22.839008128 59.5947916181 51.9870691486
4044 1 62.464229152 11.6225224935 23.5152221317
4045 1 50.0261367179 52.1317472006 32.3686749071
4046 1 14.4048508651 25.397296521 17.8977834086
4047 1 46.7822494585 18.2295918448 31.8902358635
4048 1 8.8007021155 1.1782397428 48.4681235291
4049 1 45.9378007675 31.5025591503 10.0935456922
4050 1 36.9809255448 23.9917086199 52.6253657873
4051 1 38.0574133928 27.978826621 46.1816182421
4052 1 56.2403645323 9.6337504028 59.2787925815
4053 1 36.2458199527 50.6777863157 56.8376575089
4054 1 20.0275803833 24.1251122395 59.307640012
4055 1 55.4266528414 59.2296007841 47.4664626405
4056 1 29.3493315116 22.1567475014 2.5040638687
4057 1 43.894231156 11.6817919959 57.7910713849
4058 1 10.3355995685 21.2323070271 62.8735729309
4059 1 56.1888422656 56.3945534183 14.5172802612
4060 1 22.5252765751 12.2320346874 38.9874595905
4061 1 60.8248384956 15.7169680525 31.1325814065
4062 1 44.6444533055 20.1398208224 41.3727263862
4063 1 25.3191313218 14.0909933409 43.8559988627
4064 1 22.0989896547 11.9592438109 43.5389920557
4065 1 42.601261608 31.1786239211 26.1905378736
4066 1 14.0196935782 43.4812971947 63.5271120984
4067 1 30.1592010775 46.2105916439 38.4326189461
4068 1 63.7866130014 20.9016953183 23.5192532137
4069 1 54.2593396773 6.9812795583 20.6698451183
4070 1 22.4399310111 62.5148696195 13.1117553458
4071 1 50.184167729 1.6262472666 63.0753159873
4072 1 9.9682042366 9.4684760412 25.0245474083
4073 1 9.8365012297 63.4946114998 63.7626154664
4074 1 40.683411366 31.7816485924 12.3580059995
4075 1 2.7003523673 17.9265048678 12.4109139506
4076 1 51.532249726 59.0609251971 25.6217773992
4077 1 38.1589462704 40.5935308348 61.9333860426
4078 1 17.1041011564 6.0313739833 47.4487636711
4079 1 60.9807279944 24.2376676069 6.2708769405
4080 1 13.7002303306 13.5859113648 58.5169810712
4081 1 57.4871655943 2.9941426615 20.3678918831
4082 1 50.0762733001 50.7051850761 21.926597914
4083 1 24.7942718497 11.095710466 16.9421650346
4084 1 23.0239969999 36.7098982667 29.116851455
4085 1 32.6885160686 22.5111677881 18.36929403
4086 1 10.4842457168 10.8311707105 38.7612780995
4087 1 10.1297624444 37.1414129964 63.7600960402
4088 1 8.7535888448 31.1181576913 60.9001693403
4089 1 26.8162373811 1.6758591783 43.8431497889
4090 1 58.9872949652 63.8991053832 52.4539818171
4091 1 42.6988893749 36.9240494973 4.1167989955
4092 1 51.5991404928 3.4107234923 15.551882648
4093 1 9.886637812 39.6644924077 58.6697842729
4094 1 60.1109590696 20.5128218777 39.8334829229
4095 1 54.7295275999 40.5583848387 32.9631335291
4096 1 58.6095699857 55.1026546265 2.4529384117
4097 1 36.6721698587 45.2893634381 11.0508646789
4098 1 6.1248069055 60.352823989 52.7726892368
4099 1 61.4208717591 47.4376781957 29.0601013789
4100 1 14.9420555258 18.6542411381 12.5130136991
4101 1 3.7953642968 33.3315996172 52.3531417817
4102 1 60.1382318587 11.5937380487 4.1651026951
4103 1 10.2691497013 34.318395891 8.1276373946
4104 1 8.9705114443 18.050082725 53.6945472992
4105 1 62.2466137103 50.5775131512 6.3312738861
4106 1 36.6867825309 21.6873154066 62.3861899242
4107 1 14.0676256625 29.8055996043 37.094425697
4108 1 1.6844315261 9.3083035178 10.6880043142
4109 1 23.3804958133 50.8287629333 34.1558928983
4110 1 59.5465446055 30.5420908808 4.6778500255
4111 1 40.6027897263 12.2904853762 47.8775700177
4112 1 59.3694289406 60.9184351806 3.3528522714
4113 1 19.4810538455 10.1225820796 60.2934285153
4114 1 19.3342342812 24.3534982284 43.1428752646
4115 1 48.6772988929 5.7446821725 29.1598076725
4116 1 58.8232173311 29.9995324393 45.4991056729
4117 1 17.3312904178 17.9755077082 11.2972015798
4118 1 42.6588304976 51.0716986088 17.0218418895
4119 1 46.4572434731 57.0258586492 40.9447388531
4120 1 23.2964729481 39.7332097584 38.8220592576
4121 1 34.7155204526 19.8100279272 61.8141541956
4122 1 49.7084370686 36.1173292143 49.6029990803
4123 1 41.6979843142 36.0620278082 62.6375656776
4124 1 61.7483971707 13.1139598438 59.7027490326
4125 1 19.8269710687 56.4140789717 14.1267691935
4126 1 24.1321036473 59.3156391903 47.443661833
4127 1 57.5364203774 31.9030219517 15.6270245357
4128 1 4.8522699044 51.9281145745 34.9079416319
4129 1 37.7800245634 13.8529705466 1.0010771284
4130 1 4.0520119496 48.2864099113 36.2182322353
4131 1 14.5154536772 53.4950717264 28.6717318235
4132 1 26.7039339563 49.7309229478 53.2042039666
4133 1 9.3251836737 27.7499367468 58.6854677012
4134 1 17.6858996616 27.1923877192 37.3335192475
4135 1 41.1922094958 56.7574767687 43.9116151971
4136 1 59.432729525 51.2787324603 16.0212517571
4137 1 16.9548251515 47.6047161556 61.3319360127
4138 1 23.2509343188 19.4797941324 52.4331335649
4139 1 33.668257949 37.5017539349 41.8261601243
4140 1 19.0329109025 30.1987560695 33.3054605699
4141 1 42.9643739153 14.0896076564 7.2438919528
4142 1 47.8533835258 23.5719092221 10.3455513021
4143 1 31.7922301826 44.014911673 8.8573262203
4144 1 58.5203822967 31.1732071547 52.9219022561
4145 1 21.6544368941 20.0777169655 39.3233620943
4146 1 9.4835925987 38.8107218395 61.4939351201
4147 1 36.6160496391 10.4523119892 6.4257082803
4148 1 28.672739594 21.4596222599 8.3824143735
4149 1 42.3156846433 36.844435628 43.2434633574
4150 1 27.5098984115 19.4864076262 62.1436321626
4151 1 12.5059593057 7.3684712819 22.1387965894
4152 1 19.9948278421 40.2807440667 42.1739669171
4153 1 44.8755476777 55.2627011786 35.5004476986
4154 1 53.6893824754 57.7049699931 33.2683620185
4155 1 21.3093384845 60.0561615488 56.8646153697
4156 1 58.1575849176 50.3374748159 27.7171842057
4157 1 44.5981588483 24.0535605342 18.4605602457
4158 1 2.8017592736 54.7674449649 11.2977054651
4159 1 48.6223754008 28.7981440353 33.3065313261
4160 1 29.9509704985 11.2311926123 22.2771760758
4161 1 16.2029023892 63.2225764512 58.1284225589
4162 1 12.3889949423 28.5884018005 44.4386791671
4163 1 56.2261927596 29.3156341856 36.5039351713
4164 1 14.7520907871 31.4907808327 54.2694803679
4165 1 18.9030974653 3.8030044569 18.1038724753
4166 1 47.3334369348 6.1667553525 4.6961788515
4167 1 35.9440556744 30.3242864821 39.3744434614
4168 1 9.531146769 13.5181387988 63.9307241825
4169 1 37.1666702445 6.7660386758 55.6456539676
4170 1 44.5830422909 57.3118765135 30.0614473393
4171 1 41.1867927294 33.5177222309 59.1020548305
4172 1 5.3672028371 8.6807144407 8.8444771465
4173 1 40.0690492766 50.7558885292 9.5618837692
4174 1 36.1100228782 2.5827077589 50.6506394979
4175 1 16.4583092246 3.5935960461 10.179647084
4176 1 31.0190182686 39.163000614 51.6621261489
4177 1 44.8120581364 18.5021937644 8.8187160131
4178 1 23.3412557496 40.6705622922 29.2476096771
4179 1 40.205980093 16.5088237208 59.9366777593
4180 1 4.3458085424 46.5702397401 62.2926562249
4181 1 41.2654618139 35.1051497211 41.0964712986
4182 1 9.678218276 9.5902903001 50.2724106331
4183 1 38.3700112039 55.7064981113 41.3304630109
4184 1 53.00579915 12.3489990507 31.3547318155
4185 1 47.0933985995 47.1306231223 23.6394298455
4186 1 12.8896679225 44.7043526645 32.041968309
4187 1 7.9439712215 61.5693289505 40.3628143766
4188 1 56.9742104112 58.7679159251 51.5803077816
4189 1 20.8221444347 25.575671899 25.8497854742
4190 1 50.1883877679 34.1443665233 12.523469318
4191 1 26.3043529542 34.5930133515 47.3774639084
4192 1 25.168910532 45.6160700362 6.6088768667
4193 1 51.8646880188 54.1313528241 63.4181469134
4194 1 17.8237122771 50.3854069001 34.3714298134
4195 1 15.4048741267 40.7794015059 46.4704704609
4196 1 38.4884242374 38.4085584254 45.2765143643
4197 1 1.8151141654 42.6202202905 10.0727604257
4198 1 51.9612450296 34.5908718392 57.6693201117
4199 1 1.9939367415 33.071216915 54.2607883474
4200 1 50.7170893651 21.1302702642 1.5452363755
4201 1 47.802617087 27.9209428031 11.4082452915
4202 1 36.72942382 39.2770676371 6.3402178493
4203 1 11.0853178328 54.3254746162 42.3861026068
4204 1 59.4291393426 53.9101472 29.3134926733
4205 1 43.1846977402 32.3847362494 63.6586891339
4206 1 37.1616313921 56.1053862713 20.9743177798
4207 1 39.012086982 3.9987890702 5.5946251455
4208 1 41.0247306363 10.9509064427 51.3415921451
4209 1 58.8009833945 43.5624857054 25.0471592588
4210 1 10.1138270734 59.7351866455 15.2869649785
4211 1 39.4496483348 48.4017996333 52.468468518
4212 1 2.2908763186 35.5628034981 16.3793252119
4213 1 38.3814745933 32.4883476536 36.2383876452
4214 1 56.3726973957 31.9277123289 58.6287806108
4215 1 40.0359818072 41.2262847358 38.1360824772
4216 1 62.2024607654 29.6027857917 28.4656427568
4217 1 23.2123241116 36.935827815 2.5078304109
4218 1 39.4279182834 56.1146451627 60.5040525492
4219 1 63.9307871682 14.332354375 27.816197657
4220 1 19.8833432309 20.5070271973 45.575633245
4221 1 59.793133449 49.7242464683 10.3321353574
4222 1 12.9992629641 37.142042853 30.7113333387
4223 1 51.4229696127 17.261124397 22.993763885
4224 1 46.9046935739 47.6177541864 20.9914498782
4225 1 34.5768260379 49.9290128362 61.8389075585
4226 1 49.6941393247 19.0143301339 4.9183733504
4227 1 7.5310372603 54.0578485635 46.0480256656
4228 1 7.5545938956 5.9078654103 13.6000831374
4229 1 59.9801378619 25.9440750014 13.7374548533
4230 1 45.5008062856 43.6589167449 49.1566827214
4231 1 45.7652200698 49.0456390097 45.702360385
4232 1 24.5919619223 29.0662109876 25.4636204168
4233 1 14.1253205234 45.2343139747 34.4657823262
4234 1 61.9419520918 15.8171152457 50.6442779466
4235 1 61.1400187186 19.5087675342 15.2943343003
4236 1 60.9445742278 36.6542819323 43.3186052451
4237 1 17.4595921993 13.2688415721 53.2178088684
4238 1 49.5922915188 47.6440821906 27.4346305525
4239 1 15.9982619926 49.5052453421 6.233677612
4240 1 1.5817649067 23.0102661269 54.3159007964
4241 1 13.8857230877 3.0034078515 29.4442508953
4242 1 47.3089355146 23.9047884145 50.9717403726
4243 1 56.6320723274 42.7317049017 39.3086864365
4244 1 63.927700871 63.5971521479 36.1775435015
4245 1 35.6446218654 40.5423234964 62.9175999045
4246 1 5.5305372404 36.7742696072 17.9641073045
4247 1 55.9593855205 28.2633958152 32.2325629043
4248 1 26.1670442239 3.0299437084 37.5928941792
4249 1 30.8032923965 5.424985878 29.985486638
4250 1 13.1771344568 27.5951809898 5.0464672792
4251 1 30.7973087592 52.0475983641 11.0940098533
4252 1 35.4401074401 40.9259061419 46.8281030161
4253 1 54.9663536668 52.8203063928 56.3735791949
4254 1 37.0898277441 3.6581752393 37.3105924687
4255 1 47.3699686154 41.6704595825 50.1214970012
4256 1 45.0244457687 17.8375691214 50.6020775571
4257 1 48.0599764777 40.9605482528 18.0502086963
4258 1 15.0228661226 55.5752360041 37.1664812876
4259 1 47.1355360034 43.7928872353 37.8708498795
4260 1 6.5565105923 53.0842162918 53.5815510322
4261 1 23.4830994471 41.4874862515 1.3019385325
4262 1 5.8844347462 15.5048953485 56.1287539497
4263 1 33.9452688644 16.3866945336 51.0294982192
4264 1 52.1862297931 57.2342151995 60.4055429831
4265 1 7.8972358647 40.9698701299 29.1278739449
4266 1 42.3008830141 35.8282880385 12.7550675754
4267 1 35.9403395207 61.6180798483 21.3984002022
4268 1 54.0041847845 11.0191199083 50.2795280123
4269 1 37.5275150682 43.7375858293 20.5737919928
4270 1 58.4872518416 33.47539587 37.7582945121
4271 1 42.8387175314 46.6383272344 18.2476687281
4272 1 8.609414678 46.8127975017 17.3836944837
4273 1 13.271235027 52.7180176874 6.2582609136
4274 1 61.8342466199 52.6067220331 25.1582659561
4275 1 62.5791779744 41.2321424018 35.6776263492
4276 1 46.9690019288 47.017500884 47.0076121359
4277 1 61.1678583786 20.9697198269 54.7106948887
4278 1 37.4630177564 23.3781023584 46.8207336944
4279 1 38.8071946428 49.8727036597 35.4585622373
4280 1 50.4987180954 11.9138941385 50.1675395158
4281 1 4.744759688 36.239899301 15.4177232005
4282 1 52.242475984 9.6178150318 18.1268622398
4283 1 22.7512691091 12.4395724241 29.426174012
4284 1 63.7503962492 20.405998205 53.8081104371
4285 1 39.8269324147 1.8256012771 63.1161306925
4286 1 9.5246592465 29.2731818534 22.7570637894
4287 1 39.632747637 13.0504703025 55.1776075572
4288 1 10.1095440488 9.8250378403 47.6288396619
4289 1 43.0232025181 8.2500815101 63.1204767027
4290 1 24.2156226273 55.6217824039 11.9512446326
4291 1 63.826608893 19.5561327475 11.4363998798
4292 1 35.6427952814 49.0926892948 7.6224294472
4293 1 31.3505117766 62.5407567242 11.1171255891
4294 1 21.8067362105 15.8693303546 32.8879916414
4295 1 45.9129214333 2.6189308097 28.107758259
4296 1 33.7694129126 8.4636028842 45.4792651912
4297 1 16.1322324831 63.0710959484 6.4868484567
4298 1 10.897935506 13.9016584587 42.9147412183
4299 1 48.5374077508 41.8068865135 52.7985763415
4300 1 29.9485770436 51.4338031456 54.8522866436
4301 1 14.2168386817 10.2755112526 24.9668525473
4302 1 43.6055049085 9.0801064859 27.7765796793
4303 1 62.0421622707 26.660221911 56.2744397722
4304 1 61.0190232733 8.2660798667 55.9380333831
4305 1 29.9898956339 14.1008191032 22.3027482522
4306 1 41.883162143 24.2457297709 3.3762073527
4307 1 7.2265771959 41.0365719397 39.7387524962
4308 1 40.1833682424 47.6289656332 33.1018909295
4309 1 61.9275283766 27.2258331026 9.7974501229
4310 1 41.7367834783 52.3333642857 24.853919266
4311 1 53.3859805701 21.1796510186 1.8653893161
4312 1 35.7863395916 43.6137560295 58.851245948
4313 1 23.5743656627 22.2867498955 18.9204185207
4314 1 50.0220426502 25.0891077058 15.4906605903
4315 1 29.9898326483 36.535490985 43.0301939259
4316 1 12.5213278057 1.6318095299 33.6773278834
4317 1 7.7749177206 23.9035287014 13.5733772192
4318 1 48.7593062172 9.9505682529 58.044714622
4319 1 62.113525019 36.0694601156 10.3508420973
4320 1 2.3733686323 20.6329985095 16.6138208095
4321 1 47.7992158615 50.5814812475 12.9992629641
4322 1 16.3147019287 3.8420492651 37.9829013617
4323 1 59.0846078038 51.4052076577 60.1581983117
4324 1 34.5373340315 13.2044072459 60.6428099496
4325 1 17.5481500317 43.487658746 12.408646467
4326 1 14.8655279537 24.8465499442 38.8161386059
4327 1 21.4542054935 16.5523468091 30.2849834327
4328 1 7.1182544646 14.0409197443 46.8917815144
4329 1 25.9687023929 46.7856506839 33.9746201801
4330 1 41.6292669634 49.7678325423 43.5523450148
4331 1 27.5283532087 18.5692105024 58.2948306622
4332 1 2.6261489659 55.9864693526 45.9000723595
4333 1 8.8362260255 61.8263734129 30.7019484759
4334 1 48.3187215529 43.1234126969 7.2766759868
4335 1 30.392248005 57.9779498265 5.0625349201
4336 1 26.5442023325 43.9814662896 46.5301808629
4337 1 55.060076323 47.9521450345 61.0080637692
4338 1 58.0750107225 26.8166782807 62.2299225114
4339 1 17.4664576358 62.7688907705 49.9623952339
4340 1 37.2513229663 57.5126747851 48.5836392224
4341 1 4.506283397 48.6266584255 31.7042392211
4342 1 61.5330492126 34.6323164009 3.5123067584
4343 1 14.4958651381 63.8535037682 38.480614016
4344 1 6.6774178577 9.4638780884 16.1942103687
4345 1 51.6344124602 19.888634026 50.1910331655
4346 1 41.6302117482 31.3597076824 44.1668330755
4347 1 25.7617945127 27.0822887924 13.8343267924
4348 1 49.4168764666 54.944875558 62.5681554846
4349 1 15.0016399565 11.163671989 27.4340006959
4350 1 39.4217456891 21.639635265 17.6755070283
4351 1 11.7094426989 42.050200103 21.7139583391
4352 1 41.9994336642 32.8604669097 15.8323577745
4353 1 49.1400545082 61.6181428339 60.8255313378
4354 1 57.4959206005 28.6117694789 22.1003753392
4355 1 36.7844102978 13.3634460275 11.9961534053
4356 1 4.7220722547 58.9466062313 38.2976406851
4357 1 24.7091152426 48.3822110942 57.0341097702
4358 1 10.3709975072 11.8274778184 12.4983380413
4359 1 34.5916276671 32.6693684292 44.0210842673
4360 1 7.4172851654 43.1695181971 22.8803267184
4361 1 45.9389345093 6.7955600528 25.0683224393
4362 1 39.0648059761 16.0597359929 8.841642792
4363 1 2.2654553078 43.2245046749 47.1657061327
4364 1 41.935188295 53.6016434565 28.9420662594
4365 1 11.6665494671 11.7765854083 10.0385592144
4366 1 15.2794696854 1.2623174055 16.7781503862
4367 1 51.7675011515 30.8153856425 20.2468964377
4368 1 19.5230652781 62.2482513373 61.7945656566
4369 1 18.9257093158 28.6085572105 4.8663471985
4370 1 54.5331383242 31.5955259787 50.2930069427
4371 1 21.5035862478 47.2062688952 25.7200980084
4372 1 9.5995491915 44.5558954731 40.0912202276
4373 1 54.6167202899 31.5416102571 40.2665093085
4374 1 13.9522359405 36.9830040714 25.7930983838
4375 1 7.8147246552 34.8201396273 27.6518680803
4376 1 32.7553438497 28.7451101129 20.6472332678
4377 1 46.8915925575 15.597106349 43.8309935573
4378 1 30.4862855895 38.1610247971 14.1123454783
4379 1 12.3621630528 5.9405486672 32.6887680113
4380 1 61.6834589593 58.6239937009 9.1825841483
4381 1 15.0236849361 4.5387776969 19.3064576068
4382 1 1.7860273894 55.0577458537 20.1687312385
4383 1 13.7303374742 3.0120872749 47.6537819817
4384 1 14.5344753453 24.8449753028 48.0627478466
4385 1 62.7434445654 61.7713239495 29.2927703925
4386 1 32.194708525 27.1923877192 50.4902150319
4387 1 23.6450985545 26.1691227505 2.1586190379
4388 1 31.2615130445 60.0567284197 35.2518433141
4389 1 38.7251873186 45.0473725475 18.3997161019
4390 1 54.6157125194 13.9904682338 41.4778494462
4391 1 42.3501377972 28.8087886112 52.4849707599
4392 1 11.7738140394 13.4312815791 62.3940631312
4393 1 8.3717068119 43.273192587 44.1730056698
4394 1 14.7593341375 9.174207056 40.263108083
4395 1 36.7066859982 38.443074565 8.9759282107
4396 1 53.3114055533 5.2970998019 53.214218686
4397 1 33.6069099199 10.7943870874 12.5729130581
4398 1 20.9910719643 14.4081891049 59.1239108532
4399 1 37.3590914239 27.2117243156 18.3888825691
4400 1 6.561763596 52.7625485462 60.2645180991
4401 1 7.1217249742 11.2034159379 5.7740649811
4402 1 17.3629092172 59.0829701768 38.7236126771
4403 1 14.02082732 33.6494882234 19.9661693686
4404 1 17.8187993959 59.45817573 34.4735295619
4405 1 5.2497030957 43.741301983 52.3217119393
4406 1 8.7118293548 50.4578404046 31.7545017747
4407 1 34.899501554 33.3252380659 32.2626700479
4408 1 22.2231343829 53.0958686382 7.9102738955
4409 1 26.7225147249 21.7338618064 16.7145348735
4410 1 34.0485023547 22.1536612042 39.6096948869
4411 1 25.9773314278 3.1595303972 51.2976281571
4412 1 1.8815262411 49.9591199798 36.4282264127
4413 1 25.6045823151 47.0020693982 38.315969511
4414 1 63.7259578146 47.1552505138 44.8231436118
4415 1 18.5459687953 61.0859770257 53.6965628402
4416 1 47.9680174198 44.4452296754 35.4805442313
4417 1 20.4539302893 55.2313343219 51.1080413323
4418 1 7.8743720715 7.0845445415 21.6871264496
4419 1 21.0802596533 19.6912999655 16.3889620173
4420 1 5.2732093425 10.0840348581 41.5049962639
4421 1 48.8067974018 40.6994097227 28.6242406388
4422 1 25.9517592514 39.9327483169 52.3996251959
4423 1 44.1303643806 56.0253944881 26.1686188653
4424 1 23.4849890168 15.3367236468 51.4088608258
4425 1 27.6266108322 24.0889584729 42.0573174821
4426 1 46.2297392834 26.7281204482 24.2481862115
4427 1 43.2345823799 38.7892437308 9.8712063262
4428 1 6.0768748212 42.8656124065 34.4546968508
4429 1 29.8813713485 45.3051098521 33.6991839061
4430 1 51.4445107071 13.2288456805 21.3417760974
4431 1 37.5176263202 10.2059121026 17.6664370938
4432 1 9.8198100309 24.228849615 9.7599736576
4433 1 14.6453301 6.8869459412 28.3654955637
4434 1 37.2482366692 50.2313439854 1.7841945068
4435 1 29.9764167035 63.709581544 38.1032669504
4436 1 19.9055771674 27.0001554969 35.5925957135
4437 1 37.116596648 54.9530007077 49.3021166012
4438 1 30.729221265 50.7463147095 36.2669201475
4439 1 24.9674194182 9.9467261279 60.4408149505
4440 1 63.0249274625 14.0700191174 48.7035009259
4441 1 14.8308228572 49.5000175326 20.3144170611
4442 1 40.6928592145 8.5358474317 39.8616375112
4443 1 37.4152116434 5.1290792657 26.3670866676
4444 1 55.9908153629 49.6281933428 48.3216188931
4445 1 1.9424144749 42.2907423235 36.3523286971
4446 1 40.9403298572 35.2434032362 33.1688446819
4447 1 55.9195156002 60.5465048814 49.7723045239
4448 1 2.2409790818 50.13050395 22.5467546838
4449 1 5.8670129138 36.2315222087 33.1777886451
4450 1 41.036697911 55.5845578812 4.1446953425
4451 1 48.0832811705 43.8539833217 26.4152077088
4452 1 48.9945576426 59.7119449384 11.5874394831
4453 1 30.4712950034 54.7387235057 30.1287160199
4454 1 35.1932666539 1.6564658948 48.3260908746
4455 1 11.1265104519 56.781222361 52.109513264
4456 1 20.7624970184 34.8195097708 26.3596543602
4457 1 15.4007170734 19.261548834 37.5891150399
4458 1 43.8968765535 32.9028562563 44.6423747789
4459 1 41.7136047569 56.1926843906 48.6460580075
4460 1 49.5446113771 19.6370693156 16.6593594388
4461 1 10.8783469669 42.1965787677 59.2490003662
4462 1 58.5592444465 12.4149450326 24.6978408102
4463 1 29.180592939 59.592965034 55.6242388445
4464 1 35.7606414439 15.9898849003 14.9307810934
4465 1 45.167423208 50.7860586585 36.8643390954
4466 1 49.5542481825 11.8364217815 8.1728610957
4467 1 14.1927781611 9.7425266308 15.6944191877
4468 1 3.6485258368 63.0915662866 31.7414007582
4469 1 5.1664675511 21.0044879091 44.3785908512
4470 1 38.2936096031 56.5139742223 36.9263799666
4471 1 23.217740878 61.9687839813 33.3470940886
4472 1 12.5352476357 23.3496328418 32.3400164336
4473 1 15.6578245215 33.8085899907 42.3427054898
4474 1 29.4949543485 26.4802089059 27.707043515
4475 1 41.4063607265 56.1572234662 21.1802808752
4476 1 37.9177112076 37.054870705 5.2384979474
4477 1 6.3844967655 24.6994784373 37.4300132726
4478 1 30.6177366537 37.4463265575 7.2744651902
4479 1 37.9750911403 12.7832851494 59.2956727373
4480 1 33.9363878869 46.5038528586 56.8789131136
4481 1 46.8386846063 39.3596418322 34.2360736385
4482 1 45.2128988516 2.8775562121 2.3557767386
4483 1 58.2358760882 40.9325826215 7.931437076
4484 1 46.8795622971 20.9511390584 31.2337363702
4485 1 29.7639660856 42.9368491836 24.5071202436
4486 1 26.5199528549 33.8155813985 39.2022406777
4487 1 42.1057534516 27.8679088807 17.4224936479
4488 1 11.5019679478 41.3830560338 37.7769382663
4489 1 39.0809303041 12.6202152858 41.7670795789
4490 1 33.5491520733 9.8817249308 35.5455454284
4491 1 42.6163151798 62.6355501366 8.8878112779
4492 1 59.0252753158 6.9960182018 45.3048579095
4493 1 35.4581843234 48.3815812377 45.8920731811
4494 1 30.8703091346 47.2092292211 14.6297096573
4495 1 12.5251699308 25.8723343391 13.8251938722
4496 1 9.2364368843 13.4858271573 32.3543771631
4497 1 44.6409890944 11.4453438429 41.4990126266
4498 1 10.231484279 11.902808663 16.9686190101
4499 1 2.9139430256 60.7820082495 56.3819562871
4500 1 51.5592705725 3.337068066 27.4680129502
4501 1 59.0612401254 18.0818274957 19.2009566329
4502 1 32.8068661164 18.2282691461 6.90987272
4503 1 11.3868301684 50.8793404151 1.762470754
4504 1 45.2963548459 53.5726700547 31.3391743585
4505 1 7.7848064686 45.0539860414 60.7555542739
4506 1 17.5872011385 12.0963005985 23.2793408497
4507 1 59.6703114197 44.2933082729 20.4563867299
4508 1 61.8285149252 26.6531675175 17.2744773561
4509 1 1.0326091587 7.3330733432 62.9384481567
4510 1 46.9818510026 27.4430076447 13.8474907945
4511 1 36.5381363825 25.7808791665 45.6910859526
4512 1 51.4355667439 18.2820588964 11.8712528493
4513 1 9.3009341961 13.9806424714 26.0704872131
4514 1 38.9080346781 8.7584387403 19.4925802205
4515 1 38.6124429942 61.9541713091 24.6058187667
4516 1 4.7901849432 28.0241762934 32.4835607438
4517 1 54.3025478373 49.0226492452 25.149133036
4518 1 50.2155345857 10.6087053732 55.7966305852
4519 1 13.8554269871 24.8441564893 20.6606492125
4520 1 36.3331810576 55.7657046281 43.1557873241
4521 1 3.3373703972 8.9670472332 62.8956179105
4522 1 39.3317391866 30.1529025119 20.5067752547
4523 1 19.8818945608 62.7193210592 14.2221924625
4524 1 62.1184379002 58.7904018043 60.0885361761
4525 1 5.9268303913 22.7513320947 29.3156341856
4526 1 63.7608518681 62.698661764 11.5194149745
4527 1 35.5683462359 3.4513870318 62.9235835418
4528 1 23.3974389548 59.1322249598 25.284111297
4529 1 62.2372918332 46.7106347675 23.7709438953
4530 1 41.7392399189 17.4335791233 5.0898517991
4531 1 21.4962799117 32.1040091802 23.1873188061
4532 1 58.6642415351 3.2470867578 9.5757406136
4533 1 30.1416910651 14.2342857085 33.9873432826
4534 1 59.6368660363 29.9544347096 15.2756275604
4535 1 10.7379519395 25.1229310031 39.2790201925
4536 1 42.3996445229 45.9984559543 45.3828341517
4537 1 17.2739734708 28.2904166616 32.2745113512
4538 1 30.8817095384 3.2826358621 11.9073436303
4539 1 2.923434964 20.1292392322 25.0224688816
4540 1 44.3911879824 60.5083985595 19.1528985773
4541 1 4.8813881732 58.6330006497 51.1198826357
4542 1 12.0983791252 57.9610696707 14.6637848973
4543 1 54.0072710816 51.6487102041 1.7936045638
4544 1 52.3803515851 47.7196649779 61.8213975461
4545 1 9.0475429017 41.5915385554 53.4211265662
4546 1 54.8212347152 37.7573497272 7.5528302973
4547 1 1.047691074 30.5253366963 40.3841035284
4548 1 22.1094452736 20.59848237 42.0301076787
4549 1 53.3879961111 19.6099854835 38.9514947808
4550 1 33.9726676248 57.3569112576 2.9214320201
4551 1 4.5891599232 4.5462666914 7.852138135
4552 1 44.4759666755 42.6970627909 33.0935768229
4553 1 59.9337174334 61.0374150849 33.8591674725
4554 1 50.1478879911 31.6259480506 24.1184987456
4555 1 27.3024236604 33.9315379914 19.0227072262
4556 1 22.855132456 42.1960748824 44.7471199249
4557 1 17.8715813757 41.0302103884 22.6800323321
4558 1 28.9926437413 50.183978772 4.8323349442
4559 1 15.0640587416 36.8373812346 61.3426435742
4560 1 14.8015345271 51.9822192531 49.05766927
4561 1 10.5117704485 14.4199044369 13.1314068705
4562 1 17.4127938568 5.3319182725 3.7567666867
4563 1 29.7486605712 28.4765392753 58.575998631
4564 1 10.1553976064 30.7445897651 16.009536425
4565 1 62.7114478521 38.9045074814 29.5485551418
4566 1 6.7027821814 54.7421877168 9.7859867335
4567 1 13.3813339538 37.8961701132 12.3306072391
4568 1 54.0079009382 42.0867947691 25.3444515555
4569 1 19.6000967355 59.7189993318 40.2147350992
4570 1 13.935670713 55.8669225774 46.4437645427
4571 1 44.2252207787 17.7499560738 60.2495904986
4572 1 61.7497828551 24.2158115842 34.5654886198
4573 1 22.9051430669 24.0294370279 8.2645052253
4574 1 31.222965823 18.5961683632 50.2952744263
4575 1 54.5665837076 4.1186633709 23.9364072139
4576 1 54.3775007681 44.2619414162 41.6804743018
4577 1 57.8708112255 12.8210135574 52.2148882666
4578 1 16.7905585604 55.240656199 56.4355570805
4579 1 37.580297048 56.6435987025 1.5866878656
4580 1 47.9639863379 42.3576960759 46.0799593932
4581 1 51.6050611445 7.7865070813 12.89231332
4582 1 0.9644948326 25.2214405692 50.5275655259
4583 1 20.3870395225 32.6584719107 18.7218877328
4584 1 22.1956726368 32.4317865345 37.2268215461
4585 1 39.7093381948 31.6447807618 16.5162560282
4586 1 2.9907036447 44.9693963052 33.1595857905
4587 1 8.4940879417 57.0149621307 28.1455496526
4588 1 12.7049939789 18.2790985705 10.9842258548
4589 1 52.3172399577 36.4077560744 22.7063603363
4590 1 47.1967580612 27.2755917709 19.8858626571
4591 1 36.1463656017 19.9931272294 54.8410751968
4592 1 15.6204740274 61.0627983043 61.7769926586
4593 1 8.3776904493 23.7611811187 39.0012534491
4594 1 2.3103325877 39.7243287809 25.4734461792
4595 1 3.5536442445 15.1448693384 57.4432016064
4596 1 52.0966641902 62.0265418279 40.6135602735
4597 1 8.7188837483 54.7876003748 7.8979287069
4598 1 34.1257227691 36.5329715587 51.429142207
4599 1 53.8305333307 18.8271997497 31.1972046897
4600 1 40.0522321065 42.2561002127 8.0221364207
4601 1 10.1750491311 8.4097501482 37.3472501205
4602 1 17.9230406567 2.7696869775 53.3368517583
4603 1 42.0665133879 9.7585249875 37.800620873
4604 1 43.7317911489 53.3095159836 8.406852808
4605 1 41.9016799259 36.0580597119 22.192712311
4606 1 63.0469094564 35.9176646845 23.9527834844
4607 1 22.8050588594 25.3047705922 4.5726072928
4608 1 59.517697175 9.4807582442 5.9778802656
4609 1 13.1239115774 22.5927971984 6.2185673532
4610 1 32.6395132282 24.5753337091 51.2898179358
4611 1 30.4165604682 3.9282010455 43.6214402795
4612 1 59.6579662311 37.8048409119 34.5965405482
4613 1 23.174154804 8.0990419068 14.9159164785
4614 1 49.5507839714 46.8874355042 46.1835078118
4615 1 37.0163234835 5.9678907405 5.2247922687
4616 1 13.5393649649 41.6532644983 59.7316594487
4617 1 29.9024085577 48.6364212021 27.1050895999
4618 1 54.9796436402 23.3922111453 1.0408697275
4619 1 40.7260526552 13.093048606 21.0148175567
4620 1 20.0220376455 9.6505045873 50.2004810139
4621 1 55.835303778 12.7109146305 31.2853216225
4622 1 20.3653094712 35.6064525578 10.5185728994
4623 1 36.8175407529 37.7462012661 17.7104640674
4624 1 41.7782910257 1.7889562224 25.2229522249
4625 1 53.9697316306 41.5058780631 3.5443727559
4626 1 59.6819637661 34.1907869518 43.4327982395
4627 1 7.9644415597 16.0014112754 39.3406831498
4628 1 61.3620431563 10.8493735651 32.9856194084
4629 1 23.8931990538 34.7611850532 21.0270997596
4630 1 28.2923062313 2.7616815006 24.6568371481
4631 1 17.3515717991 23.4648965925 35.7761359153
4632 1 58.6935298652 7.3684082963 16.715920558
4633 1 1.3465758371 44.2946309717 41.8631327044
4634 1 44.7679681771 9.682060401 15.9529123202
4635 1 22.3203842359 45.9920314173 21.6732696053
4636 1 13.3054362383 32.4788368196 56.3029092888
4637 1 61.5621485857 17.5193026012 26.0644405901
4638 1 5.4604531009 2.5755840812 1.8172178863
4639 1 63.784849403 6.8144494511 17.3810490862
4640 1 1.9878712229 30.1432027208 2.081971793
4641 1 44.5043732064 22.2449274199 58.766467255
4642 1 56.4278728304 23.6782919953 3.3845781464
4643 1 55.577440502 45.3985175801 35.5634963404
4644 1 28.825668767 63.3508782327 20.7652054016
4645 1 26.6942971509 37.3311257926 52.1602167171
4646 1 55.0590055668 5.7389378807 3.110741708
4647 1 52.7719963946 44.3182505927 6.9818464292
4648 1 40.164220603 25.7745176152 63.3793477492
4649 1 60.9030036948 50.4215606667 21.1294514507
4650 1 16.6759246663 6.2200475161 60.0238499073
4651 1 9.6273258659 61.6337632766 8.4676339662
4652 1 3.8495823495 31.1078910293 60.624418138
4653 1 25.3367673055 55.5739133053 61.1168399972
4654 1 29.850508377 13.1839998933 61.7621910294
4655 1 14.9108776261 1.6420421796 23.0103920982
4656 1 29.6217444742 54.1463434103 3.125140229
4657 1 20.7022827312 63.170235371 59.5297274353
4658 1 12.7672238071 10.3449214456 30.9977921025
4659 1 54.0168449014 5.0549136557 63.7666465484
4660 1 45.7033051699 54.6095399251 12.6392369539
4661 1 23.4088393586 10.4049467758 62.8103353322
4662 1 34.7730893422 9.5366265211 26.0541739282
4663 1 43.8682810657 34.9326320091 20.3685847253
4664 1 7.9553716253 59.0671607771 5.2610720066
4665 1 41.5836023627 6.1291592144 24.9403355861
4666 1 5.0206179659 57.4118977353 19.2435349364
4667 1 25.2230781962 34.0922144 34.5655516055
4668 1 25.6115107373 15.2308447589 14.1470505748
4669 1 33.7848443984 37.1324690333 55.539712094
4670 1 42.1165239988 62.2296705688 45.49450772
4671 1 5.5063948384 51.0767374613 39.7222502543
4672 1 11.1050953288 27.3032424739 37.542379683
4673 1 18.1230831004 22.6738597378 58.1398859483
4674 1 21.9989054472 18.0845988646 3.0894525563
4675 1 57.2937996302 23.4859967872 38.9332289406
4676 1 1.705966322 16.747413386 34.8509396131
4677 1 60.5135633833 36.8566548453 4.4686368703
4678 1 43.4213348501 4.0505443838 6.6961371947
4679 1 18.702614122 29.5305412442 51.9997922511
4680 1 31.8089843672 23.001637092 43.0619386965
4681 1 40.4098646617 59.0740891993 7.194183673
4682 1 12.0601468319 33.1656324134 60.6307167036
4683 1 37.9277889126 55.1772296433 30.5396344402
4684 1 63.6304085743 17.158016878 46.2862374169
4685 1 63.4386802372 52.0816106183 32.8365953461
4686 1 61.7953844701 24.4060912512 38.9431176886
4687 1 3.5856346592 35.5687871355 59.5748251651
4688 1 14.9264980688 42.6650030919 12.7565162455
4689 1 14.1080624537 59.5991376283 27.8769788151
4690 1 17.1202254843 34.3263320837 23.8746182853
4691 1 46.1462832891 22.6742376517 12.3009409951
4692 1 24.5644371906 31.3313011515 5.9407817142
4693 1 36.5143278045 37.3275985958 55.1727576617
4694 1 10.0727604257 43.2699803186 23.430191496
4695 1 44.4693531816 5.5999600305 17.4281623569
4696 1 50.911966985 50.9976904629 16.4253677265
4697 1 45.2959139464 37.6580843333 32.8758354098
4698 1 15.7725843869 50.6454746741 3.7435334004
4699 1 18.6462419598 54.9000927566 39.2904205962
4700 1 23.8366379346 62.250518821 52.7636193024
4701 1 23.3766536883 27.5217397148 59.8515841379
4702 1 23.7694952253 18.0670258665 29.1356211806
4703 1 62.8953029822 14.550284745 34.8717248796
4704 1 49.4876093584 30.572827881 21.7145881957
4705 1 49.1932144019 63.1080685285 58.5179888417
4706 1 41.4886199934 19.2293001781 52.6711563592
4707 1 32.8267695837 53.860136589 11.8204234249
4708 1 41.1093203724 29.0920980922 33.8731502882
4709 1 10.637678775 56.3603522071 12.7725146022
4710 1 21.4817932108 32.7254256631 50.4093414495
4711 1 38.2404497094 49.9978561583 4.4032829536
4712 1 30.1071119399 31.2914312312 49.3295153616
4713 1 55.4126700257 27.5738918381 61.8453320954
4714 1 39.862771253 20.9737509089 31.1825920175
4715 1 33.0477862509 51.3065091346 14.5907215362
4716 1 2.2057323087 4.3598669408 44.4917130895
4717 1 1.4846781866 45.7170990286 2.6151264761
4718 1 43.320809743 30.9301455079 22.1736276572
4719 1 14.663281012 47.3025109777 18.7467040813
4720 1 2.7006232056 55.9297192765 41.8733993663
4721 1 37.2591331877 36.9395439687 33.3254900086
4722 1 51.0935546314 37.8683304533 45.4566533407
4723 1 50.5897953541 51.6049981588 42.4571504269
4724 1 63.0864644484 57.3371337616 64.014873019
4725 1 35.3148289702 51.2995177268 22.6382728421
4726 1 42.3888739757 61.6301730942 48.2197710872
4727 1 42.8962864211 12.7014667821 4.7313941318
4728 1 18.8605821474 29.9679766256 54.6150826628
4729 1 35.1137157703 38.6105534245 59.0410847155
4730 1 50.1359837021 48.9095899926 9.1520361051
4731 1 9.0806733568 60.8352311289 58.6931519513
4732 1 54.1693961604 37.9064997608 15.5797852936
4733 1 37.2835086366 51.3019111817 28.3583151989
4734 1 33.7867969537 61.187572889 7.7734060649
4735 1 52.0305292513 13.6357960044 40.3938033194
4736 1 31.3818786333 62.6195517799 7.3798087
4737 1 43.9446826665 47.5085370587 14.1889360361
4738 1 55.1429654464 40.2238680193 43.4361364793
4739 1 50.7737134699 34.1790716198 55.4054896609
4740 1 19.6121899814 46.6579787591 7.1022876008
4741 1 48.9984627533 46.464234881 59.2159328967
4742 1 58.2546458137 41.7932816118 56.4096699758
4743 1 19.9344875836 19.2273476228 29.9978948123
4744 1 4.0454047543 55.3478577856 48.2022610748
4745 1 14.9540228005 13.5176978992 36.0566110418
4746 1 10.2169975781 37.0257083462 7.750668243
4747 1 41.5300015694 26.767171555 38.3261102016
4748 1 7.3211690542 23.9270853368 3.320263493
4749 1 32.771783106 15.3245674152 1.0794908312
4750 1 9.634443245 58.1662769382 58.4057484026
4751 1 37.3582726103 13.2076195144 39.5715885649
4752 1 2.3101373322 5.1399442914 6.3387502835
4753 1 6.3020233475 56.7720894409 29.9551275518
4754 1 10.7671142983 41.5090273459 50.9907620407
4755 1 39.82888497 58.147444227 48.0422145227
4756 1 54.7248666614 33.9230979134 38.9911757442
4757 1 1.8562437988 39.6004989811 59.6819007804
4758 1 19.7142267443 48.837534402 26.7423552065
4759 1 40.265312581 60.3053957899 41.7314926832
4760 1 38.6100495392 30.5437914935 47.630099375
4761 1 62.8288531151 29.3213658803 36.0761365952
4762 1 37.2124608165 53.8496809701 19.4833843148
4763 1 54.6941926468 27.0004704251 30.0719029582
4764 1 61.4489633617 8.1496823743 33.8550104192
4765 1 47.2875203916 41.6768211337 30.7179468326
4766 1 62.460764941 8.0269863162 24.4075399213
4767 1 45.2955360324 21.3911568517 18.3455484377
4768 1 51.2651905443 47.4430949621 50.7474484513
4769 1 39.0227315579 24.9381940738 61.1149504275
4770 1 39.6809946495 30.8293684582 32.4203231451
4771 1 15.0712391064 9.4943001602 37.2816820525
4772 1 4.5461029287 52.8330294954 6.5672118552
4773 1 2.5838100079 33.6486064243 18.3708056858
4774 1 11.3494166887 54.5730712302 46.5471240044
4775 1 55.262638193 34.2690781223 1.4348439355
4776 1 45.0335786888 41.9881592317 57.776584684
4777 1 38.6225836848 38.8304993355 38.0320931591
4778 1 40.3936773481 45.0640007607 28.2103618928
4779 1 3.6818515474 8.0565265889 44.8946323315
4780 1 20.516978931 43.0533096617 25.5645864235
4781 1 34.677540102 23.5640990008 12.1505942341
4782 1 31.4824037404 53.3455437789 1.3123053416
4783 1 33.1813788275 29.1426125884 52.1277161186
4784 1 53.0684068921 42.2339292617 1.0672289096
4785 1 6.6021185058 41.4103918085 11.2737709158
4786 1 40.842387162 7.8359508213 1.7177446396
4787 1 6.1979332522 38.9751773875 7.8639794383
4788 1 22.1560546591 51.7616434855 12.3295994686
4789 1 18.078111342 38.7011267979 24.0992881205
4790 1 12.886644611 56.0897028429 16.5384269791
4791 1 43.5643122894 1.5309298136 16.4013701915
4792 1 45.0891950231 40.3192283026 26.7093507227
4793 1 3.4708621967 18.9437232135 14.8254060908
4794 1 1.1287771071 60.1679610884 41.4788572167
4795 1 39.2775085367 3.8270712761 28.0117051335
4796 1 44.3906211115 23.0041565182 24.7501818904
4797 1 26.1885223326 30.0896019275 9.6935237904
4798 1 25.2220704257 47.616368502 52.6567956297
4799 1 47.5250393006 60.4966832274 31.2814165118
4800 1 13.4816071183 42.7810226704 54.4365813135
4801 1 32.185008734 48.81958349 23.1091536069
4802 1 25.4812564005 61.450915917 16.326921146
4803 1 57.3116875565 49.4108298436 3.4091362537
4804 1 58.9920188894 52.3367025255 10.2803611481
4805 1 63.7105893145 23.6064253617 23.2494856487
4806 1 34.7397069445 40.6853639214 38.3890328721
4807 1 25.0230357525 36.2666682048 43.9754196667
4808 1 17.5461344907 56.9771077514 17.3039546431
4809 1 31.5863930586 46.918046533 42.7688664388
4810 1 52.4008219234 49.4879242867 10.5077393665
4811 1 39.0801744762 31.9402464744 62.4989342485
4812 1 15.190911853 56.4448789576 63.3159211935
4813 1 8.6601811168 31.5725362142 37.8007468443
4814 1 27.6452545864 19.808957171 45.6415792269
4815 1 13.5008177434 53.0151210271 55.664990564
4816 1 7.0396609629 10.578535244 27.342230595
4817 1 20.6862843745 45.9824575976 9.5584825438
4818 1 50.8154729599 4.6877135793 54.0907900616
4819 1 2.4361653314 22.3188095945 6.5797271051
4820 1 31.0406223487 35.636811644 13.7289517897
4821 1 27.0341677511 10.4304559665 29.5440201746
4822 1 38.7452167572 24.1324185756 5.2653928226
4823 1 23.1810202405 21.6083313939 57.4255656227
4824 1 39.0411863551 57.1664426336 32.0172779318
4825 1 3.4718384743 42.200546864 33.8600492717
4826 1 31.819628943 62.9175999045 23.2074742161
4827 1 23.0416329836 2.5697327137 34.4657193406
4828 1 58.7888901485 31.738503418 40.1123204224
4829 1 22.1974362352 50.2050159811 7.8185667803
4830 1 3.7973168521 55.8005356959 34.6250100648
4831 1 4.1460495341 50.7162075659 62.9353618595
4832 1 28.2294465465 2.7540161463 54.7636658255
4833 1 61.6203473319 25.3248630165 58.7020329288
4834 1 61.9959937847 15.4022917148 41.6584293221
4835 1 25.4829570132 2.1113609002 46.2036632218
4836 1 21.1083512559 51.9852425645 14.9450788373
4837 1 39.5465832595 27.8499579687 24.5335742192
4838 1 3.7072536625 9.4078208544 33.1432095199
4839 1 18.4152105733 60.3041990625 10.9881309655
4840 1 48.2211567716 37.5018799062 35.6715167405
4841 1 32.5285325022 29.7185534276 10.4570988991
4842 1 37.2665025094 20.7497739159 23.5009243877
4843 1 48.2276442942 45.5787195421 8.1903081224
4844 1 21.468944137 26.7108623785 61.8228462162
4845 1 35.8009522638 20.0698437585 15.7805205795
4846 1 10.6911535971 52.4588946983 48.445070779
4847 1 32.2918324067 20.149961513 5.0931018589
4848 1 10.4231496304 20.3392963952 26.9223052259
4849 1 39.2027445629 19.9121906613 45.5224103656
4850 1 20.9525247428 24.7003602364 22.0828023411
4851 1 22.3744889144 60.0092372351 12.0683349672
4852 1 46.202340523 44.3787168225 46.6007247977
4853 1 16.1133997719 42.9051673986 44.9421865018
4854 1 62.5635575317 24.8292288888 54.0827908833
4855 1 60.8913513484 63.8241524524 54.4591301784
4856 1 32.4915599221 42.357507119 24.6452477874
4857 1 44.4748959194 44.4280975769 18.1551427994
4858 1 13.4407924132 54.6693762983 40.9880729845
4859 1 37.2442685728 20.3154248316 36.6925142256
4860 1 31.0377250085 29.1227091211 22.7432069451
4861 1 41.7477429825 14.7408163546 52.0469685075
4862 1 58.2744862953 29.7150892165 48.2113310093
4863 1 10.4018604787 14.9089250707 38.6821681155
4864 1 25.9014337122 58.0665706446 19.9388965795
4865 1 52.6836275191 48.2204639294 18.0287935733
4866 1 24.980835363 33.8192975522 45.0822666009
4867 1 59.7875277257 16.9669813831 34.9867996733
4868 1 24.8673352107 35.8533563296 38.2122321354
4869 1 33.8916680711 17.3443284487 32.9169650432
4870 1 56.0451089984 40.7384608295 35.3466997121
4871 1 30.1417540508 2.2662741213 47.8758064193
4872 1 43.6300063287 25.446551304 42.0041575884
4873 1 40.6848600361 51.0950662872 56.1757412491
4874 1 25.8407155398 58.6913883529 15.8393491823
4875 1 53.5984941737 11.601926184 21.7337358351
4876 1 6.2313030528 54.2285396915 43.6655932244
4877 1 21.9240155021 55.3004925723 1.0122832088
4878 1 36.3152931313 62.1364517978 62.0929287095
4879 1 36.6285837847 16.2656990883 30.3640934167
4880 1 51.3721401883 3.4871502873 50.6008808296
4881 1 47.5818523624 59.1519394702 36.2878313853
4882 1 4.2408807379 20.6282115996 7.6420179863
4883 1 1.9946610766 8.0805241239 54.1568620148
4884 1 62.454340404 63.2413461767 62.3798283729
4885 1 35.6363707444 56.3479440328 29.8796077502
4886 1 58.5348689976 24.3484593759 61.480771118
4887 1 62.2439683127 39.8108080867 58.7483903717
4888 1 6.1912693698 35.7894258887 35.9979084103
4889 1 35.3801450955 10.9758487625 39.5280654766
4890 1 48.3652049671 29.5259432913 54.308846403
4891 1 14.3399756394 58.4994080732 13.2280268669
4892 1 18.6095213223 26.668284075 39.8368841483
4893 1 24.1113183808 61.8351284191 18.5635417934
4894 1 17.4619856542 20.3540350387 38.9872706335
4895 1 49.4558645877 17.1344602426 53.9318772513
4896 1 57.7772775262 8.2519710797 31.4732078346
4897 1 46.1969867422 30.1446513909 52.6244210024
4898 1 26.5499970129 55.1688525511 34.3834600737
4899 1 30.4353301937 19.7980606525 45.6423350548
4900 1 4.9606367256 3.7150260925 33.8330284253
4901 1 59.7754974653 30.3880909517 50.3934060785
4902 1 21.6898348328 27.3376956278 22.1954206942
4903 1 50.7412128713 62.4954700375 13.9170899444
4904 1 14.3896083363 61.0714273392 7.6383018326
4905 1 12.7497767803 1.0864167339 51.6761089645
4906 1 52.6233502463 3.7089353795 5.3847254466
4907 1 20.5335441586 11.3629586048 33.3993721832
4908 1 53.6951141701 39.6463525387 56.8685204803
4909 1 35.2840289843 10.7142693328 30.1312354462
4910 1 21.869469924 50.6573789631 54.110504572
4911 1 2.438231261 9.9706606772 6.3354246409
4912 1 58.7773007878 41.55406209 60.5320181805
4913 1 7.8348800652 63.2073339225 13.5834549242
4914 1 16.8868636286 34.0126005307 39.874675542
4915 1 11.5946198478 6.1206876436 41.9364480081
4916 1 15.6793656159 10.209691242 22.7328143119
4917 1 45.4032415043 63.192028408 57.9901060581
4918 1 45.8120813979 13.5161862435 58.6757679102
4919 1 47.0878558618 37.193502134 43.8441575594
4920 1 55.7901430626 33.0557854292 22.9044502247
4921 1 51.4049557151 46.3214463986 2.7691264052
4922 1 61.2830591436 3.1128202347 5.3144145587
4923 1 58.0697829131 36.2850600164 60.5286799407
4924 1 48.7806583546 26.2117010541 23.3445939894
4925 1 26.7991682683 6.8772461502 22.7258858897
4926 1 15.8460886475 47.3418140271 45.0121005801
4927 1 31.7587218136 61.4742206098 33.0127032405
4928 1 23.7177840016 53.7274887973 48.5566813616
4929 1 57.4788514877 26.2124568819 3.8298678392
4930 1 10.5357679835 44.7645669517 17.1873681937
4931 1 7.4203714625 33.0546516874 35.5680942933
4932 1 35.6812165316 25.9127081447 37.6658945546
4933 1 30.643875701 19.1799824094 23.150346226
4934 1 16.7762608165 43.3420988948 30.6327272399
4935 1 32.4182446184 42.4463798797 16.884218231
4936 1 25.7808161808 11.8268479618 52.6319792812
4937 1 61.3820096093 55.9770844899 53.2340591676
4938 1 25.6004882475 37.6379289233 6.7491837142
4939 1 25.79561781 6.6670630158 53.8419967201
4940 1 17.9976156735 53.9962485918 23.8106248587
4941 1 36.7459260619 19.8418986692 7.9804399164
4942 1 21.8780989589 25.1823894624 55.1225580938
4943 1 30.8471933988 42.252195102 39.0674513737
4944 1 12.4345965573 2.7933191957 57.0518087395
4945 1 27.3228310129 26.308950907 19.9414160058
4946 1 31.1764194232 9.2130692058 31.7779324387
4947 1 62.7770789058 23.0124706248 36.8790777389
4948 1 34.9901379131 4.0804121819 42.1013444557
4949 1 61.2137119362 10.6995306893 27.518968346
4950 1 49.4264502863 5.0867277106 51.684989942
4951 1 14.5959493457 44.5575960858 29.9366727546
4952 1 3.3902846469 32.357526446 37.0663340944
4953 1 62.2782954953 34.8622140456 27.8565714626
4954 1 16.7881021198 2.3533014023 19.0817247859
4955 1 2.1238509558 38.7118343595 62.2348353926
4956 1 63.519490834 6.8750227565 52.2978403757
4957 1 49.7714857103 45.2692080282 30.6857611623
4958 1 20.8742335723 58.8159739806 23.8198207645
4959 1 31.9030219517 7.2874528325 56.0866165458
4960 1 61.4029838328 8.8837801959 36.3535254246
4961 1 28.8834266136 31.6298531613 42.384779908
4962 1 40.164220603 30.842217532 40.0344071658
4963 1 27.5289200796 27.8148119726 5.5014000759
4964 1 31.6386711531 1.2733701284 42.9495722861
4965 1 52.627255357 39.1068803944 22.8097827836
4966 1 15.5341836786 18.6589650623 18.3035999907
4967 1 11.0952065808 30.2774881396 50.4051843962
4968 1 12.1577745988 39.5314037164 10.3568257346
4969 1 59.0919771256 19.1476707679 54.5873059885
4970 1 38.7431382305 60.7537276899 37.4986046521
4971 1 60.747303153 17.9899944091 21.2712951482
4972 1 41.8842958848 48.8811834617 8.7137819101
4973 1 5.2224806951 22.2807032725 2.6705286591
4974 1 11.7814353038 63.3192594333 13.6857436297
4975 1 2.0169139089 1.8432813508 55.5640245573
4976 1 32.353495364 4.5028947687 25.9784651696
4977 1 34.7703179734 63.2133175598 19.5614235426
4978 1 8.7256861991 24.8323781716 21.7518127184
4979 1 19.4522694006 18.5268211559 38.9542661497
4980 1 42.6408795857 54.9929965993 15.946361812
4981 1 19.4553556978 19.6810962892 42.791541275
4982 1 5.4682570237 31.2533249092 23.5842544107
4983 1 52.4377315178 37.6811370834 2.6724560202
4984 1 27.2750249 12.6834528845 38.8602285652
4985 1 61.952722639 43.6199286237 38.5862409612
4986 1 38.867219973 48.3514111084 13.2073675717
4987 1 12.0330629998 39.6612801392 56.557434325
4988 1 19.8600385381 6.7431685841 62.2497629931
4989 1 27.865830354 51.6636378046 56.7065843586
4990 1 20.7375546986 61.6521550882 38.5509689938
4991 1 43.5262059675 35.0198041571 26.322870737
4992 1 43.9742229392 60.9826175641 58.4793156489
4993 1 34.2939574564 7.6360973346 15.5946499084
4994 1 53.0441574145 35.4176845465 25.2278651061
4995 1 30.9593708523 30.1575634504 16.8223663167
4996 1 62.6157726406 52.7484397593 39.1869351633
4997 1 18.9574540865 63.5242777438 57.4775917746
4998 1 27.9387047581 42.7907854471 48.7319074568
4999 1 29.4962770473 38.4542860118 2.9667690954
5000 1 3.8942076869 3.8454567891 36.3328031437
5001 1 35.5625515555 17.6921352415 17.1927849601
5002 1 30.6232793915 25.40920081 62.8245700905
5003 1 44.1088232862 28.5043159497 46.4290888849
5004 1 25.1832712616 42.8905547264 29.9767316318
5005 1 14.7200940738 7.8808595941 47.1827752455
5006 1 51.7639109691 18.8070443398 53.7896556399
5007 1 44.1026506919 44.782643835 27.8355972391
5008 1 47.0976816241 7.8376514341 29.0416465817
5009 1 17.0916299965 60.8182250017 36.7252667667
5010 1 4.1957641125 9.1195355066 19.3778833408
5011 1 18.2302846871 8.5908339094 14.6388425774
5012 1 3.5033816909 61.0159369762 34.5872816568
5013 1 42.456205642 51.9601112878 48.808057115
5014 1 38.0424857923 26.9902667488 31.3067997312
5015 1 53.6000688151 36.2038085201 41.9897968588
5016 1 14.2500321225 37.5607714946 1.9658829303
5017 1 10.277274851 25.1389923454 6.4902433835
5018 1 57.1914479391 11.5492071898 15.5978621769
5019 1 39.3774037872 37.3340861184 58.8003535379
5020 1 54.6772495054 35.4025050034 57.6409765665
5021 1 36.9801067312 16.0597359929 52.791332991
5022 1 22.9974800387 5.9689237053 30.4925841551
5023 1 7.4676736902 48.7702027357 28.1288584538
5024 1 32.0710676821 31.508668759 37.693104358
5025 1 1.5574864557 46.7206494869 25.635004387
5026 1 36.1966911409 42.888791128 9.7209225508
5027 1 59.460380228 48.0514104285 50.0905080584
5028 1 46.6761816137 2.4803623663 25.3773930536
5029 1 61.8586220688 58.3255046768 51.8791747197
5030 1 31.7752870412 47.693651902 6.4259602229
5031 1 4.141527164 3.9591144055 42.5232853658
5032 1 42.1204291095 38.690860136 62.7688277848
5033 1 36.2240269157 23.4786274655 5.8897822284
5034 1 52.6710933736 20.7085812968 20.0404924428
5035 1 8.718190906 57.6180497877 44.2450612603
5036 1 31.8895430213 59.8256340476 55.9677626128
5037 1 26.0467416208 56.0068137195 45.5055302098
5038 1 38.1053454771 50.1210561016 58.8014872797
5039 1 63.0692063787 30.0762489684 13.5473011576
5040 1 4.3371039247 50.4786886568 25.4189635867
5041 1 35.7291486159 11.7856553427 14.0083561601
5042 1 51.7644148543 48.3352867804 29.0822723299
5043 1 31.4825297117 5.8814240319 11.3168531045
5044 1 63.4289804462 3.7060695322 22.4836430564
5045 1 61.2096178686 21.0873770325 46.6637734394
5046 1 28.5747339132 46.2307470539 61.1228866202
5047 1 22.1028317798 11.3246633259 50.0915158289
5048 1 61.3165675126 37.9024686789 38.7200854804
5049 1 12.2450727182 20.2740432555 56.9109728125
5050 1 36.1712449359 57.1240532871 25.0032582565
5051 1 10.1462646863 62.6558315178 36.8588593433
5052 1 62.4144074981 29.5687105517 63.9019397377
5053 1 52.847390225 34.4780015435 5.7429878584
5054 1 6.8626145823 56.5704093701 42.6169450364
5055 1 47.3709134002 19.166881393 38.8058089583
5056 1 49.2606720395 58.4225655728 54.5976356361
5057 1 3.915288986 24.5791128485 15.4938728587
5058 1 11.6774459856 7.2156113932 56.8493098552
5059 1 49.1918287175 23.2530758311 19.8931689932
5060 1 3.7728910147 63.7706146448 22.0223990969
5061 1 33.2240831023 51.1569811871 35.6669817733
5062 1 43.51732499 25.8189854884 32.6858076854
5063 1 20.8839333633 7.9060538566 1.5135646682
5064 1 59.7327302049 11.5852349851 38.1935883812
5065 1 49.695902923 29.6895800258 37.9173962793
5066 1 44.6185032152 2.844759581 44.4427102491
5067 1 20.675576813 44.7829587632 56.6384338787
5068 1 2.5200622253 44.7891943432 15.8339324159
5069 1 37.2196411813 36.6650524795 49.2833468757
5070 1 26.0515285307 63.5034924773 51.9144466871
5071 1 26.327090776 49.8808288093 9.4548711395
5072 1 19.1491824236 11.0523763347 25.2082765671
5073 1 34.2039509539 61.9442825611 58.3651226544
5074 1 41.6196931437 3.0847601249 20.0606478527
5075 1 4.0857029771 26.6459241671 43.5656349882
5076 1 13.9478269446 6.9848760393 49.8178431532
5077 1 12.76558618 9.0789097584 19.9419828767
5078 1 56.1153380049 49.3597484766 23.2897964686
5079 1 13.3410861196 2.5767745101 44.9267550161
5080 1 20.7796291169 43.2050421072 35.131162797
5081 1 2.2127300151 28.8713963533 24.585789328
5082 1 58.5531348378 28.6812426576 53.9587721265
5083 1 49.1759563321 13.0854903272 17.8776909843
5084 1 54.1136538548 57.7032063947 56.1448782776
5085 1 16.4921955076 36.051446218 7.7261038371
5086 1 3.5391575436 37.9344653921 58.1543096635
5087 1 4.5735520776 9.9909420584 14.5273579662
5088 1 51.1086082032 37.8563001929 5.0855561773
5089 1 21.3124877673 58.659328654 17.3296527908
5090 1 33.9673768297 61.3258264041 61.0456032202
5091 1 52.9244216823 41.9491081249 37.8944065149
5092 1 63.3082999291 10.3196641975 25.8643981464
5093 1 17.4532936337 56.6582113747 37.6197890544
5094 1 1.602529388 37.146262892 6.4349293804
5095 1 29.164468611 34.6430239624 46.9283131949
5096 1 63.9220951476 19.3544526768 34.7047499054
5097 1 44.0462155441 13.1359418378 62.2828304625
5098 1 40.623889921 52.7267097079 63.0079213353
5099 1 42.5489205278 3.1049974162 58.5938235716
5100 1 48.2777808764 4.413833051 34.2794077699
5101 1 32.6384424721 33.3040748855 7.9500808302
5102 1 25.9339343108 33.7853482836 62.1958472715
5103 1 47.403917884 33.7737589229 37.1143291643
5104 1 45.7104855347 38.8464976922 60.6901121773
5105 1 21.4672435243 24.5449746229 50.7917273675
5106 1 18.4166592434 18.143490453 61.9139234749
5107 1 18.0927240142 51.3459381553 58.9512041842
5108 1 37.6250168638 4.8114677964 46.372842694
5109 1 34.1153301358 15.9694775478 55.8870150017
5110 1 47.6928330884 55.115566686 1.6661971787
5111 1 50.2406028768 5.5467623454 9.0373392254
5112 1 49.4911365551 15.8036363153 18.2751304742
5113 1 40.5113345536 17.9525809294 7.5821186273
5114 1 41.2757284758 24.4082957492 53.2240444483
5115 1 50.0146103428 59.5037143594 63.8412215652
5116 1 18.3985823601 23.996810458 14.9611401796
5117 1 18.0765996862 55.8016694377 12.2786440729
5118 1 38.7708519192 57.5860530744 24.6500346972
5119 1 18.6827736403 3.1718629887 57.4992588403
5120 1 32.3283011015 44.8223247983 18.0486970406
5121 1 4.6944278502 50.7279858836 43.7518835732
5122 1 37.4248484488 62.2190889786 11.7710426705
5123 1 21.0312568129 21.8911369897 17.9992533006
5124 1 43.7397273416 62.2042243637 62.3646488298
5125 1 13.5469232437 17.774457494 38.8407659975
5126 1 37.9422756135 19.1001795832 49.892229213
5127 1 26.9967542714 57.6710207244 61.9404404361
5128 1 5.6120217837 23.5686969537 49.1198990982
5129 1 25.9530819502 30.8450518865 16.1834398215
5130 1 33.2553869734 60.3426832983 53.6546143933
5131 1 33.5599856062 42.6944173933 10.3746506753
5132 1 29.6177133922 21.2471086563 53.0803741668
5133 1 41.948730211 13.6572741131 43.8777289141
5134 1 61.1970207374 19.4035814885 1.8169974365
5135 1 19.6174177909 8.3581648959 25.222574311
5136 1 4.9989509002 53.0912076996 63.9729875577
5137 1 32.8938493075 10.5707880083 4.1929171608
5138 1 20.213702997 51.5356509515 45.7059505674
5139 1 21.343854624 49.3894147206 1.4354019884
5140 1 5.9899357202 6.2587647989 9.5701348902
5141 1 32.9434190188 28.0067922523 4.0249659089
5142 1 2.7110221374 12.3638636655 28.355732787
5143 1 29.3687310937 8.4540290644 45.1887753454
5144 1 53.6350258542 3.2272903661 31.3829493894
5145 1 61.5370802946 15.2184995703 63.9947176091
5146 1 53.227571645 4.9993351127 21.8586993768
5147 1 2.1842038114 33.4658220503 33.0035073347
5148 1 15.6795545728 8.9269883559 13.6039252624
5149 1 53.562907278 18.4664179117 28.6281457495
5150 1 26.0796201333 39.5212630257 12.1919128244
5151 1 36.6086803173 33.0882230421 28.282291512
5152 1 49.9230291989 51.6962643745 3.5984144488
5153 1 34.6473699727 14.5599215504 10.6454889964
5154 1 54.9739119455 44.7304287261 28.7261514304
5155 1 4.1526567295 27.0487174377 18.7587973272
5156 1 7.2236420643 5.0372965677 34.2986813806
5157 1 29.7076569091 52.1918355165 29.6214295459
5158 1 33.8000239415 34.9495751506 6.2092265804
5159 1 38.214688576 47.9740010572 63.5291276394
5160 1 6.6998974383 39.2662970899 12.9393636051
5161 1 41.6164808752 7.1330560938 57.3421096284
5162 1 3.7061388164 6.6279048334 36.8695669048
5163 1 32.3642029255 25.3125178279 3.7012259352
5164 1 55.4680344174 20.6334394091 32.3565816611
5165 1 23.5661775274 39.5187435995 18.0161334564
5166 1 2.4954159381 1.9756268113 26.4011619075
5167 1 24.4863979627 2.8530044034 13.6882000702
5168 1 16.0005294762 55.0432591528 32.680390919
5169 1 16.3023567401 43.7818017599 62.0297540964
5170 1 12.406819883 36.2509217908 50.2948335267
5171 1 17.4873688736 29.912045363 12.6111453513
5172 1 52.4701691307 40.1053290146 62.5235616401
5173 1 15.604979556 17.3687038976 53.2846366495
5174 1 39.9614067904 53.6094536779 33.6161058257
5175 1 54.6584797798 55.1974480389 49.3699521528
5176 1 42.2528879442 28.8109301235 44.5821604917
5177 1 24.0991621492 47.3358933754 29.7372601674
5178 1 10.3532355522 26.0434663667 41.8430402801
5179 1 31.4797583428 9.4621774756 46.6220769351
5180 1 41.8044300729 55.2732827688 51.1996224763
5181 1 4.3665749132 16.1874709035 59.8966818676
5182 1 16.422344415 6.5384148133 31.84142198
5183 1 51.6943118191 32.5165022419 27.3300743634
5184 1 45.5789084991 11.1894331223 63.2814680397
5185 1 13.9897753916 41.8227588989 6.9674479082
5186 1 59.7164799056 35.667044759 38.9990489512
5187 1 34.8521363406 5.392781312 6.8575442369
5188 1 49.1859710514 15.0592088461 55.8547663457
5189 1 9.154807474 15.6971905565 11.1246838678
5190 1 53.5082357285 23.0233671433 21.2016330126
5191 1 2.0473044879 7.4169072514 48.7305217723
5192 1 40.6571463475 9.0832557687 9.7983949078
5193 1 41.328258513 53.1511070586 9.47603432
5194 1 26.7894054916 61.5360095384 12.7400140036
5195 1 20.2650992923 16.1232255343 22.1625421817
5196 1 50.5539565158 27.7975539028 60.8739043217
5197 1 44.9221570632 14.0174890802 3.1134815841
5198 1 63.2272373898 1.1986962242 27.9584192684
5199 1 25.9078582491 2.8730275434 5.4913097738
5200 1 7.5800401007 20.1198543694 15.4231399669
5201 1 5.6603065876 13.9664706988 13.1381463357
5202 1 42.0126606519 43.8367882376 32.7882853479
5203 1 26.7567789218 25.0395379944 58.0394238268
5204 1 38.3305191976 46.0233352884 6.900418573
5205 1 30.7978126445 34.8622770312 56.6871847765
5206 1 21.3502161753 14.1462317613 12.7544377189
5207 1 52.1253226637 24.0985322926 17.2159006959
5208 1 49.6490415949 24.9886455843 54.7033885526
5209 1 42.3484371845 44.7767861689 37.0911504429
5210 1 37.7275575119 39.317378457 59.6669101943
5211 1 14.2713842599 22.412469265 27.631775656
5212 1 11.2017153252 12.2724084929 47.3449003243
5213 1 49.6428690006 56.5244298412 19.1392936756
5214 1 56.1114958799 62.1030694001 30.7001848775
5215 1 62.6322118968 56.8961081977 38.8110367678
5216 1 24.1501805306 33.3965378286 51.443062037
5217 1 32.1416746026 7.8855205327 4.4790358021
5218 1 8.8854178229 28.2005361304 34.2480409132
5219 1 29.2826926875 8.1187564171 42.5714693927
5220 1 44.9041431655 59.273942686 55.0826251879
5221 1 20.4131155841 28.4426529924 63.6880404496
5222 1 47.2657903402 21.1559054263 16.2297972643
5223 1 44.1158776797 6.977746063 51.5325646543
5224 1 49.9700164983 38.224955238 40.9878210419
5225 1 26.2067251872 57.8489552029 50.6631736435
5226 1 53.7404638425 33.4244404743 45.2079859705
5227 1 63.1655114468 47.9913850982 30.9674330163
5228 1 52.4597764974 23.2015535644 52.8814024792
5229 1 13.9407095655 36.8078409619 54.1899294843
5230 1 7.6921545685 22.4950434602 47.3975563327
5231 1 62.4410504306 39.2226480303 54.2180840725
5232 1 48.007005541 20.9487456034 49.172681078
5233 1 25.179177194 3.8350011702 62.474495814
5234 1 23.771195838 23.584758296 44.8273006651
5235 1 47.100264036 47.8582334213 28.7019019528
5236 1 41.9717829611 29.2101961973 29.8996371888
5237 1 2.8035291705 55.2174144919 30.6718413323
5238 1 55.8643401655 12.7488949811 28.5945743948
5239 1 61.3078125064 5.772036843 27.9628282644
5240 1 5.0295304363 30.9676219733 52.7349608289
5241 1 58.2668020453 59.9921681223 58.3724289905
5242 1 33.7680902138 12.5850692897 57.9846263061
5243 1 7.4470143951 27.0821628211 62.7893611087
5244 1 11.8290524598 52.8883309014 44.5240877168
5245 1 31.5555300871 55.5167223296 56.4941337406
5246 1 20.1544964803 63.3021273349 16.8360971898
5247 1 40.2874205463 33.4522801343 51.0210581413
5248 1 13.3096562772 5.2374523855 57.7954173952
5249 1 8.6930596293 5.4751917444 45.4281208385
5250 1 40.8647470699 15.5229722318 54.4028839875
5251 1 61.1380661633 55.6661243058 57.6778231753
5252 1 27.2623647831 32.964267271 28.113615925
5253 1 40.933401435 14.157821122 9.1217400045
5254 1 13.5023293992 62.610922745 15.6355275992
5255 1 28.5869531304 19.2698629406 36.7799383162
5256 1 29.3235073926 21.3230063718 61.1031091242
5257 1 43.8830826948 41.5757291557 24.5296061228
5258 1 27.7716667982 35.583336822 31.6343251429
5259 1 51.2125345358 25.7577634307 56.8716067775
5260 1 47.8822309563 6.8713254985 35.4020011182
5261 1 33.1958655284 8.1704676408 53.8953455708
5262 1 4.755706595 19.725816105 51.6738414809
5263 1 14.8569619044 29.3719433622 12.8197538442
5264 1 17.7500820451 11.3394019694 27.6388930351
5265 1 29.1372588076 42.0446573652 27.2429022154
5266 1 24.3899039376 50.0186414248 20.658003815
5267 1 43.4952800104 25.4358437425 28.3440804406
5268 1 27.2940465681 21.3576484827 49.8405179894
5269 1 54.120204363 20.7379955982 58.9181367148
5270 1 37.9151917814 22.0090461379 1.8392817616
5271 1 41.1673931474 28.2290686326 19.9184262413
5272 1 30.1350145856 17.2820356348 26.8103167294
5273 1 36.858733372 51.250955786 60.9310952974
5274 1 55.0159233781 25.5949455097 6.9384682079
5275 1 6.6217511348 27.3874542961 37.9567623144
5276 1 52.9465926333 14.2099102596 19.1797934525
5277 1 22.8400788842 14.2390096327 37.1929982488
5278 1 42.5669974111 3.0950078912 2.4746936573
5279 1 23.5744286484 47.1755948807 54.865954531
5280 1 41.916859469 2.7764138456 52.8453116983
5281 1 36.7859849392 9.0085547806 47.9779061678
5282 1 13.0514150873 28.0843275949 30.7093177977
5283 1 5.5398717146 62.9283704517 63.6495562138
5284 1 54.2571351793 46.6691272202 37.5903117673
5285 1 59.8700389351 54.6926180054 51.5125352157
5286 1 13.0753496366 46.4749424425 51.6876353396
5287 1 56.0267171868 18.8186337005 38.4484913314
5288 1 29.9528600682 21.0747169156 50.2907394591
5289 1 2.5497662607 25.4845946403 34.5737397407
5290 1 30.9749283094 52.4205364337 43.3719540958
5291 1 57.9382058775 41.7990762922 26.9184631009
5292 1 24.3306344353 43.2091361748 5.3532326186
5293 1 47.1656431471 53.1414072675 16.5257038766
5294 1 36.0758216669 9.9133437301 45.5827506241
5295 1 46.5268426231 57.4629161168 16.073088952
5296 1 33.7503282588 14.724629041 48.8365896172
5297 1 24.1950263177 27.7932708782 21.3968255608
5298 1 35.3589189294 53.2254931184 57.2179019146
5299 1 24.6363038242 45.4219482442 49.1525886537
5300 1 6.8226879749 48.8908832527 5.2246159088
5301 1 30.2807004081 42.7534979387 43.4698338053
5302 1 48.5486191976 18.096062254 60.3440689828
5303 1 23.3420115775 16.489739067 14.9935777925
5304 1 62.9554542838 6.0175297361 7.8089929605
5305 1 18.6660194558 43.8473068422 44.9931418976
5306 1 49.5653966437 42.6234325589 11.1195820297
5307 1 23.5446364331 48.7623925143 59.5825724008
5308 1 1.5315067622 62.9332833329 57.4843312398
5309 1 27.0844932903 15.6818220565 63.6528944536
5310 1 44.9116384586 10.360415917 34.9256406013
5311 1 4.7652615191 16.6278036251 26.898307691
5312 1 8.5115349684 33.4428952715 25.6128964217
5313 1 60.6179936011 54.3216324911 42.8178062936
5314 1 10.217564449 4.1811955302 19.4040223881
5315 1 13.0483917758 60.3412346282 30.2509711784
5316 1 60.9690126624 54.5145575557 27.0653456509
5317 1 60.3500526201 28.873096966 56.025961359
5318 1 49.4367799339 18.6665863267 2.1653836974
5319 1 10.4172289788 10.4133868537 19.2840976989
5320 1 15.8889188936 22.7770302424 11.4862845194
5321 1 17.4028421232 24.7925712369 29.8721754427
5322 1 39.6164343521 56.6046105814 6.2478556832
5323 1 13.3614934722 32.4990552152 47.6771496601
5324 1 8.5253918128 22.8255921833 30.1352665282
5325 1 55.9785331599 35.8451052087 28.3651176497
5326 1 6.249323249 29.132975783 1.2815771594
5327 1 41.2960728427 63.5108617991 13.0983394011
5328 1 7.7169079314 63.2923015725 61.9796175142
5329 1 53.7279926826 47.4440397469 14.1846530115
5330 1 24.7207046034 20.1286093756 19.7476721277
5331 1 25.2698135531 5.5028739403 37.0572641599
5332 1 26.0554336413 16.2384262992 33.4168192099
5333 1 5.2538916418 47.2939449285 49.7746979788
5334 1 5.0624278444 49.8202995938 53.140399497
5335 1 42.7348541845 49.214251611 6.1800138331
5336 1 31.7501557644 6.0426925057 48.3407035469
5337 1 14.3125138933 51.9332164126 44.6621522749
5338 1 25.8288112508 13.7607595461 50.6657560554
5339 1 48.4855075702 44.8150814478 61.4262255399
5340 1 21.4138316879 63.9919462402 21.9299361538
5341 1 17.4089517318 28.1041680766 21.3427838679
5342 1 19.6732230822 8.5088895709 56.957582198
5343 1 45.9527283679 2.1333680884 20.168290339
5344 1 16.0881425238 14.8588514741 38.0177954151
5345 1 24.7937679644 52.8252822597 12.4753482768
5346 1 61.0608457489 39.4012123652 46.70175379
5347 1 15.3352749767 25.1012009517 56.2117690444
5348 1 46.289701628 19.7637964556 56.511454796
5349 1 21.4928786863 8.7069164736 58.93879601
5350 1 61.8541500873 15.8532060266 59.6151989706
5351 1 14.6869636187 54.0085307948 57.8476325041
5352 1 48.0645744306 39.6658151064 54.5536086625
5353 1 22.4949174888 15.0352113112 25.9937076984
5354 1 8.8680337818 49.981983773 56.6392526922
5355 1 42.1080839209 7.9519074142 21.5585727256
5356 1 60.0964093831 5.8747979408 22.8786261057
5357 1 57.2716916649 31.6080601243 5.6556141563
5358 1 52.6361363345 15.3307400095 34.0839632791
5359 1 45.2367074296 60.4284067763 35.7326128269
5360 1 19.7474831707 22.0596866053 5.6656477713
5361 1 42.6828910183 42.0587661522 14.8243983203
5362 1 36.5814075283 42.1954450259 35.5431519734
5363 1 2.2315060391 25.4317496748 19.6150873216
5364 1 13.9099725653 30.443518329 23.2817343046
5365 1 52.268111146 58.6980648325 44.1506457619
5366 1 21.7904229256 6.2393715154 60.3462734807
5367 1 29.2332489475 49.1734998915 53.503196876
5368 1 61.1257839604 34.0690986642 32.3880115035
5369 1 7.0156571294 23.7970829426 41.2888924779
5370 1 31.8280060353 40.6423447183 49.6103684021
5371 1 22.2031049442 46.658167716 49.3858245382
5372 1 3.8350704544 7.4681775755 13.9735880779
5373 1 32.6403320417 21.6239518366 45.3212341801
5374 1 28.9647410956 54.4028210018 19.7004958713
5375 1 55.8168489808 50.9600250406 18.8227277681
5376 1 15.0992677234 20.4008963669 24.0461282268
5377 1 17.5819103434 23.8790902668 55.8379491756
5378 1 11.7350778609 10.7138914189 51.6164615482
5379 1 61.7347292833 54.3551408602 4.6253640783
5380 1 6.6375353403 46.0097303867 55.1911494733
5381 1 51.4586824797 56.1836144561 34.0683428364
5382 1 12.1546883017 9.7120415733 43.9706327568
5383 1 48.3747787868 44.7936033391 57.2530479107
5384 1 51.1849468184 44.2737197338 32.8752055533
5385 1 37.0864895043 13.8638040794 24.3781886056
5386 1 47.6751341191 11.6920586578 16.1419322741
5387 1 54.6165943186 27.8235039931 59.1617652325
5388 1 8.4311652713 17.1451048185 51.1189378508
5389 1 50.8014901442 44.4482529868 19.2856723403
5390 1 42.2264339687 53.7826012464 59.7496103607
5391 1 33.3001697748 23.0186432191 24.0190443946
5392 1 4.2700179024 15.4448070326 24.4763202578
5393 1 44.2371880533 21.6949996566 31.365817291
5394 1 22.8285525091 6.1308661256 51.0740920637
5395 1 59.6059400792 8.0486533819 24.6318318426
5396 1 18.3663966898 15.6492584723 7.4871992436
5397 1 57.9671162937 20.2382044172 31.7727676149
5398 1 43.2802469805 3.9563178423 11.0550847179
5399 1 17.5874530811 60.9802241092 46.158754449
5400 1 50.4361733389 31.4701215375 29.7130106898
5401 1 34.2291452163 20.0306666804 13.6546917012
5402 1 26.1041845391 22.0074714965 12.0700985656
5403 1 17.005465619 35.129147256 28.5827960771
5404 1 59.0685464615 15.4233919096 59.2752653848
5405 1 55.4175829069 9.9656848103 46.8010821697
5406 1 13.0706257124 16.2561882542 58.8707085158
5407 1 12.3316779953 33.8415944745 6.2077401189
5408 1 13.5365306104 49.010052114 22.7467971275
5409 1 24.3375628574 59.5143589352 33.9722897108
5410 1 16.7088031788 50.6629846865 52.886945217
5411 1 4.4652608392 57.7672628069 42.5302767736
5412 1 8.8629949294 3.3447397189 43.6636406691
5413 1 16.11705294 6.3621431562 9.9898713023
5414 1 63.4544266513 57.4477365736 41.2415272646
5415 1 39.9728701798 44.5474553952 55.1876852622
5416 1 63.7726931714 37.6948049708 17.2783824667
5417 1 39.8360023492 60.9995607056 44.4106505502
5418 1 17.4385549902 9.3808629936 40.2678949929
5419 1 53.0836494209 51.6080214703 52.2078968588
5420 1 33.5089042391 32.3735248026 14.4086300045
5421 1 46.8617373565 44.1623610939 14.3917498487
5422 1 48.7301438584 4.2599842874 17.9588165094
5423 1 57.766884893 13.7651055563 35.8826446597
5424 1 33.1132913332 36.5216971263 17.2568413724
5425 1 8.0267973593 64.0035356009 21.2754522015
5426 1 24.5011995919 29.58918089 47.4001387446
5427 1 40.3144413927 29.4294492662 50.9090066591
5428 1 25.2941260163 21.0435390158 38.7787251262
5429 1 23.7890837643 28.4395666952 52.7413223801
5430 1 3.573428039 29.3352857103 43.1984286133
5431 1 32.3480785975 56.0233159614 18.5085553156
5432 1 51.7367011657 45.9378007675 38.0376358968
5433 1 39.2635887067 27.251216322 36.3684530251
5434 1 21.4824230674 19.2531717418 25.4459214475
5435 1 15.6738858638 9.339229475 62.5547395398
5436 1 39.5897284339 46.1696509675 48.6293668087
5437 1 46.2611691258 35.2730064945 63.8016665732
5438 1 6.7747873834 51.9412155909 42.2217100445
5439 1 13.0833488149 16.5269006041 8.8466186588
5440 1 27.074667528 63.0862754915 60.5222554038
5441 1 11.5485143476 58.726345392 35.856946512
5442 1 58.641377742 57.3097979868 6.3628800884
5443 1 61.7535619945 17.6704681758 7.0762304349
5444 1 32.426558725 12.9683999926 11.3630215904
5445 1 50.0180745539 54.6940036899 26.2237313144
5446 1 31.8264943796 59.2062331057 39.4328311646
5447 1 14.1241867816 10.9359788422 6.2048427787
5448 1 27.1784678892 38.381537579 40.7571045837
5449 1 40.9541867015 14.5213113432 41.3158503387
5450 1 35.5216738647 1.0863077687 5.3306018723
5451 1 31.3707931578 61.4383187858 37.6127346609
5452 1 4.0883735689 27.4073577634 25.9605772433
5453 1 29.6316332222 26.8123322704 31.9917687411
5454 1 23.5384638388 56.0726967158 44.3629704085
5455 1 7.5586879633 46.2867413021 9.2960843006
5456 1 55.4315657226 15.0110878049 57.5602289554
5457 1 10.3259627631 42.7879510926 8.783758974
5458 1 46.5420221662 51.2973132289 46.9215737297
5459 1 5.0291588209 46.3048811711 22.9436273028
5460 1 9.2521203126 57.6263009086 39.2797130347
5461 1 39.2186169483 38.4415629092 29.8935905658
5462 1 28.8923705768 14.8044318673 26.4650923485
5463 1 39.6339443645 20.0872907852 33.7442186502
5464 1 60.112722668 6.4525401698 12.585006304
5465 1 17.2213174623 19.5621163848 33.1920234033
5466 1 12.3197107206 6.6564814256 26.8324246947
5467 1 15.9083184757 4.0253312257 35.2652592588
5468 1 35.3907896714 36.4430280418 13.7524454395
5469 1 51.9341611975 27.8403211633 58.5807225552
5470 1 24.5166310777 4.5326302969 47.2413519057
5471 1 31.5971636058 37.8721725783 24.6490899124
5472 1 3.8678103984 15.6825148987 36.3118919059
5473 1 55.1139920446 58.917002973 4.2484012253
5474 1 20.1510322692 17.0751907402 48.6197300033
5475 1 9.8493503036 10.9131150491 59.1120065642
5476 1 27.8995906657 6.1186784012 3.576356872
5477 1 59.0867493161 43.6889609028 12.6924598333
5478 1 18.9310630966 25.0166742013 34.1221325867
5479 1 55.4173939499 31.6294122617 35.0767431902
5480 1 42.8773277386 49.7503855156 21.7044475051
5481 1 5.9483085001 4.2432615957 23.4420327993
5482 1 22.3193134797 11.4454068286 18.0752140018
5483 1 62.6781284401 14.3481637746 23.4594168404
5484 1 26.6227454456 8.1433838087 42.1261608042
5485 1 57.7057888066 57.6745479212 10.6092722441
5486 1 41.7828259929 32.4828049159 41.5487083093
5487 1 42.3680257235 21.6468786154 62.7016220898
5488 1 19.4869744971 37.6066880379 16.2560622829
5489 1 63.4393730794 52.7848454685 49.8919772704
5490 1 44.5625719526 52.696287636 59.1792752449
5491 1 43.7675670016 55.9727384796 4.3831023494
5492 1 3.221042189 2.4618760763 30.3725964803
5493 1 38.0988579545 3.7343563903 12.3571242003
5494 1 43.7443882802 60.7260140012 43.961436851
5495 1 51.5712378471 36.6539040184 28.6079273539
5496 1 8.9084705731 32.9754787177 19.7282725456
5497 1 4.345959708 38.7531529499 37.2055323943
5498 1 55.8085348742 30.7415664536 21.486517135
5499 1 16.884407188 40.6764829439 20.1085169513
5500 1 38.9566596046 11.875535874 6.1979143565
5501 1 12.5181785229 52.4379204748 32.6740923534
5502 1 31.8259275086 17.2567783867 24.7316011219
5503 1 49.4083734031 58.4152592367 34.207037251
5504 1 51.5473662835 51.2114637796 5.7865676338
5505 1 51.0841697687 6.6383415567 58.3125296316
5506 1 29.6677869888 57.9346786808 9.360644598
5507 1 60.8112335939 47.328650025 3.9365340478
5508 1 26.8467224386 43.5847826277 54.8709933835
5509 1 55.4255190996 42.3233059077 27.5271564813
5510 1 11.8068185232 57.7564922597 56.8448378737
5511 1 15.6614147039 37.6303076589 16.8658894051
5512 1 42.9547371099 49.0806590345 36.9793509034
5513 1 26.8247404447 22.9474064421 34.7555163442
5514 1 26.3451046736 57.8397592971 53.3634946909
5515 1 14.8868171054 9.3724859014 29.515928572
5516 1 28.3372779898 11.7761445087 47.7440404268
5517 1 36.5531899543 58.2710220842 3.3069861167
5518 1 63.4111555055 51.7074758212 53.203763067
5519 1 56.2694639054 50.7359850619 13.0858682412
5520 1 29.9762277466 59.8713616339 51.5090710046
5521 1 27.45743136 61.7923611586 55.912587178
5522 1 62.4836287341 40.9310709657 56.3311898483
5523 1 53.6021473417 19.9445652886 4.3888088498
5524 1 6.8910148146 20.0387918301 39.9949151594
5525 1 1.5529124374 15.4220692108 12.9471738265
5526 1 54.637757499 49.1595170759 3.0906303881
5527 1 62.6516114789 27.0541342041 42.3110237048
5528 1 61.9523447251 52.5344144999 19.7392320497
5529 1 11.7697829574 16.5439697169 37.1999896566
5530 1 58.5650391268 39.8892882142 30.768776257
5531 1 18.7251629869 55.7941111589 60.9752482423
5532 1 1.2040096941 15.5930122814 19.7920770152
5533 1 61.322362193 11.8839129662 9.1083870454
5534 1 49.3053918554 20.0740008118 25.2574683645
5535 1 25.0533948388 29.4619498647 60.6331101585
5536 1 31.1076390867 8.5979512886 49.2652699924
5537 1 30.1802382866 35.7273850175 54.1502485209
5538 1 62.3943150738 10.082586188 42.6458554525
5539 1 38.4072987123 48.7438117458 31.3614712807
5540 1 39.2979158893 57.3226470607 14.4716156606
5541 1 45.389195703 49.0787694648 41.0230930093
5542 1 41.0015519149 48.8004358506 54.6820364152
5543 1 23.0106440408 50.8491073002 2.9878126031
5544 1 47.7510948203 49.0373878887 59.0506585352
5545 1 20.7549387397 23.0171945491 61.728556689
5546 1 2.098096121 41.9127654014 56.2950360817
5547 1 47.6097550081 43.0342250079 42.0426418242
5548 1 27.2080711476 38.0320931591 36.5558353519
5549 1 38.1940922665 61.2851376702 40.1100529388
5550 1 13.0699328702 61.9442195755 57.2085800375
5551 1 11.6528815797 53.7381963589 12.7369906921
5552 1 42.5779569152 59.0053088628 17.7156918769
5553 1 41.6962837014 40.2386066628 11.5378067861
5554 1 1.5935614903 23.2608230668 15.9525973919
5555 1 7.2883535274 45.8600134822 12.0407472499
5556 1 42.1121779885 26.9246986809 24.3000234064
5557 1 21.2717360478 12.2521271117 55.1041032966
5558 1 54.2980128701 53.3158145492 16.5495754403
5559 1 59.7695768137 31.9775339828 33.4318727817
5560 1 22.8326465767 51.8566258548 19.1453402986
5561 1 61.2064685858 2.9037708422 40.5022646192
5562 1 11.0657922794 40.6895209747 33.3178057585
5563 1 42.6519020755 22.6547120983 51.6664091735
5564 1 30.5097162536 8.1245510975 12.8909906213
5565 1 52.020136618 43.4779589549 59.3053725284
5566 1 26.9296745477 49.7028943309 61.2738002521
5567 1 16.1806684526 12.7533039771 33.6928853405
5568 1 8.1086157265 15.3214181324 62.3141973193
5569 1 7.9048571291 61.0747025933 36.4452325398
5570 1 20.2678076756 54.5236274902 22.3161641969
5571 1 27.0327820667 44.367820304 33.7747666934
5572 1 23.146126187 36.1711819502 23.2089858718
5573 1 22.2182844873 36.4529167899 12.5032509224
5574 1 2.5927287768 27.532888176 1.3982713143
5575 1 39.3753882463 52.8531849053 13.202013791
5576 1 20.0916997812 30.9517495879 37.7873938852
5577 1 26.2870318987 53.6457964014 27.8686017229
5578 1 13.3122386891 39.6310470243 34.2952171696
5579 1 28.8143943345 46.0104232289 56.8555454352
5580 1 26.0068087148 16.0172836607 11.6274353747
5581 1 26.1108610187 36.1944236573 20.1111623489
5582 1 59.3569577807 18.7715204297 41.7433969722
5583 1 34.4706952074 44.0989345382 5.9551613394
5584 1 55.0108845256 2.7413308351 62.829608943
5585 1 52.3979245832 62.4321694531 28.917060954
5586 1 17.7879364244 59.1130143347 5.873664199
5587 1 55.9573069938 17.6603274852 17.1760307756
5588 1 26.5292117464 1.4804335832 40.9601073532
5589 1 35.6246554124 60.6073490252 41.0263682634
5590 1 9.5867001177 18.6483204865 49.1156790593
5591 1 6.4941547928 43.5586435804 14.8584105745
5592 1 50.025191933 43.6688684785 24.4198221243
5593 1 18.8861543238 6.1088715345 10.2257525843
5594 1 24.8688468665 37.564361677 27.1809873155
5595 1 8.8325728575 58.9103264934 62.7047083869
5596 1 52.9594417071 59.7705845842 41.7452865419
5597 1 24.4610147433 16.7617741156 47.3319882648
5598 1 62.7831255288 16.5304907865 39.3240549365
5599 1 62.1551585377 41.2796335865 28.1316928083
5600 1 46.7857766552 17.9762005504 54.3111768722
5601 1 59.3744048074 3.5049122424 23.8427475433
5602 1 58.7125515334 5.5843647821 8.103954788
5603 1 1.8230881494 55.3112631194 59.2406232739
5604 1 39.071230513 53.065131638 41.1849661454
5605 1 27.5529806003 16.581131254 15.3486909215
5606 1 20.2926870097 38.6963398881 25.7762182279
5607 1 58.5866432069 26.8893637278 29.1189929673
5608 1 51.4232215554 8.0023589247 5.8200697043
5609 1 31.2527580383 62.8876817179 13.7769468597
5610 1 63.0627188561 31.3299784527 21.5654381621
5611 1 38.1186984362 54.3398353457 35.4459021205
5612 1 26.7757376042 16.8400023004 23.0798652769
5613 1 6.2579081939 2.5350843043 43.5993323142
5614 1 42.7220680963 15.5960355929 56.3087669548
5615 1 49.408751317 36.1898886901 8.8230620234
5616 1 34.1251558981 37.8429472339 9.6032653453
5617 1 62.5439689926 24.5939774633 3.9387133515
5618 1 39.5330413434 24.2511465373 41.3787100235
5619 1 62.9312048062 34.5413021279 34.3078772864
5620 1 14.4745130007 11.1206527859 20.6295342984
5621 1 60.0043243539 35.3951986673 26.4128142539
5622 1 54.6552675114 2.824604171 12.1137476252
5623 1 25.2788205019 31.6818163275 24.5755226661
5624 1 43.1659910004 1.2106370448 11.1789145177
5625 1 19.9725939055 17.374309621 41.3201333633
5626 1 26.2107562692 23.7958232295 32.204597273
5627 1 60.5755412689 58.1834090366 13.721204554
5628 1 59.0181579367 42.6920239384 46.4428827435
5629 1 12.5700787035 8.5720011983 33.1984479403
5630 1 53.4298185867 13.5580717048 56.3320716475
5631 1 13.8476797514 40.1918083203 36.991696092
5632 1 19.9824826535 39.6373455899 46.3836132412
5633 1 44.4548034951 30.0792092943 62.8086347195
5634 1 42.7376255534 4.7742432736 30.8401390054
5635 1 51.8435248384 42.8896099415 54.8388077132
5636 1 57.9361273509 48.7468350573 12.0265124916
5637 1 13.3573994045 25.1292925543 52.1559336925
5638 1 19.0244708246 9.8735367955 19.4420027387
5639 1 52.7310557182 1.2917550116 54.5908961709
5640 1 32.6455598512 3.600398497 3.2687979134
5641 1 29.7046965832 31.1094026851 54.6388912408
5642 1 41.260863861 63.327195626 30.3610071196
5643 1 43.0720164015 55.1101499196 55.639355402
5644 1 37.3685392723 11.5687327432 10.1833002521
5645 1 4.4401169652 39.8197520499 3.6549440751
5646 1 23.6861022166 7.3333252858 12.4008362457
5647 1 15.5809820211 57.6167270889 48.139779304
5648 1 56.3412045676 44.2815299552 58.4750326243
5649 1 39.0212828878 19.7818103533 28.9271386589
5650 1 18.2479836564 10.9963191008 46.3538210259
5651 1 18.619473056 12.2974137984 20.8506769369
5652 1 1.695365836 46.0661025489 39.7480743733
5653 1 24.3706303269 14.3087977396 46.3012909887
5654 1 6.7437795449 62.3540042539 51.076422533
5655 1 8.1997559709 7.9225560985 44.4947993867
5656 1 32.5888097751 26.4075864445 19.2449206208
5657 1 6.1108618813 33.672100074 29.4960251046
5658 1 43.6973379951 53.0878064742 36.5329715587
5659 1 40.7267454974 36.0021284493 2.2538974399
5660 1 43.6538778924 57.4866617091 21.9451786826
5661 1 16.6412195698 51.8819460886 27.8437853744
5662 1 8.7252452995 1.1500593304 15.9987028922
5663 1 2.3163729121 34.5849511875 7.2935309483
5664 1 54.5068733057 33.162231188 25.2387616246
5665 1 52.0465276079 27.356339382 30.3457016051
5666 1 27.2761586418 31.304469262 19.7048418815
5667 1 3.8714068794 61.4947539337 53.8501848554
5668 1 39.1591584889 13.9951291723 13.225822369
5669 1 17.2497869789 44.7845963903 40.7688829013
5670 1 51.4234105123 41.7677094354 25.9680725363
5671 1 1.4681016216 1.6236352515 3.0012789363
5672 1 53.6771002725 56.9708091858 47.6814326847
5673 1 44.6685138262 14.4744500151 47.5261730424
5674 1 45.9658293844 52.1651295983 51.1891668574
5675 1 24.3060700294 60.1941631213 20.671545731
5676 1 39.2058938457 53.2244223622 24.3589149948
5677 1 32.1853866479 53.957386442 14.4582627015
5678 1 43.8393076639 4.4341207308 28.3746284838
5679 1 36.7414540803 31.976778155 48.7442526454
5680 1 48.4264270248 42.0703555129 61.1934935406
5681 1 22.4486230316 12.9532834351 57.3426764993
5682 1 10.8397997454 39.5368204828 4.7233949535
5683 1 7.5770797749 56.368792285 57.6511802428
5684 1 32.3696196919 52.3574248063 51.8430209531
5685 1 44.5968361495 5.7262525695 32.6170903347
5686 1 34.2428131037 54.7929541556 28.2256044215
5687 1 38.353886876 52.4992685038 5.779242402
5688 1 45.1705724908 49.7004378903 20.4595989983
5689 1 35.2279087648 11.5218714151 8.3488430188
5690 1 10.1666720389 30.268985076 13.3491482836
5691 1 53.5151641507 21.1543307849 45.3353429671
5692 1 26.4899716826 35.6611241073 1.5998443095
5693 1 4.7729961576 62.5892556794 49.1898131765
5694 1 45.6620495651 30.3981686567 35.9115550759
5695 1 1.8286749771 24.8832705817 7.5772057462
5696 1 53.8925112163 14.3012394609 24.8513998397
5697 1 59.6209306653 19.8425285257 11.288383588
5698 1 10.1083473214 20.4319482953 44.1580150836
5699 1 49.5432256927 59.1024327445 57.2007698162
5700 1 34.0507068527 49.4609034402 48.0909654205
5701 1 15.0510836965 60.1333189775 1.3625804923
5702 1 28.5125670706 26.1563366624 54.0951990575
5703 1 1.8912197336 34.4537520659 12.0167497149
5704 1 7.4041211633 5.4137681326 57.1770872095
5705 1 16.4539632143 36.458018628 50.705374033
5706 1 5.3695333063 44.4073123104 41.0394062942
5707 1 34.3827042459 43.3946919176 43.2959933945
5708 1 60.0879063195 41.0262422921 3.6295986471
5709 1 27.996777533 10.2304765085 52.3212080541
5710 1 17.6229140055 45.6679072312 21.8333161574
5711 1 43.0209350344 50.2935738136 41.365609007
5712 1 24.5490686905 37.4433662317 11.1122127079
5713 1 14.2875715735 22.6418630245 17.881785052
5714 1 29.2809920748 60.3986775466 20.9298499066
5715 1 1.1862332524 28.9357047082 6.2725901504
5716 1 27.4105070462 20.3375327968 34.562528294
5717 1 22.3717175456 44.3866530152 33.3489206726
5718 1 6.7475208929 36.025433142 44.2422898915
5719 1 36.0401087999 27.5221176288 55.0074203145
5720 1 31.1296210807 3.92023336 34.3839009733
5721 1 25.0762586319 57.1554831294 6.8936224207
5722 1 51.6651494604 49.3192486997 52.6453952259
5723 1 40.8600861313 18.926591115 43.6015368122
5724 1 52.8761116841 45.8099398856 52.4275278415
5725 1 12.517611652 35.8536082723 60.1707324572
5726 1 52.2923606236 21.7100532284 40.4387750778
5727 1 25.3070380758 8.4502499251 16.3674209229
5728 1 19.6549572419 3.7428594539 42.2409836552
5729 1 30.6316564837 55.0975527884 60.2458743449
5730 1 31.3142320387 50.8293298042 27.6578517176
5731 1 15.9234350332 14.9853896572 54.6445599499
5732 1 3.6044484747 41.4086911958 48.8088129428
5733 1 1.5597476408 36.1590257186 37.9298674392
5734 1 52.1704203934 41.6459581622 8.0679269927
5735 1 33.3343709861 56.1128185787 15.7680494196
5736 1 2.641473376 4.2847691431 56.6313164995
5737 1 38.468709727 11.4468554987 27.3831712715
5738 1 52.9413018382 3.2503620119 19.8853587718
5739 1 58.395418755 37.0636257112 27.8720029483
5740 1 37.2377810503 22.5634458827 21.3040476894
5741 1 54.3144521263 19.0550818534 63.4254532495
5742 1 54.1111344285 24.4447014584 4.6418222303
5743 1 17.3829386558 27.3742273083 51.1217722054
5744 1 6.3971316881 52.2247770146 10.8129048703
5745 1 52.7599031487 54.3950107805 55.0710988128
5746 1 15.5789664801 23.8337405945 5.505154021
5747 1 21.2867896196 44.2319602439 30.7860973124
5748 1 18.4271148623 37.2957278538 29.3258378619
5749 1 27.8498319974 15.9234350332 3.2453924436
5750 1 34.4950076706 49.8402660468 12.5586782998
5751 1 14.2858709608 35.924719078 28.278071473
5752 1 10.9082021679 42.9920246183 45.2894264238
5753 1 4.4727939236 6.8808363326 26.3372944523
5754 1 63.5244667008 41.3135828551 5.2361485825
5755 1 1.5512766999 19.801083964 21.3018431914
5756 1 40.4045738666 42.3107717622 31.1306918368
5757 1 58.1439170303 3.2476599272 30.6725971602
5758 1 35.1164871392 6.9476200237 59.3548162684
5759 1 34.5022510211 1.888328692 52.8947554383
5760 1 24.6726465478 11.7044038464 42.6758366248
5761 1 10.1912364448 8.3314589777 42.6132288826
5762 1 4.0404540817 56.1419809375 21.422964608
5763 1 34.0747043876 6.9338198665 18.2202069821
5764 1 1.5506184998 61.1644571532 52.3761945318
5765 1 21.8641161432 18.3017734067 5.8214994787
5766 1 60.0899218605 57.0177964852 55.58732925
5767 1 7.4031133928 12.2603152469 44.7655117365
5768 1 62.2793662514 57.1352647338 30.6055174365
5769 1 58.744296304 46.3693784829 54.0046886697
5770 1 44.643634492 30.1127176633 5.154695532
5771 1 20.8367571069 13.8839594893 20.9176306893
5772 1 13.1318477701 33.2267284998 31.3272700695
5773 1 55.8972816636 54.7100650322 31.5523808043
5774 1 45.0856048407 1.1606377713 32.4436278378
5775 1 30.9261144259 51.1554065457 22.5582810589
5776 1 45.5576193474 41.9391563913 7.3113432919
5777 1 2.2451991208 21.117673133 48.0429073649
5778 1 4.8673612676 2.6278999671 52.2987851605
5779 1 21.2957335828 57.5772350825 8.498056038
5780 1 24.3453730788 51.7367011657 31.7997884614
5781 1 54.369816518 19.3752379433 49.8307552127
5782 1 24.5190875183 31.4371170537 62.3123707352
5783 1 7.8923229835 26.9352172854 29.3306877574
5784 1 47.4591563044 51.195087509 7.2140745432
5785 1 51.7677530941 37.9240097732 49.4510146922
5786 1 26.8111985286 61.2094918973 38.6024282749
5787 1 43.9498474903 14.2188542227 41.0255494499
5788 1 56.3189706311 23.9857249826 41.3997472326
5789 1 44.9397300612 30.5075117556 33.1578221921
5790 1 62.8008244981 13.4575465977 7.5233530102
5791 1 7.187557582 34.5860849293 21.4492296266
5792 1 14.865653925 25.2393914812 64.0010161747
5793 1 46.2497057364 56.307255299 50.5496105055
5794 1 6.4736088718 18.7392717738 26.9981399559
5795 1 49.7769024768 31.37772158 40.0288644281
5796 1 6.3952799099 23.0751413526 18.0842209506
5797 1 51.1278188283 11.9199407615 13.0676024009
5798 1 34.8831882691 40.983223089 33.4984486202
5799 1 38.0636489728 53.3456697502 26.7582275919
5800 1 27.5577675101 53.5304066795 23.501428273
5801 1 41.3096147588 14.5475133761 26.1121837175
5802 1 33.2912258117 44.0579308761 12.72382669
5803 1 5.0180544497 37.4499797256 46.134945871
5804 1 50.415828972 59.4387131623 46.3282488495
5805 1 16.9710124651 45.7116192765 26.9315641174
5806 1 5.3704214041 11.5290517799 36.1582069051
5807 1 31.9052264496 54.2183990008 45.264484104
5808 1 40.199555556 25.7765961419 6.8318712835
5809 1 1.265819408 35.1816143076 2.9331662479
5810 1 42.5949000567 21.8427640058 4.5724498287
5811 1 7.9501438158 43.3854960118 12.6488107736
5812 1 41.6080407973 24.5718065124 45.4938148778
5813 1 60.4243756943 8.7815544761 63.3529567593
5814 1 29.2324301339 7.2194157268 31.1746558248
5815 1 57.7936537968 1.1855038785 7.9604734634
5816 1 31.6122801632 21.9648931929 54.691421278
5817 1 11.024473689 42.0107710822 55.2927453366
5818 1 46.2845997898 35.5660787523 41.5921684119
5819 1 4.9015120903 18.2807361976 45.0749602648
5820 1 52.6673142342 9.1231886746 20.7772986476
5821 1 41.5032956512 55.2497891191 62.3212517127
5822 1 15.420557555 48.6055582307 2.1242729597
5823 1 49.4585099853 33.8362406937 38.9839323937
5824 1 15.9796182384 47.8533205401 49.4532191902
5825 1 35.4733008809 22.2564537949 8.1207719581
5826 1 54.7241108335 6.0522222355 8.5527275875
5827 1 22.1349544644 41.2845464677 40.6728297758
5828 1 0.9955486506 33.529248606 37.8928948591
5829 1 21.5258201844 45.547793585 2.6897770756
5830 1 32.1081032479 9.6811156162 22.0069046255
5831 1 30.1588231636 21.9046159201 27.8909616308
5832 1 32.8339499485 6.0305740655 28.2353671982
5833 1 3.1211658341 60.3494227635 8.1741208088
5834 1 28.6101948375 59.3154502333 47.3020700781
5835 1 2.2412562187 32.1024345388 58.6200885902
5836 1 61.254589627 38.5865558895 2.5905809659
5837 1 33.0372046607 60.58668973 10.2707873284
5838 1 37.9507786771 1.6391259437 55.6004932522
5839 1 5.6563069985 30.4359600503 5.5640141166
5840 1 26.2775210647 26.28715787 1.2670495179
5841 1 16.9227024669 18.6632480869 56.9219323167
5842 1 28.9234854909 38.423108112 61.7430433899
5843 1 15.3074353167 57.5814551215 9.4708065105
5844 1 17.4602220558 16.8318771508 17.8538824063
5845 1 31.229012446 33.3016184449 30.2469400964
5846 1 61.6095767847 54.4305976762 21.6475714576
5847 1 12.2509933698 13.8895022271 40.5076183999
5848 1 46.0908559117 36.2317741514 37.0950555536
5849 1 41.6623344328 4.3671102913 4.720661376
5850 1 49.8469425263 14.2756042988 12.0470458155
5851 1 38.0002854027 1.6862329159 4.460927426
5852 1 36.5850606963 29.2220375007 44.3538374884
5853 1 53.0232461767 61.3115286601 26.556925435
5854 1 50.2395951063 42.5349377121 57.1131567685
5855 1 33.2784397235 6.3208119687 2.6236610325
5856 1 53.3325057481 43.7615203786 11.6586762601
5857 1 8.5804412762 49.8705621474 42.3882441191
5858 1 11.5773617781 11.0128213426 4.8483773908
5859 1 45.7072102805 40.3725771533 16.9649658421
5860 1 60.1624813363 6.2803751775 42.8064058898
5861 1 32.3542511918 18.8768954324 58.471064528
5862 1 44.1821385899 2.9153350086 54.4224725265
5863 1 49.4766498542 10.4014825647 45.9949917432
5864 1 23.5487934864 20.3514526268 6.6891016969
5865 1 63.7544903168 27.5155671205 20.6412496304
5866 1 30.0897278988 62.1648583287 42.2552813991
5867 1 12.5940762385 2.7455067841 38.6154663057
5868 1 17.5670457286 61.6757117236 20.4744006275
5869 1 35.978382857 21.1363168872 11.9619521941
5870 1 43.8708004919 30.4368418495 54.0919238034
5871 1 2.4423001343 23.1686120663 35.9987902095
5872 1 21.5406218136 7.5276360348 46.5340229879
5873 1 39.9383540403 57.2725734641 26.9410749515
5874 1 34.2177448126 19.896507233 3.2352139616
5875 1 16.9436766903 23.3503256841 42.2387791573
5876 1 60.9638478386 38.4366500281 62.8910199576
5877 1 35.1957230945 25.4236875109 18.7149593106
5878 1 32.0375593131 21.6941808431 13.9407095655
5879 1 14.8533717221 31.6640543725 49.8313850693
5880 1 36.8836756918 12.0857190083 33.1418868211
5881 1 24.7853908722 62.7114478521 31.205014911
5882 1 8.3955153899 11.0679967774 31.2702050651
5883 1 24.3515456731 21.824057266 53.1727111386
5884 1 57.0711453359 6.200068466 40.9339053203
5885 1 49.7223568986 57.7698452188 43.2597136566
5886 1 58.1104716469 6.3367788325 35.716110585
5887 1 63.5058859323 53.8299664598 23.4432925124
5888 1 11.9516225465 38.3314009967 18.6059311399
5889 1 46.6804016526 45.1807131814 28.4739568634
5890 1 44.6296516763 47.7286719267 61.0061741995
5891 1 30.6009824692 39.5597472616 57.8553167541
5892 1 62.6874503172 21.3699306856 48.9903376037
5893 1 50.0011943981 8.4889861036 21.0721345037
5894 1 48.0999093837 2.0781800566 49.0624561799
5895 1 55.6319860802 7.28395083 12.2427422489
5896 1 62.2570063435 31.3107048419 61.6883088548
5897 1 9.9943432839 14.970965942 3.1071767199
5898 1 54.7624061124 57.310868743 6.3493066795
5899 1 58.2873983548 37.3526039013 18.073891303
5900 1 35.474371637 13.5927138156 16.07529345
5901 1 16.2168852048 27.4896800159 1.3301038283
5902 1 13.6729575415 6.8716530239 6.3551706441
5903 1 16.0363053289 52.3327344291 22.9662391533
5904 1 8.0734697304 37.1850620561 55.4114732983
5905 1 12.0569345635 60.9862707321 3.9170021958
5906 1 4.819781903 37.2958538252 50.8862058516
5907 1 42.3626089571 33.2487734795 37.0888829593
5908 1 32.1503666231 57.6228366975 63.989237857
5909 1 28.2400281368 63.3837567451 53.6265227906
5910 1 59.7745526805 44.0124552324 30.5936131475
5911 1 64.0016460313 18.924764531 42.2268118826
5912 1 47.856091909 35.4313524339 12.8947697606
5913 1 46.7202715729 61.2465904487 17.917120005
5914 1 34.9589600133 54.8385557706 3.04218812
5915 1 9.2472704171 28.4131757053 61.2788391046
5916 1 5.5262290215 36.0720425275 48.5062928367
5917 1 12.8536401272 57.0077187803 19.0764969765
5918 1 56.0095221027 12.1810163059 20.6990074771
5919 1 43.5300480925 35.5700468486 45.2740579237
5920 1 51.1623979535 44.6253686517 16.5368523377
5921 1 34.213272831 39.5620147452 5.5024330407
5922 1 38.3579809436 37.5699044148 2.4736921853
5923 1 47.7153819533 36.9571169668 51.1545247465
5924 1 54.1586885989 8.8362260255 13.7858908228
5925 1 7.1624955894 33.6436935431 1.4866924679
5926 1 27.6586075455 38.0352424419 21.5580688403
5927 1 44.2266064631 21.6621841298 56.0069396908
5928 1 18.2188212977 44.7071240333 14.9683835301
5929 1 17.3290229342 44.2426048197 17.6501867946
5930 1 49.5887643221 62.3267314648 52.3855793946
5931 1 14.3916238773 41.6821119288 48.8175049634
5932 1 62.0554522441 3.8830214344 59.5364039149
5933 1 20.1416474064 14.6050192801 36.6812397931
5934 1 53.1186694457 25.1001931812 37.8367746396
5935 1 29.5255653773 62.8576375599 57.6109953942
5936 1 63.9790341807 18.3959999482 8.8995266099
5937 1 43.0921718115 17.6221581776 44.6031977008
5938 1 54.3744144709 63.6935202017 52.359314376
5939 1 12.7481391533 35.1728593014 47.873853864
5940 1 21.3703085996 43.5274656806 39.5167910442
5941 1 38.2235065679 51.9746609743 55.275991152
5942 1 22.0637176873 55.4903943253 26.727616563
5943 1 35.0501002577 36.1469954583 19.3026154818
5944 1 18.9397551171 35.3750432574 42.6707977723
5945 1 36.0067893878 18.3222437449 23.8807908796
5946 1 44.7524737057 14.1525303269 37.4359339243
5947 1 32.0165221039 37.2188853534 31.5731660708
5948 1 19.0010401605 54.830052707 18.161252408
5949 1 16.9289380468 11.0112467012 54.6321517756
5950 1 42.1989722226 2.0866642244 45.4075875146
5951 1 28.0653059268 53.8798510994 52.0934519217
5952 1 57.6909871774 37.0598465718 39.9961748726
5953 1 2.9486670178 11.3727843671 37.5323019781
5954 1 33.9977989016 15.401157973 21.3845433578
5955 1 14.9902395527 58.4381230298 40.1150917912
5956 1 26.3546784934 30.1159299318 4.2019681996
5957 1 23.5642249721 58.9935935308 55.8756145979
5958 1 29.6982090606 32.5534118364 7.8281406
5959 1 1.9555973727 51.389776172 28.666692971
5960 1 48.8370305168 39.843182714 57.3622020527
5961 1 5.6321645965 57.7562403171 48.6308154788
5962 1 53.3760918221 26.2603259806 13.9070752251
5963 1 36.8499153801 16.5804384117 50.2081022783
5964 1 43.6474533555 21.5726185269 47.7503389924
5965 1 19.1774629832 8.8447290891 10.3587782899
5966 1 17.2441812555 33.8757956857 35.3161516689
5967 1 28.3383487459 31.7418416578 3.3410802523
5968 1 37.6491403701 31.7645794796 40.8727462482
5969 1 60.1975643467 46.1156722602 43.3692457126
5970 1 38.5076348625 43.3974003008 38.9572264755
5971 1 20.937660128 59.7637821333 61.6769084511
5972 1 60.7857873888 34.3591476105 12.0255047211
5973 1 5.3482252589 62.7426257519 43.7431915527
5974 1 60.794731352 49.1336299712 27.1070421552
5975 1 59.6382517207 62.1600084332 50.3542290004
5976 1 56.5982490301 58.4225655728 25.3370192481
5977 1 15.5001084387 46.6495386811 40.029242342
5978 1 49.4580061 41.3378953184 22.8119242959
5979 1 55.11739327 36.4999040893 30.8282347164
5980 1 45.8314179943 8.726064113 13.592461873
5981 1 53.5254308126 18.524238744 41.4857856388
5982 1 18.8338132436 4.3372991803 62.7515697151
5983 1 27.4471017124 50.5232195156 49.1286541044
5984 1 5.5912113229 41.9045142804 62.6041832798
5985 1 30.7498175745 45.4040603178 46.8497700818
5986 1 35.2219881131 25.0177449574 54.5738270581
5987 1 24.9359895758 20.9350777161 2.6472680564
5988 1 19.1752584852 11.0176082525 56.3289853504
5989 1 44.9300302702 41.8361748436 22.0695753533
5990 1 25.6676939425 30.4580680156 58.2007930777
5991 1 34.4451860167 37.6110340482 44.3418702137
5992 1 14.6937030839 9.6620309624 43.0245252168
5993 1 60.5221924182 33.7279683509 40.8481188567
5994 1 53.069351677 61.1943123542 59.3619336475
5995 1 23.2686962738 10.8045907636 27.2488228671
5996 1 5.7367774727 58.3720510766 16.7469095007
5997 1 24.4816110529 6.6036112659 26.9245097239
5998 1 25.1326937798 23.8726027443 16.9344177989
5999 1 45.404942117 53.2906202868 22.9943307559
6000 1 53.2545924915 52.143021633 29.0711868544
6001 1 47.4204831115 42.9916467044 22.0187459289
6002 1 11.4500047815 21.4991142662 40.4454515574
6003 1 60.5153899673 32.5620408712 54.6754229213
6004 1 31.1698059293 34.4033005554 61.2063426145
6005 1 53.9097063004 23.0956116909 27.8604135876
6006 1 39.623047846 9.513384814 47.7199799062
6007 1 31.2043220688 50.0792336259 45.0981389863
6008 1 61.9890653626 14.7195272029 13.6907194965
6009 1 59.9958212903 13.118683768 26.906369855
6010 1 7.3203502407 37.4945105844 10.9543076681
6011 1 18.1263583545 18.395307106 3.2268872579
6012 1 27.1103174093 42.060088851 60.4151168028
6013 1 15.0334477128 13.3843572653 7.1469318338
6014 1 36.3444554901 48.7955859551 14.1759609909
6015 1 59.9942466489 8.2607260859 27.4351974234
6016 1 24.6293124164 16.3019158406 42.4907217816
6017 1 12.6243093534 46.8777357131 7.5111967786
6018 1 1.4967424592 62.710377096 33.6791544675
6019 1 14.1066137836 44.0787161426 3.2402528141
6020 1 50.0919567285 24.4041386959 44.0945255423
6021 1 54.1365176479 47.519118649 9.4870568098
6022 1 17.6392902761 38.7955422964 2.2297739336
6023 1 18.1450650944 59.7892283384 62.061876781
6024 1 33.8294382429 5.9783148666 46.5725702094
6025 1 6.7704917617 13.7491071997 40.3399505834
6026 1 63.2244660209 23.4831624327 13.7776397019
6027 1 52.9031955162 42.7773695024 19.8420246405
6028 1 62.2738864994 7.3474970585 19.6210079733
6029 1 5.4018701422 42.759670533 24.7510636896
6030 1 26.9429015355 45.3998402789 52.7956160157
6031 1 50.6400579077 1.6110167051 20.3856538381
6032 1 26.6531675175 6.5079423529 9.7587139445
6033 1 25.280080215 57.6271197222 37.9876252859
6034 1 31.0718002484 2.4418340405 14.5582209377
6035 1 28.6319248889 44.4367895974 50.8082925951
6036 1 24.6637655703 14.353958455 56.7014825204
6037 1 49.0389625301 40.0463744405 39.283681131
6038 1 31.177553165 40.0288014424 62.3957007582
6039 1 34.116022978 63.184344158 3.0855978341
6040 1 11.0960253943 44.7058643202 14.4783551258
6041 1 38.6203162012 40.7245409995 49.8121744442
6042 1 17.5371905276 9.5144555702 36.2458199527
6043 1 32.9065094243 35.8019600343 38.4224152698
6044 1 17.346281004 13.4121969253 14.7655697175
6045 1 46.8310003563 59.6395114339 56.8564272344
6046 1 36.7827726707 47.0851474786 29.7678082106
6047 1 63.410336692 10.9137449056 45.1615655419
6048 1 12.4832844695 7.6460490683 60.9092392748
6049 1 54.9536935499 50.5819221471 60.2754776033
6050 1 10.0973248315 43.7003613066 61.2982386867
6051 1 49.732182661 23.1764852733 3.0169938575
6052 1 34.6362844972 1.4949719324 58.8962177065
6053 1 54.3273012002 34.0420148321 12.162876437
6054 1 43.2112147015 28.482648884 32.3888933027
6055 1 61.2312219486 35.3893410013 14.5092180972
6056 1 27.9817869468 13.5524029957 8.1479187759
6057 1 32.4555321268 49.0525674319 18.3822690752
6058 1 60.731178825 5.5403252114 6.2611897466
6059 1 13.0425341098 2.5057455857 5.2081199655
6060 1 3.0037857655 60.7784810527 48.2895591941
6061 1 63.4848487231 10.9456156476 15.5822417342
6062 1 43.5464873488 35.0606818479 51.4350628587
6063 1 43.7821166882 8.1175596897 5.8592908723
6064 1 48.1091682751 15.3656970486 40.0565781167
6065 1 61.4444283945 4.6742850374 63.4932258154
6066 1 60.1180764488 34.4619402012 60.1949189492
6067 1 23.4841072176 39.6260081718 53.5760082945
6068 1 43.5476210906 26.4159005511 56.1161568185
6069 1 42.1874458475 52.2103532994 34.2239174069
6070 1 21.9613030105 19.9232131511 28.1521631465
6071 1 8.8139920889 3.4311623377 35.8323821062
6072 1 15.2332382139 23.1160820291 32.1321637685
6073 1 55.3113261051 25.3450814121 58.1737092456
6074 1 21.116035506 49.761848905 39.6284016267
6075 1 52.1608465737 39.2251044708 11.9188700053
6076 1 56.3232536557 60.886123539 7.0848972611
6077 1 63.7325083228 62.0913540681 47.320398904
6078 1 9.7806329528 14.473190302 48.1528173348
6079 1 47.8799634726 34.8629068878 27.2387451621
6080 1 1.8899978119 55.3108222199 49.9594978937
6081 1 14.078333224 5.5010410577 60.4062358253
6082 1 40.019353594 30.9147770078 27.3824784293
6083 1 41.0338635565 57.1869129718 36.9899954792
6084 1 59.8922728717 18.9448569553 8.7864673572
6085 1 26.1133804449 52.3429381054 10.132407842
6086 1 47.9304779688 48.0641965167 38.454978854
6087 1 29.4681854446 39.7471295884 8.1940872618
6088 1 63.9282677419 11.3468972625 40.7852591719
6089 1 23.5064041398 57.5365463487 53.6374193092
6090 1 56.3059326002 42.6342660918 4.3827055397
6091 1 33.903761317 31.0029569263 35.8766610224
6092 1 46.591150978 44.4270268207 2.7883244331
6093 1 36.0358257753 62.4614577832 23.9163777752
6094 1 60.4081883807 59.0450528118 30.011310757
6095 1 35.9209399386 11.3346780452 21.6000802729
6096 1 44.923479762 16.658414654 25.1758389542
6097 1 24.2930319986 62.4663706643 28.4203560701
6098 1 9.9752586301 39.4019681931 25.8973396446
6099 1 49.8369907927 63.0283916735 42.0503890599
6100 1 25.1478733229 30.8633807124 12.061784459
6101 1 27.4581871879 11.5212415585 11.5784325342
6102 1 60.3595634542 53.2491757251 17.4925966831
6103 1 63.3375252736 45.0165725616 53.7119313403
6104 1 30.3467723613 25.710461203 8.121716743
6105 1 16.6574698691 1.3034596361 1.8914590791
6106 1 26.4186089343 24.4042646672 27.5888824242
6107 1 2.5513409021 16.6666027892 61.8462138946
6108 1 18.9452348692 25.5613111694 7.9020227746
6109 1 46.9417921253 60.3641614071 48.332074512
6110 1 38.7587586732 62.05217699 27.3756759784
6111 1 5.8460827802 52.5555776803 29.0682895142
6112 1 43.3586641223 43.0634503523 20.2430543127
6113 1 40.4883447892 31.7889549285 30.0254825296
6114 1 38.5905239859 35.8061800732 51.4014285184
6115 1 63.4023375137 62.4555371315 18.1050062171
6116 1 26.5787814577 50.3980040314 31.0877356194
6117 1 42.139009878 56.462011056 39.4315084658
6118 1 52.3350019128 33.9764467641 42.9747665485
6119 1 20.2936947802 50.7977739905 62.3723330798
6120 1 59.9070745009 16.3030495824 45.9508387983
6121 1 57.8436014221 15.5794073797 52.5869445371
6122 1 60.6409203799 42.9177015441 56.1245968964
6123 1 54.8425238669 11.4622869844 14.0564142157
6124 1 55.385145294 28.0748167609 3.9432231244
6125 1 13.7084184659 42.5046416116 41.8396390547
6126 1 53.5653007329 61.6510843321 50.6299802027
6127 1 32.2131003366 11.7072382009 61.1358616653
6128 1 59.5770926487 7.7204981137 9.9665666095
6129 1 38.5967595658 25.3309726251 11.0043812647
6130 1 38.5412062171 25.1123494129 15.5387816315
6131 1 13.3977732101 14.3637842174 13.221980244
6132 1 1.3016009294 58.6307961518 56.2351367228
6133 1 62.3252198091 24.7777066221 8.4710981772
6134 1 13.9731471784 42.0650647178 16.7828743104
6135 1 35.3143880706 4.8470483935 28.2618211738
6136 1 20.5959629437 41.6719082525 29.8693410882
6137 1 57.4662543565 62.4195093362 48.693045307
6138 1 23.0964305044 36.5536308539 42.0131645372
6139 1 6.5622548841 45.1860669621 20.9309206628
6140 1 56.7596812666 44.3245491583 53.3337654612
6141 1 12.1037958916 38.6392748837 54.1110084572
6142 1 40.7718432272 1.1332471991 59.3910960063
6143 1 51.9337202979 54.0324653441 42.3535390226
6144 1 54.6145157919 12.7881350449 9.0767682461
6145 1 53.6754626454 56.616577856 53.5884164687
6146 1 47.3178164921 16.3010340414 62.0898424123
6147 1 37.3909621658 29.4353069322 32.4098675262
6148 1 27.6758656153 36.5523711408 23.9658845009
6149 1 39.394850814 48.1996786629 43.205986892
6150 1 15.5627161808 49.9845661849 26.3143046878
6151 1 40.2326230255 58.8933203663 30.4115846014
6152 1 45.8232928447 15.3081911446 35.1046458358
6153 1 53.575000524 5.666202045 59.0208033342
6154 1 31.8633409884 29.1859467198 54.4345657725
6155 1 38.8508437024 44.0002990008 43.4444505859
6156 1 1.1650518061 28.6577490079 56.3551873833
6157 1 62.343737592 56.12686438 34.8276979061
6158 1 63.7618596386 39.5803435711 3.0722070837
6159 1 41.6999998552 7.0525478282 4.2965096694
6160 1 27.2476891252 39.7936759883 3.5224978375
6161 1 25.1942937514 43.6119294454 15.0844031085
6162 1 6.8610210452 13.2951065907 26.8161743954
6163 1 43.0268556861 61.9987651536 21.0679144647
6164 1 33.717701689 50.1943714053 28.7296156415
6165 1 54.6969640157 17.4777950539 56.9052411178
6166 1 37.806289582 8.0431736298 6.8040694149
6167 1 34.8242966806 48.9006460294 23.7824072848
6168 1 11.2732670305 49.3067145541 14.1707331815
6169 1 46.9211958158 28.6745661781 57.6186796442
6170 1 28.2057639399 7.8423123726 62.7573014098
6171 1 45.313927844 2.1014217636 6.8623059525
6172 1 42.8325449371 26.1041215535 63.1870525412
6173 1 14.5444900646 20.4655826356 44.9421865018
6174 1 34.8641036153 59.1858257531 37.2960427821
6175 1 37.8496866991 2.5402806209 21.6690495663
6176 1 52.4244415444 45.3604742438 9.5674894926
6177 1 17.3328020736 56.206163321 2.1943445021
6178 1 23.110791234 18.5816816623 45.9207946403
6179 1 46.6826061506 27.9783857214 29.2491843185
6180 1 24.9187315061 11.5388145566 10.2328699634
6181 1 5.7154757238 63.679726343 9.9598271443
6182 1 23.645917368 9.1024663938 10.2538441869
6183 1 49.2927947241 14.2337818232 37.6167657429
6184 1 4.4836526507 2.7500858413 28.0236724081
6185 1 16.9897192049 57.4560506802 20.1590314475
6186 1 22.7944142835 22.2662795573 1.9062544097
6187 1 48.3881317459 2.9380098448 36.4193454352
6188 1 55.2948238632 13.0568948394 36.745359191
6189 1 52.8207472924 14.9285765954 8.6609999303
6190 1 4.212952898 13.7252986217 32.2498209741
6191 1 9.4112220799 12.9242470477 37.2619675422
6192 1 11.1620973476 16.65803674 54.5369174636
6193 1 37.6208598105 50.9272724994 8.1503752165
6194 1 3.2768978688 15.1359253752 44.3846374742
6195 1 3.4603687864 48.3162021266 13.4120079683
6196 1 28.5393989601 18.2876016341 21.7453251959
6197 1 26.906180898 39.8705184887 56.5488052901
6198 1 24.6169042421 37.7415403276 40.0811425226
6199 1 10.4807815057 15.8297753626 8.7146007236
6200 1 55.0141597797 41.9230320633 17.8247200476
6201 1 20.1810764271 50.4943090995 49.8764198134
6202 1 1.6040460826 52.36737654 19.1472928539
6203 1 8.6653459406 6.0436057977 8.932468108
6204 1 45.2767033212 47.7323250948 54.2318779312
6205 1 49.743709036 9.4318813751 25.6088023541
6206 1 43.6980938229 21.6868115214 34.1347927035
6207 1 33.3887905929 34.9913976262 30.703208189
6208 1 19.7246193775 2.5776626078 39.7265332789
6209 1 28.5887167288 37.2276403596 38.8635038193
6210 1 1.673660979 53.8130233183 16.8350894193
6211 1 16.2313719057 42.6905752683 24.1503694876
6212 1 49.3356249703 48.4104286681 20.604340036
6213 1 34.1735918677 53.0541091482 24.2252594326
6214 1 41.6838755272 44.389802298 7.6561267732
6215 1 37.9512825623 34.2792188129 61.7875742488
6216 1 49.3642204581 34.2680703518 23.9946059601
6217 1 47.0455924866 1.7018659557 59.7540823423
6218 1 61.4839204008 13.8190212779 29.3836586942
6219 1 5.9391755799 39.7728277361 30.6762503282
6220 1 8.1845764277 29.2452792078 44.6325490165
6221 1 44.3162350517 14.5233898699 32.9715106214
6222 1 18.6123556768 2.6805748713 11.4794820685
6223 1 38.3184889373 41.4996424832 5.9152410306
6224 1 39.4949980071 42.8773277386 45.8771455806
6225 1 41.1677080756 7.0886512062 15.1482075782
6226 1 17.7197859445 50.6351450265 42.349067041
6227 1 24.2078124059 33.9130202085 9.5509242651
6228 1 1.1480028487 13.4747416818 44.7107142157
6229 1 50.8904888762 37.5831314025 18.3565079418
6230 1 25.4403787097 6.0186319851 29.3202951242
6231 1 17.1024005437 49.9845031992 21.7469628229
6232 1 43.4736759303 26.8077973032 60.7207232061
6233 1 47.5260470711 8.1685780711 42.8262463715
6234 1 3.2588965683 62.0143855963 17.9509433024
6235 1 48.591764372 47.0508832817 43.6439261587
6236 1 22.2511000142 63.6453361748 54.508825861
6237 1 15.2410484352 51.5927159559 7.9777945188
6238 1 35.0385738826 24.0463801694 21.0131169439
6239 1 15.4887710206 47.2121895469 59.1303983758
6240 1 31.9277123289 42.3842130371 14.2492762946
6241 1 59.8981935234 3.9094691113 26.4812166764
6242 1 61.2317888195 44.8422912513 16.4884163682
6243 1 47.1983956882 53.9013292081 5.9428917336
6244 1 27.8815137824 59.7855751703 49.9031887172
6245 1 21.1423635102 7.7332842019 41.5209946206
6246 1 60.2719504066 8.1541543559 14.6023108969
6247 1 17.8155871274 32.5381063219 17.814201443
6248 1 59.1147779331 34.2833128806 8.303745289
6249 1 41.5975851784 6.756553036 50.3806829759
6250 1 57.4194560141 2.9088033961 11.9916184381
6251 1 10.1064577517 32.1403519038 40.1504267443
6252 1 7.1027285004 49.6954620235 15.0427066042
6253 1 24.3150139926 44.3669385048 22.8201124312
6254 1 5.9229252807 28.7563215596 46.4260655734
6255 1 17.6408649175 63.3790958066 26.2367063595
6256 1 23.2918120096 46.6908572715 34.4792612566
6257 1 54.7471635836 1.8128466818 45.1197430663
6258 1 32.4275035099 54.8870547258 31.9190203083
6259 1 59.4529479206 22.6238491268 23.2541465872
6260 1 39.6397390448 36.4796856937 12.8215804283
6261 1 57.9206328795 52.7542974253 56.8247454494
6262 1 4.8818164756 38.2078861252 28.6237997393
6263 1 16.2482520616 6.5770187219 34.4968342547
6264 1 51.9364916667 12.8639067891 33.9029425035
6265 1 38.4741894791 54.6070834845 56.2643620672
6266 1 18.9269060433 25.2451861615 51.6383805565
6267 1 40.7222105302 43.3544440834 59.3647050164
6268 1 21.6003952012 27.3870763821 45.0214224572
6269 1 20.8004143834 34.2644171837 55.1774186003
6270 1 58.3506359535 39.2239077434 25.9821183377
6271 1 63.4219890384 43.4458362703 29.0794379753
6272 1 4.9408655282 45.7712666928 31.321853303
6273 1 30.7311738203 37.0073795203 18.5235459018
6274 1 24.6557034063 40.17209381 45.702549342
6275 1 57.6439368923 59.5804308885 5.1770554399
6276 1 42.521962667 45.03849157 63.1124775244
6277 1 3.3774859615 41.0511846119 38.3000971257
6278 1 61.7900306894 13.8243750587 4.9387429116
6279 1 39.3966144124 6.1637572352 53.7903484821
6280 1 6.4774195039 2.4889725055 17.1175171011
6281 1 3.0728180445 22.0159115744 40.471338662
6282 1 21.8976245123 14.0164813097 4.907243785
6283 1 42.9949219585 19.3770645273 3.5017881538
6284 1 23.0235561003 57.687774909 2.032093452
6285 1 39.805265349 16.8349004623 42.0624193202
6286 1 29.2444603943 25.2309514033 25.3074159897
6287 1 8.7054048179 55.8538845466 51.0384421824
6288 1 49.0771318377 3.8652909722 42.9587052062
6289 1 24.3924863495 30.882150438 37.7393358296
6290 1 53.7330945207 37.3835298584 18.2200180251
6291 1 11.359620365 49.4347643929 4.221348886
6292 1 6.8759360485 49.5548780391 21.2888051606
6293 1 63.7740158702 61.7065117094 23.4852409594
6294 1 61.5353166962 11.2595361575 30.2568918301
6295 1 3.1973217909 10.6050522052 45.5173715131
6296 1 29.8787889366 46.4333719095 28.7334577665
6297 1 5.0592911588 23.35473468 13.5173199853
6298 1 2.6092499143 25.7015802255 29.3845404934
6299 1 9.3105080158 62.1884779497 50.1754127228
6300 1 6.3815301411 35.3688076774 6.364045323
6301 1 21.7516867471 46.8977651517 15.7780011533
6302 1 27.3727786382 35.6718316688 54.3354263498
6303 1 43.7557256983 59.9538098577 37.9371107897
6304 1 40.6947487841 30.8937397987 60.2914759599
6305 1 46.6244074044 53.1213148432 45.0369169286
6306 1 41.4457267616 40.5521492588 56.1031187877
6307 1 3.8298048535 23.4624401519 11.0712720315
6308 1 51.3863749465 27.2462404552 9.6579998804
6309 1 27.9983521744 23.4247117439 53.8930151015
6310 1 25.6959115164 2.3304376091 31.5232184455
6311 1 43.0231395324 52.3586845194 55.3966716691
6312 1 28.7948057955 53.017514482 60.7558692022
6313 1 62.6844899913 42.3975030106 62.5514642857
6314 1 61.2132710367 60.1360903464 38.0327860013
6315 1 47.8495414008 28.294195801 60.2960739128
6316 1 37.1535062424 58.7795682714 33.450138622
6317 1 22.9308412146 24.0929265692 15.1785036787
6318 1 40.5875471975 40.4651660677 21.940706701
6319 1 8.9739756554 53.172081282 50.5747417823
6320 1 42.5476608147 61.931118559 41.8402689112
6321 1 50.0742577591 57.2516622263 50.6606542172
6322 1 31.0901290743 26.5147880311 23.6547353599
6323 1 29.1746722873 34.7148276104 39.4094634862
6324 1 31.8370759698 55.5822903976 27.9526245881
6325 1 42.9886863785 28.0336871275 41.9838762071
6326 1 4.6778689212 5.3584793237 52.5732766497
6327 1 17.1944855728 15.337227532 30.0564084868
6328 1 17.5386391977 47.0519540378 2.158820592
6329 1 23.9093863674 30.0794612369 17.7777327481
6330 1 25.3839435619 12.7870013031 7.7438657922
6331 1 63.3530827306 14.3491715451 2.756819008
6332 1 62.1394121236 62.0245892726 6.3777321061
6333 1 9.5770633123 38.6580446092 9.8426108384
6334 1 37.9051770621 16.5437807599 63.3464062511
6335 1 62.9339131894 56.1478386035 46.0174776224
6336 1 29.880363578 36.4829609478 4.8483521966
6337 1 56.8177540415 48.4244744694 56.8581278471
6338 1 3.0968092809 9.913910601 52.3806035278
6339 1 15.6141754618 43.3995418131 8.4813648392
6340 1 31.5552151588 45.8779643942 53.2156043704
6341 1 42.5375831097 49.1433927479 28.1493917777
6342 1 28.2626399873 29.7116250054 17.6048371222
6343 1 42.16319637 44.3826219332 4.9388247929
6344 1 33.4512723638 12.4242669097 17.6210244358
6345 1 42.9947959872 34.1915427797 34.5894861548
6346 1 50.8596259048 58.8958397925 18.4896596188
6347 1 2.6306776345 24.1265609096 56.6344027967
6348 1 50.0507011237 26.4783823219 25.7271524018
6349 1 54.1023164367 30.8517913517 15.1218795739
6350 1 49.8864345327 15.7023553803 29.8205901904
6351 1 17.9545964704 41.8799498746 28.7920974123
6352 1 7.5368949263 29.571418935 24.4065951365
6353 1 24.6140698876 42.9724360793 56.3987734573
6354 1 27.8241968353 47.0249331914 22.5468176695
6355 1 63.7441606692 41.695086974 18.7261707574
6356 1 25.0801007569 36.6072946329 35.6203094021
6357 1 42.8504328634 39.9881756942 47.6096920224
6358 1 48.084099984 19.1590711716 20.6418165014
6359 1 40.1903596503 10.1177951698 42.0305485783
6360 1 43.8925305433 41.4314920033 55.4209211467
6361 1 35.8111559401 28.615611604 27.0885243723
6362 1 13.4198181897 21.1865164551 50.2583018462
6363 1 47.372047142 62.2200967491 56.5539071282
6364 1 50.9363424339 21.4247282064 61.826184456
6365 1 18.5202706476 40.0931097973 16.3286847444
6366 1 20.9224175992 13.8810621492 61.8764470095
6367 1 2.2680503168 1.2186085095 46.5754045639
6368 1 41.1222954176 40.4098646617 6.18946798
6369 1 48.8862223142 10.9920360761 2.9250222025
6370 1 60.5543780884 3.6876525263 13.3614934722
6371 1 51.244720206 46.3914864482 21.0272257309
6372 1 25.3597570699 9.4733259368 44.1127283969
6373 1 25.4141766768 60.5380648035 54.4026320449
6374 1 9.9137216441 27.1515100284 10.2472936787
6375 1 57.6717765523 39.8552129743 44.2618154448
6376 1 54.145839525 34.2533946939 61.831853165
6377 1 6.5844573279 38.3026165519 61.2457716352
6378 1 52.7465501896 35.4130865936 30.6140205
6379 1 6.0297237591 31.962858325 33.4959921796
6380 1 28.8928114764 43.8597150164 37.9563844005
6381 1 53.1203070727 48.9910304459 5.4958258453
6382 1 60.5718881008 14.6409211041 33.576865762
6383 1 27.7742492101 11.8407677918 2.5175679934
6384 1 43.7915645366 59.0159534387 33.8185417244
6385 1 18.1986029021 10.207675701 16.8518436038
6386 1 61.100022827 30.5300606205 19.9326609996
6387 1 8.561986479 3.5176605391 49.6872738882
6388 1 48.7178616555 50.7475744226 61.068529999
6389 1 4.030256704 24.6999193369 47.1820194176
6390 1 51.2680878844 54.9883986464 17.5401508534
6391 1 28.8408483101 16.0781278045 47.8487855729
6392 1 40.4453885717 13.8253828292 59.8755816729
6393 1 63.8434260632 1.1355827072 42.8060909616
6394 1 6.0655500003 10.0197894889 48.4822323161
6395 1 3.7220175003 30.1195201142 45.7161542437
6396 1 19.614835379 49.263884308 8.1454623353
6397 1 7.4596115263 5.0398222925 47.7366711051
6398 1 21.0529238786 29.4745469959 48.5818126383
6399 1 55.8256669726 21.2591389166 51.1667439638
6400 1 18.2261906194 47.8763732902 23.01776142
6401 1 6.2599111378 20.19959421 11.2569537456
6402 1 42.9489424295 42.5516918967 48.7336710551
6403 1 33.4628617245 33.4550515031 10.4542645445
6404 1 15.2469690869 23.1619355867 44.3041418057
6405 1 27.6031801682 9.1806945786 60.594751894
6406 1 5.293226184 6.9080146432 16.2806896745
6407 1 5.2356824886 32.7415499911 62.5094528531
6408 1 39.111352376 6.4994959764 34.6028391138
6409 1 59.4613879985 49.8622480408 32.6654003329
6410 1 52.0783353642 41.0241637654 30.6513080084
6411 1 43.8308046003 41.7612848985 12.4182832724
6412 1 50.9559309729 37.8802977279 63.3856463148
6413 1 54.8012682622 23.1914758594 32.188661902
6414 1 56.4761828286 17.1270279352 43.6756079437
6415 1 28.591803026 11.5402632266 59.9623129213
6416 1 30.9701413995 7.3905162616 22.991937301
6417 1 27.5279752948 61.4161478349 31.4018450863
6418 1 6.3733923944 50.2014257987 30.2087078032
6419 1 63.7995250609 29.1435573732 53.7151436088
6420 1 23.2784590505 27.4910657003 17.6147258702
6421 1 51.6320819909 22.4589526792 11.7711056562
6422 1 40.8598971744 52.7844675545 4.5311753282
6423 1 47.9015675527 31.8819847426 30.2882586868
6424 1 25.2431706205 60.6072860395 26.6794955218
6425 1 50.9547972311 42.2477231204 28.4322603591
6426 1 17.5740371364 22.1112718577 53.8033865129
6427 1 23.8362600207 3.9669120297 49.8899617294
6428 1 14.6755002293 59.7960937749 23.3568761923
6429 1 17.705047301 34.9999006898 48.9946836139
6430 1 57.6824841138 19.2634384037 46.2771674824
6431 1 3.6454962267 11.1282740502 48.1003502833
6432 1 5.0857829257 45.3649462254 10.2706613571
6433 1 45.1603058288 31.5137076115 12.6648721159
6434 1 37.0912134286 35.4491143889 1.1236664509
6435 1 14.2796353808 54.0474559302 62.5665808432
6436 1 21.095880096 47.366189476 4.913391185
6437 1 2.5287857387 60.81853993 10.8292181552
6438 1 14.2267274297 5.4519563359 52.0764457945
6439 1 27.7977428598 55.5607493032 49.7787920464
6440 1 28.8768131197 38.3277478287 25.6045823151
6441 1 2.7968400938 23.7722665941 51.9375624229
6442 1 24.230865156 14.4365956358 23.7504105715
6443 1 35.789929774 22.1971842926 3.4225207056
6444 1 46.8888211886 54.1746869555 59.1346814004
6445 1 16.0990390423 22.5561395466 25.5354240647
6446 1 33.1047882697 23.3256982925 47.5634605508
6447 1 31.5586793699 26.2317934783 38.383364163
6448 1 14.4575698593 40.3196062165 57.6078461114
6449 1 16.8784235506 42.0718671686 33.0721616998
6450 1 22.2475098318 5.8226962061 23.5385898101
6451 1 11.5468137349 45.2809863459 9.5596162856
6452 1 52.789695364 12.9272703592 15.2159801441
6453 1 10.0267808967 47.417837714 27.6326574552
6454 1 41.4736923929 12.2645352859 61.8259325133
6455 1 7.1615193117 28.3956027073 9.710089018
6456 1 8.7676346461 43.3075197696 27.7820594314
6457 1 39.6751369835 62.4660557361 18.9597215701
6458 1 60.4549867231 28.0646760702 35.2067455843
6459 1 10.798481155 32.0366775139 36.0556032713
6460 1 13.7068438244 50.9506401778 36.5878950508
6461 1 8.9476476511 28.3717311436 42.1376241936
6462 1 36.8775660831 8.679013828 60.5783126377
6463 1 62.7547819835 6.3943729164 22.1470477103
6464 1 42.4827855889 5.1399631871 13.3793813985
6465 1 31.7589737562 29.5575620906 5.8890641919
6466 1 48.2469808906 48.6279811242 11.1509488864
6467 1 17.7138652929 63.689993005 45.4741003674
6468 1 4.3451031031 38.8279169236 21.502263549
6469 1 35.9187984263 9.9849584211 62.6669169933
6470 1 51.4710276683 43.6348562242 39.325062707
6471 1 13.1904874159 63.7886285424 49.0622042372
6472 1 13.1337373398 39.8230902897 42.5295209457
6473 1 35.2905165069 22.1364031344 17.5613140338
6474 1 47.5412895999 19.4317990624 36.1764727453
6475 1 31.3330647498 38.6628945047 29.4489748195
6476 1 44.5433613275 52.2666624759 2.367529862
6477 1 57.0994888812 32.5723075332 32.8864799857
6478 1 51.7940810983 33.5065107841 47.0091237917
6479 1 20.7841010984 11.1309194478 62.4915019411
6480 1 28.4568877506 28.3294677684 45.7099816494
6481 1 38.2851065395 39.8477176812 18.9527301623
6482 1 43.5722484821 42.1073910787 44.1515275611
6483 1 36.6989387625 29.9128011909 11.9302074234
6484 1 20.7124864075 37.0034744096 27.8009551282
6485 1 9.7082624339 35.1163611679 29.5035203977
6486 1 47.6151717745 32.8405634424 57.9833036073
6487 1 47.1374255731 30.1113949645 62.0723953856
6488 1 61.8650466058 15.4994785821 21.20282974
6489 1 49.8137490856 35.9621325577 22.0530731115
6490 1 62.6053800073 14.3429989508 37.5273890969
6491 1 40.3693648848 57.4888032214 41.3856384457
6492 1 16.7945896424 36.4589004272 46.7416237103
6493 1 45.4774386072 39.1097147489 47.3605837526
6494 1 6.962723984 11.0993006484 21.1375766003
6495 1 38.6138286786 27.7904995093 52.643001771
6496 1 25.5594845854 45.1267974598 1.6252590217
6497 1 16.7578690049 17.5829181139 50.8303375747
6498 1 26.7917989465 12.6781620894 35.999986937
6499 1 30.433818538 51.6953195896 62.5635575317
6500 1 36.5618819749 63.3129608677 53.6539845367
6501 1 59.8927137713 8.9591110405 53.5605768087
6502 1 16.8556857288 27.8871195058 41.5233880755
6503 1 51.4262448668 63.1709282132 10.3765402449
6504 1 24.808317651 30.1956697724 20.2680596182
6505 1 17.937464372 20.6071114049 26.2237943
6506 1 36.4617347817 5.7931055449 30.6102413607
6507 1 54.8116608954 36.9457795487 46.2647593082
6508 1 59.0112295145 12.7544377189 60.4398701657
6509 1 44.0440740318 49.4944118093 10.3150662446
6510 1 52.2591671828 36.9304740342 37.620040997
6511 1 43.2002551973 49.1409363073 52.9607014202
6512 1 58.0784749336 15.8655512152 6.016805401
6513 1 59.2315533394 57.6543295256 22.012132435
6514 1 32.5773463857 4.5771548572 17.6011209685
6515 1 23.8339925371 27.0187992511 55.1509646247
6516 1 22.9625859852 10.2344446048 22.3838107915
6517 1 4.4494892309 52.2266665843 51.9124941318
6518 1 61.2176800326 26.9537350683 28.5213850625
6519 1 14.0201974634 56.9607314808 5.3276163522
6520 1 22.7840846359 52.1958665985 46.4845162622
6521 1 18.8378443256 9.7221822639 29.5292185454
6522 1 36.6736185288 32.3917906429 58.0079309988
6523 1 3.4724431366 33.7983233288 28.884812298
6524 1 57.9929404127 21.5986945885 4.030836172
6525 1 32.2698504127 9.1443518551 14.5982168293
6526 1 57.0329130427 45.443048439 25.145101954
6527 1 26.1790744842 41.1668262764 1.3828322703
6528 1 58.8277522983 22.894498491 31.7177181515
6529 1 32.3778708129 7.8867172601 34.058517074
6530 1 42.3895038322 26.2306597365 5.1878889728
6531 1 28.5860083456 46.7278928373 9.555333261
6532 1 30.4572492021 56.3822712154 44.9330535817
6533 1 54.3232701182 25.6913765492 45.1186723101
6534 1 48.1902308145 34.8835031973 5.0607902174
6535 1 4.4937996399 23.0271462827 27.0948229379
6536 1 1.4611599725 61.7010319573 63.0430043457
6537 1 21.4705187784 61.1485217822 25.2448712332
6538 1 8.4752552305 57.4753872767 48.960419417
6539 1 7.8248653459 40.8359626251 35.2788011749
6540 1 39.8800923084 16.8867376572 35.4178105179
6541 1 20.0665685044 18.7427989706 59.9668478885
6542 1 40.5087521417 46.0305156532 58.8514978907
6543 1 39.346855744 26.8603273404 42.4331528919
6544 1 53.8433824045 21.2314252279 36.7499571439
6545 1 54.4966066437 14.3199462007 2.163374455
6546 1 30.9977921025 26.2026941052 17.0284553834
6547 1 30.9460178932 19.7650561687 35.6017286336
6548 1 33.9526381861 35.03832194 47.3777788367
6549 1 34.5064080744 48.6568285547 26.6507110769
6550 1 9.956048005 44.9566102171 35.6947584476
6551 1 21.2098841335 15.8343103298 6.9423418257
6552 1 5.3960817604 20.0122118832 34.9658254498
6553 1 56.713638752 4.05622569 36.4149364392
6554 1 8.9580402844 53.4018529554 40.9657130766
6555 1 53.5865898847 16.753082095 10.3378040664
6556 1 8.7224739307 8.7224739307 17.8900991586
6557 1 62.5908933064 35.5745188302 59.6034836386
6558 1 4.8846571287 25.3035108791 33.1317461305
6559 1 41.7813143372 9.5673005356 12.1747177403
6560 1 31.0711074062 33.9437572086 37.5226651727
6561 1 44.1114686838 63.4195955834 49.4933410531
6562 1 31.4917886031 57.7810566656 59.9584078106
6563 1 22.3172979387 5.1304271587 55.8097316017
6564 1 1.6132760006 57.2811395133 29.0364187722
6565 1 3.5869699551 36.2274911267 22.0590567488
6566 1 51.9707558636 37.6190332265 14.0521941767
6567 1 28.7631869962 59.0084581456 35.1928257543
6568 1 4.7531493774 55.2438684674 7.8940865819
6569 1 18.5625970085 13.901973387 28.1334564067
6570 1 49.9113138668 58.6733744553 3.5811122891
6571 1 14.044824855 49.3154695603 45.64907452
6572 1 45.5404872489 39.2959633339 21.2006252421
6573 1 53.7555174143 13.6487080639 53.6823910676
6574 1 32.2661972446 16.5363484525 28.3248698155
6575 1 49.2919759106 61.9925925593 6.6803592878
6576 1 48.8755147526 42.734224328 39.6834510901
6577 1 62.1937687448 31.6781001738 50.5813552762
6578 1 36.3413062073 16.3515485375 36.1481292001
6579 1 34.1398945417 20.7618041762 59.341148381
6580 1 61.5929485715 18.6870566649 12.6666987
6581 1 60.1609066949 40.0852995759 52.9782114326
6582 1 47.9557982026 35.2626138613 47.6832592687
6583 1 23.0442153955 62.974098038 23.9947319314
6584 1 12.5846283901 26.7600541759 16.4607026795
6585 1 62.5773513904 12.025693678 17.9512582306
6586 1 63.1762190084 48.4988605293 21.7428057696
6587 1 46.0813450777 56.8512624106 27.7715408269
6588 1 3.1245544624 44.7318144105 24.3776217347
6589 1 18.0509645242 34.1264785969 11.1823157432
6590 1 11.8926049868 22.2921666619 1.9415515714
6591 1 41.8497797453 13.9967667994 28.6597645489
6592 1 28.4222456398 10.6136182544 34.9953657225
6593 1 25.9050238946 46.907968828 12.7928589691
6594 1 46.3079044826 2.6234909712 14.2940590961
6595 1 23.2305899518 35.2554334965 55.3931444723
6596 1 23.5968515419 2.0552091878 37.9102789002
6597 1 42.0503890599 18.3764114092 9.8491613466
6598 1 27.6552063201 40.9403298572 40.7994309445
6599 1 63.114745008 11.5808259892 11.2045496797
6600 1 52.1369120244 23.5467779454 60.624040224
6601 1 50.7508496767 12.8136442356 46.6586086156
6602 1 3.2633118628 1.4730340284 50.4813340544
6603 1 44.1269001695 55.8602460978 62.028368412
6604 1 55.7992759827 31.5590572838 1.2776764577
6605 1 2.7141147332 56.3146876064 17.7104640674
6606 1 57.9353085373 28.059952146 16.2781702482
6607 1 10.0644463191 47.0581896178 46.7969251164
6608 1 8.942356856 1.5778786918 54.0715794365
6609 1 6.681385954 51.3395136184 19.2257729814
6610 1 15.2360725684 60.8454348052 14.4127870578
6611 1 58.5200673684 1.3617005827 60.632102388
6612 1 45.4019817912 46.1626595597 8.2047948233
6613 1 13.0759165075 36.8162180541 16.7605144025
6614 1 10.5563013074 37.2367102941 40.8927127012
6615 1 55.204565418 54.0092866226 8.1426909664
6616 1 34.6462992165 45.4312071356 33.1658213704
6617 1 21.7060221465 61.9178285856 27.8527293375
6618 1 12.1646400354 19.2660208156 34.2122650605
6619 1 33.0804758064 32.5209112378 46.5544933261
6620 1 5.7201114681 39.4529865745 58.9363395694
6621 1 37.5545989003 46.8640678257 16.917915557
6622 1 39.0638611913 5.6137160978 37.1392714841
6623 1 18.6180243859 33.8099126895 53.4293776871
6624 1 51.3822808789 25.6065348705 62.2883732003
6625 1 29.3793756696 47.1789331205 20.2498567636
6626 1 30.9207606451 32.1324786968 14.9213962306
6627 1 3.8716525234 6.120914392 55.0250562982
6628 1 21.7356883905 52.3769503597 35.6539437425
6629 1 41.0979199687 44.219300127 52.8022924952
6630 1 36.2073987025 58.284249072 17.8359314944
6631 1 46.4778397827 2.3625036067 39.9972456287
6632 1 48.9813306548 55.8985413767 9.3096262166
6633 1 48.8329364491 27.6579147033 15.805714842
6634 1 4.8322341672 32.1022455819 19.1510719933
6635 1 4.9856861211 30.3379543694 41.2081448668
6636 1 36.2682428462 20.9469190194 40.7447593951
6637 1 48.1366930068 55.1503347682 28.1572649847
6638 1 39.7539950249 26.7126889625 33.5276739646
6639 1 29.7565337782 45.246155278 18.2712883492
6640 1 19.2569508811 53.7714527853 59.4426812586
6641 1 16.6684293733 57.6032481585 61.2224669424
6642 1 9.5849365193 52.4590836552 57.4028278009
6643 1 17.8339159534 3.8265673908 60.0686327087
6644 1 50.7210574614 30.231256668 53.2104395466
6645 1 47.0678264232 47.5030573067 49.63896389
6646 1 43.4509381085 58.0503203453 44.6035756147
6647 1 56.8076763366 38.9000984855 38.2913421195
6648 1 59.97755545 28.0950351565 51.7234111922
6649 1 42.6712386719 42.3801189695 38.4129674214
6650 1 62.8521578078 48.0303102337 62.9397078698
6651 1 33.9920672069 3.2349809147 46.3514275709
6652 1 9.7744603585 4.3402217147 41.1695346597
6653 1 21.6829064107 39.8884694007 5.3014458121
6654 1 8.0022329534 34.7510443626 50.7451809677
6655 1 9.1712467302 56.194636946 17.9412435113
6656 1 9.9564259189 52.9570482522 32.0764844485
6657 1 28.6120844072 8.0435515438 8.9456321101
6658 1 47.7481344945 55.2260435268 46.2786161525
6659 1 9.846893863 53.6034700405 24.0512300649
6660 1 36.5005339458 40.5947905479 51.417237918
6661 1 15.3359048333 6.9186466219 4.1309329767
6662 1 11.5459319357 58.8228394172 61.9435267332
6663 1 48.38517142 23.6245652306 22.4454107632
6664 1 34.5610166382 61.3679008223 25.8307008204
6665 1 22.1320571242 12.8737955372 45.9910866325
6666 1 61.5554091205 17.7950538036 42.9408172799
6667 1 33.1955506001 30.6521898076 8.0043744657
6668 1 7.7302608904 45.1266714885 42.1982163947
6669 1 37.4368157235 40.6177173268 10.6665891912
6670 1 60.5357973199 29.3121069889 32.7696415937
6671 1 37.8549774942 8.577543936 13.6462516233
6672 1 19.2404486393 41.1174455221 34.0961195107
6673 1 50.4885144191 16.3237088776 13.6526761602
6674 1 31.6045329275 39.944085735 2.1056921911
6675 1 60.6297719187 62.6579730301 18.823294639
6676 1 1.1320466925 26.3543005794 5.4365311487
6677 1 30.0871454869 37.0145598851 45.8038932626
6678 1 45.8345042915 23.7735263072 55.1495159546
6679 1 19.1220356058 20.1146895456 57.8699294263
6680 1 13.4817330896 45.5983710668 54.3062639911
6681 1 42.7141319037 62.2844051039 15.1577184122
6682 1 7.6300507116 40.16585823 63.142395711
6683 1 52.2395156581 19.7823142385 15.7559561737
6684 1 51.2716780668 12.0614695307 3.2777607723
6685 1 17.108006267 60.3748059829 16.2160034057
6686 1 44.2546350801 43.4445135716 62.0691201315
6687 1 52.8026074235 20.3538460818 13.0696809276
6688 1 60.45996259 60.7660098928 59.6278590875
6689 1 1.5389699326 4.143542705 25.0654250991
6690 1 8.4160487138 61.55440135 20.0086846864
6691 1 14.7671443589 27.5254558686 52.0613292371
6692 1 43.9561460559 3.9929125085 19.6130717806
6693 1 37.6485734992 2.1998872398 1.7842763882
6694 1 51.5218570928 4.9200928588 17.8464500989
6695 1 62.8960588101 50.735040277 26.681825991
6696 1 35.1414924446 57.0713972786 22.5308193128
6697 1 7.3254520788 41.7668276363 16.7011819144
6698 1 46.9062682153 11.4883000604 45.2008685913
6699 1 33.1105199644 28.669086426 34.816360488
6700 1 31.1087728285 12.4657114714 29.2896840953
6701 1 2.4186175277 50.1294961795 17.5775013475
6702 1 2.2137251884 44.7812581505 49.2272896418
6703 1 49.3947685013 38.8937999199 43.6533740071
6704 1 49.6772591689 3.726691036 47.4112242201
6705 1 56.3937975905 53.4361171523 19.6897253241
6706 1 6.7582662458 28.649119973 58.0202132017
6707 1 52.4046640484 39.0467290928 7.1566379234
6708 1 41.5141921697 6.152218263 40.6995986797
6709 1 35.8106520548 44.5259772864 13.6848618305
6710 1 21.3366742592 16.9630762724 13.1228408213
6711 1 57.8478844467 20.6273927861 62.6359910362
6712 1 32.8502632335 40.4652290534 59.0715067874
6713 1 63.8024853867 8.6518040245 8.2658279241
6714 1 10.3748396322 62.9350469312 52.5398312663
6715 1 63.0841969648 19.3084101622 17.3461550327
6716 1 5.7802060825 33.5943757744 37.7540744731
6717 1 34.5384677733 4.0872587228 54.5949272529
6718 1 13.8389877309 31.8531373121 62.6707591183
6719 1 17.3972363998 13.6789411788 6.0171077322
6720 1 54.9144534861 57.2754078186 18.8442688625
6721 1 34.927152257 38.9857589778 14.3454553914
6722 1 55.8885266574 39.1905883313 30.9377037866
6723 1 11.4772145849 49.7731233374 28.2687495959
6724 1 17.4608519124 32.2991387428 49.2337771644
6725 1 12.707891319 57.166001734 27.5951180042
6726 1 45.9036625419 31.5387129169 22.6556568832
6727 1 36.5828561983 60.4045981983 16.3280548878
6728 1 2.309255533 18.3507132615 48.0270349796
6729 1 12.5527576481 25.7557478897 62.5917751056
6730 1 60.8215002558 12.1454923959 48.6428457391
6731 1 48.252586614 63.4017076571 24.6211872668
6732 1 5.7497021293 9.2582299213 52.3320415869
6733 1 48.3386880059 30.3097367955 35.5374832644
6734 1 57.3792711655 7.6556858736 53.1400845688
6735 1 20.9126548225 52.0559754563 21.0987774362
6736 1 20.2126952265 62.1646693717 55.4771043519
6737 1 44.0646703413 44.2788845576 25.1487551221
6738 1 51.3689279198 25.7164448403 52.5723948505
6739 1 17.3986220842 39.123067708 47.2538230656
6740 1 8.5173296488 26.8590046416 7.6946110091
6741 1 36.1124793187 45.658963268 50.7420946705
6742 1 47.9353278643 26.8552884879 46.9126927522
6743 1 50.1193554889 3.6148663022 38.4896839505
6744 1 4.2380211892 35.1653640083 40.8559920637
6745 1 56.6264036184 7.806347563 61.272918453
6746 1 8.0391425479 9.1560042014 33.0998753885
6747 1 23.6510821918 35.1856453895 16.4634110627
6748 1 19.4954775607 32.1621449408 31.3265142416
6749 1 9.7620521842 17.2170344377 61.2119483379
6750 1 26.2628454068 32.0901523359 43.4657397377
6751 1 7.2042802737 23.5797824291 53.394420648
6752 1 25.0278856481 36.809100675 48.4874601255
6753 1 28.8285031215 50.5680023171 43.2123484433
6754 1 26.6403814293 51.6165875195 51.3344117803
6755 1 55.4738920834 24.5664527316 34.5377119455
6756 1 25.4627386176 59.9752249808 61.8413010134
6757 1 27.5852922418 46.3217613269 42.5151602161
6758 1 52.0828703315 26.9566324085 41.3660499066
6759 1 19.7567420621 31.3628569652 21.1153426638
6760 1 30.4433923577 62.5405047815 52.2713864001
6761 1 48.9713789212 7.8772694117 52.285873101
6762 1 57.6032481585 40.2091293758 58.5480959853
6763 1 1.4984411823 54.6936257759 35.5286022869
6764 1 39.0859691566 24.2811906952 2.5016200252
6765 1 36.9542826122 9.1378643325 11.2294290139
6766 1 26.975213177 25.6304064341 15.7876379587
6767 1 46.229991226 61.5712185202 44.2392035943
6768 1 3.786212481 29.194701726 7.0962409778
6769 1 39.6961741927 61.4374369866 12.9988220645
6770 1 55.5233988091 48.6968244463 54.3946328665
6771 1 60.2094686357 53.9851001307 8.4886081896
6772 1 32.5048498955 58.7124885477 15.1883294411
6773 1 58.1592225447 16.7581839332 8.5405083702
6774 1 28.4657057425 49.5174015737 40.781039133
6775 1 55.6256875146 8.6785729284 8.8328248001
6776 1 61.1167140259 18.7514909911 28.4137425762
6777 1 57.5739598284 5.5331007566 13.088828567
6778 1 13.4521298313 30.2476959243 10.7041286422
6779 1 62.5023984596 10.8987543195 50.4875696343
6780 1 36.8022352385 42.4094072996 15.2374582528
6781 1 36.735848357 23.4723288999 28.5405327019
6782 1 10.1748601742 35.6639584618 56.660352887
6783 1 3.7272390112 21.2689016933 20.2363778332
6784 1 26.698139276 46.0527495898 15.1787556214
6785 1 14.8878248759 63.6816159127 25.5119934007
6786 1 57.5931074679 4.9815101721 46.6044409514
6787 1 62.0979675619 2.0969686778 1.4365854889
6788 1 56.7998031296 54.3465118253 16.0854341406
6789 1 40.1288226643 9.6988145855 14.2951298522
6790 1 43.8711154202 25.7131066005 39.3429506334
6791 1 26.1008462994 45.2695859421 40.5130351663
6792 1 19.7287134452 51.9800777407 55.1735764753
6793 1 51.8850953714 10.3656437264 7.151655758
6794 1 14.2529294627 35.9364973957 6.1098352151
6795 1 9.6083671834 61.7403979924 2.7525737748
6796 1 17.8289400865 5.6141821917 42.3461067152
6797 1 18.3995271449 51.2287218494 3.0676847136
6798 1 37.0263382028 48.7395287211 27.5763482787
6799 1 50.83852571 27.1987492705 3.078146631
6800 1 23.7618109752 8.1700267412 1.5082102576
6801 1 60.652068841 42.1250270624 8.3662270599
6802 1 17.1347751709 1.2883059171 21.4852574219
6803 1 61.5162950281 43.0407755161 4.691139999
6804 1 6.8135298605 28.527872585 3.8923055201
6805 1 12.8082274692 33.8483339397 12.9963026382
6806 1 52.4187098497 15.5786515518 48.8805536051
6807 1 55.1630578707 36.207839602 60.3340542635
6808 1 18.0926610285 51.4220878135 7.1162074308
6809 1 52.8008438251 45.8019407073 57.8212415142
6810 1 25.8495335316 47.3181314204 60.4752681044
6811 1 9.9471040418 12.33117411 54.8270293955
6812 1 14.4615379556 14.6498650673 29.985675595
6813 1 27.7491179333 4.2867783855 44.0522621671
6814 1 23.160234974 19.3340453242 35.4819929014
6815 1 4.3148888838 46.8408891043 40.4264928749
6816 1 60.8678576987 54.6858785402 61.3567523612
6817 1 10.9648262727 22.674174666 42.8970422489
6818 1 19.0126925069 21.1485361045 49.7981286429
6819 1 55.0767045362 48.0983347423 7.1017711184
6820 1 17.6144109419 40.5939717344 40.7871487416
6821 1 37.0420216312 44.2311414303 33.7844664844
6822 1 3.6871990296 14.3841285843 5.3202092391
6823 1 32.7455810731 11.3642183179 42.3505786968
6824 1 57.9795874536 20.9804273884 38.2126100494
6825 1 13.3468178143 12.6510152716 1.3317313777
6826 1 13.0067582571 21.9593504552 20.3552947518
6827 1 56.1067089701 10.4395888867 39.9309217329
6828 1 45.5744365175 7.5237939098 39.3081825512
6829 1 57.1335011355 27.1266936799 48.6920375365
6830 1 18.9968831072 43.7635359196 49.5914097196
6831 1 28.2216363252 6.090769457 46.0771880244
6832 1 52.6793444945 28.9854633765 13.9230735818
6833 1 54.1990624044 4.704146537 37.3665867169
6834 1 32.6251524986 39.8651647079 13.6107277133
6835 1 14.1830153844 49.6275634862 58.7284239187
6836 1 9.3733047149 18.4533798809 23.1119249758
6837 1 56.1315883042 13.059162323 39.4254618428
6838 1 55.443029112 58.3244969063 16.3647125397
6839 1 16.6954502197 3.1964084989 29.3164529992
6840 1 11.1593889643 16.8157528228 48.102050896
6841 1 39.58311494 17.9910021796 15.3277796836
6842 1 8.9719601144 28.7413309735 51.3987201351
6843 1 60.9862077465 1.3903892893 26.4837361027
6844 1 9.9297200007 26.0861706415 47.3695277158
6845 1 37.6029088985 7.6999018042 23.4248377152
6846 1 21.2889941176 2.7152358778 17.5733442942
6847 1 36.6079244895 11.5049912592 52.2847393592
6848 1 19.3061426785 25.2800172293 18.5697143877
6849 1 1.8802728266 43.9521779596 7.7289381917
6850 1 59.4814804228 19.4648035462 33.8181008248
6851 1 30.4050970788 50.574804768 17.8632042834
6852 1 50.4669103391 29.8152993953 49.5100952376
6853 1 49.4634228665 56.2651178951 23.854525861
6854 1 23.2733572123 47.7793123942 19.9223943376
6855 1 36.606916719 44.5384484463 61.3711760764
6856 1 22.5679808499 24.1110034525 39.6409987579
6857 1 37.697324397 13.5950442849 43.9502254042
6858 1 30.6271215165 56.3956871602 7.3129179333
6859 1 13.8811251348 31.8901728778 58.9002487885
6860 1 43.5737601378 57.9063981212 13.205855916
6861 1 33.1282189337 58.5387741082 47.2954565842
6862 1 32.3300017142 14.2127446141 35.7612083148
6863 1 19.1717942741 56.5142891506 30.4016328677
6864 1 50.9241232166 38.4571833519 9.4597210351
6865 1 36.2977201333 39.6995124324 22.7065492933
6866 1 34.4615622873 20.8933812117 37.1615054207
6867 1 3.7196744339 52.1304245018 11.093883882
6868 1 5.3885108845 54.4161739609 30.8351001529
6869 1 10.8588214135 58.8841244605 40.9202374329
6870 1 58.4552551283 37.5002422791 63.1163826351
6871 1 14.2482055384 53.7933088079 12.0453452027
6872 1 44.9124572721 32.295800503 37.8126511333
6873 1 6.0671246417 1.5618979711 23.1218137238
6874 1 29.6944299213 20.4000775533 4.3619895574
6875 1 26.3304920014 58.6746971541 46.0802743215
6876 1 43.6962042533 18.9706180886 21.738711702
6877 1 13.0562649828 57.9444414575 33.8142586997
6878 1 7.8704039752 7.305164399 38.1620955532
6879 1 44.0867153209 50.5880947414 60.9529513201
6880 1 14.38564024 13.0722003538 45.2932685488
6881 1 42.0640569473 63.5158376659 3.2252307351
6882 1 50.7990337036 3.5269950134 3.4682105006
6883 1 25.4829570132 41.7406256033 25.9033862676
6884 1 4.0396604625 10.4604371388 10.4182997349
6885 1 6.6938319197 38.9768150146 33.2114229854
6886 1 38.7656870954 46.0148322248 34.8059678547
6887 1 58.7934251158 2.5786262884 47.1589036819
6888 1 13.2159966066 45.8242376295 38.7986285935
6889 1 52.6624013531 18.2556049208 25.153353075
6890 1 22.5397002903 62.6574061592 50.2835590943
6891 1 37.4914242873 45.4517404595 54.726945188
6892 1 54.4882925371 46.3593637636 33.3014294879
6893 1 60.0425566471 29.4965919755 2.2559633694
6894 1 24.3277370951 21.9437929982 31.2893527045
6895 1 18.7632693088 39.4335869925 51.3838555203
6896 1 52.7325043883 22.7790457834 23.820450621
6897 1 63.0504366532 2.1451590032 53.5664974604
6898 1 39.7153218321 39.9255679521 41.7124080294
6899 1 30.2648910084 34.3335754341 63.7061173329
6900 1 10.8910070838 57.8433494795 10.5632297296
6901 1 8.1261887246 31.0202779817 63.7326972798
6902 1 10.9011477744 56.6284191594 29.6015890642
6903 1 57.5478837668 35.658982595 50.1786249912
6904 1 55.7387467673 23.1494014412 11.2341529381
6905 1 29.1004121988 17.1112185355 19.3570350887
6906 1 53.6120990754 7.7034919866 33.3823030704
6907 1 51.1221501193 24.1433150941 48.6738976675
6908 1 57.7573110733 40.5051619593 5.3397473896
6909 1 26.2967316898 29.2651826751 51.9102896338
6910 1 33.5857467395 52.5646476148 2.871975683
6911 1 11.6026820118 6.7617493526 16.2565661682
6912 1 15.7010956672 41.8009658618 55.6154838383
6913 1 53.394420648 46.0905409834 16.588815504
6914 1 35.8798103052 25.0791559721 43.1411746519
6915 1 14.30067259 33.1877403787 15.2288922036
6916 1 12.6216009702 30.9820456885 43.0727722294
6917 1 10.4741680119 32.7871516061 42.904348585
6918 1 43.7135882943 57.2658969845 47.2381396372
6919 1 40.8946652565 37.9614862386 26.0726287254
6920 1 17.2058859766 21.5047199896 15.3702320158
6921 1 58.603838291 27.9616315369 57.9537633346
6922 1 44.2863798507 53.9954297783 43.4881626312
6923 1 23.6054175912 46.0601818972 8.9776288234
6924 1 24.0346648374 61.2913732502 8.292218914
6925 1 5.2209753379 57.6962779725 57.7205274501
6926 1 4.7986439168 22.8340322612 57.4874805226
6927 1 46.614770599 61.5873428481 2.8270354174
6928 1 51.536658722 60.453915967 10.6692975744
6929 1 41.6860800252 4.0767086254 26.6605998249
6930 1 50.5408554993 31.0820039247 47.0528988227
6931 1 41.480998729 18.6418959495 13.4795915773
6932 1 40.9664059188 12.2575438781 37.2553540483
6933 1 3.5003016923 12.8733546376 9.3373399053
6934 1 49.4336306511 52.8489648664 17.8012893835
6935 1 26.7582905775 61.9523447251 63.0855826493
6936 1 12.2719046077 44.9234167763 61.9816330552
6937 1 25.535738993 22.5510377084 43.0160221533
6938 1 57.4662543565 33.8965809522 47.9758276412
6939 1 19.6223936577 59.9068855439 47.6245566372
6940 1 32.7896080467 14.5751640792 5.6469851214
6941 1 4.5106671986 50.6830141251 46.5754045639
6942 1 45.7942564572 45.1700686055 60.6622725173
6943 1 51.2763390054 40.9488959064 35.900532586
6944 1 16.7915033453 26.0664561311 60.9846960907
6945 1 38.7624118413 28.431189603 27.1397317107
6946 1 46.9209438732 29.5697813079 31.4203628692
6947 1 18.2160499288 3.7389732389 5.9106997648
6948 1 32.0749098071 18.5826894328 9.5865741464
6949 1 58.9908221619 32.2165645476 59.2973733501
6950 1 56.624828977 13.414086495 47.6878572216
6951 1 55.3091845928 16.5830208236 41.3728523575
6952 1 31.1168349925 2.083118132 17.4366654205
6953 1 23.1234513509 24.5650040615 11.0795861381
6954 1 58.2567243403 52.089735768 40.1183670454
6955 1 23.311148606 18.4963360983 21.436884438
6956 1 35.8080696429 5.5614694961 19.7190136541
6957 1 6.2124892373 36.8103603881 26.5396043796
6958 1 9.4890723508 33.0635956506 56.6449843869
6959 1 11.1922044912 6.020357792 5.2874441008
6960 1 41.8722026389 23.1752885458 58.9154913172
6961 1 33.5756060489 24.3421608103 38.1010624525
6962 1 8.8988337677 20.2401569725 11.1264474662
6963 1 42.0968094885 49.3154695603 48.2535943845
6964 1 44.8863182249 46.0213197474 50.3832653878
6965 1 33.5992886555 3.6768504863 20.1104695067
6966 1 33.479804866 3.804843638 15.0336366697
6967 1 34.7106705571 63.0286436162 39.9509511715
6968 1 20.540976466 27.7714778412 18.3697349296
6969 1 20.373938506 17.9295911649 46.1099405655
6970 1 32.6945626916 42.7349801558 21.9715066868
6971 1 19.0608765338 45.1814690093 47.2501698975
6972 1 34.7291883399 48.8783491071 53.4143241153
6973 1 6.1000535427 10.7066480684 29.8533427316
6974 1 4.9594777896 60.4311781451 58.0595792368
6975 1 49.7994513416 20.4434746704 8.1453993497
6976 1 36.6958524653 29.3884456041 19.9422348193
6977 1 56.2624095119 19.7634815273 4.8977455481
6978 1 42.0714262691 14.3270635799 38.6810343736
6979 1 31.8852599967 23.7266649791 15.8496158443
6980 1 32.6263492261 19.7723625048 21.2905057733
6981 1 24.4111301037 7.2392373128 60.5688018037
6982 1 12.3042792349 6.751797619 37.132343062
6983 1 13.3570214906 35.4479176615 32.8287851247
6984 1 63.7669614767 11.4058518366 60.2069492095
6985 1 36.0915680809 20.8963415376 57.4357063133
6986 1 42.1015963983 13.2813757176 16.7186289412
6987 1 38.0418559358 49.2339661214 45.4423555967
6988 1 43.7724168971 58.2768167646 5.7502249103
6989 1 30.4085612899 33.2530565041 53.1158980768
6990 1 22.8504085318 58.1670957517 32.0762325059
6991 1 63.7527267184 37.9514085336 39.7791892874
6992 1 59.5432693514 61.8521975319 42.3424535472
6993 1 13.9061934259 39.5394658803 8.2645052253
6994 1 61.298742572 26.8520132338 21.9357938198
6995 1 8.0871376178 40.8831388815 8.9532533745
6996 1 21.9488948363 25.0272557915 28.2226440957
6997 1 37.0066866781 1.6873351649 30.6113751025
6998 1 22.2638231167 2.7510495219 20.0801734061
6999 1 56.7390219714 57.9215146787 20.9452184067
7000 1 43.5037830739 46.6980376363 2.0210646636
7001 1 36.5663539565 8.5328871059 30.9817307602
7002 1 5.3894052808 20.6602083129 13.822485489
7003 1 41.1590790407 35.9162160144 55.1624280141
7004 1 3.6175557897 1.6726784027 14.2770529689
7005 1 6.9757179249 39.1179028842 2.5538288356
7006 1 14.4137318426 18.5151688095 26.0819506025
7007 1 4.6365692266 56.8047789964 53.0644387958
7008 1 29.291384708 9.7155057844 10.9376794549
7009 1 2.3654891268 52.4500767064 45.8979308472
7010 1 56.8731184332 13.4778909646 5.3782127298
7011 1 35.2980747856 43.0878258012 51.6707551837
7012 1 11.4728685746 21.6224401808 4.4868082321
7013 1 55.3353866257 15.4743473053 60.2883266771
7014 1 6.4276923285 26.0175162764 22.634808631
7015 1 2.1984322711 44.6548459388 55.6292147113
7016 1 38.7607112286 17.2720209155 39.3804270987
7017 1 3.4733564287 32.2598356934 12.3735004709
7018 1 4.8256206733 27.1364564566 8.5533574441
7019 1 32.5095108341 58.8999968458 51.4300240062
7020 1 5.8331707207 28.5113703432 49.1954188998
7021 1 12.4940550167 63.1515286312 63.0384693785
7022 1 26.0975080596 12.4434145492 23.6087558309
7023 1 16.0900950792 3.7828175541 48.694871891
7024 1 29.9890768204 29.902534529 11.175387321
7025 1 48.2644279173 21.7593080115 39.4522937323
7026 1 54.0010984873 22.8354809313 42.1704397204
7027 1 28.8894102509 22.9511855815 39.9798615876
7028 1 21.1425524672 57.637953255 40.8468591436
7029 1 58.5814153974 18.763962151 29.5494999266
7030 1 60.7796777802 44.3316035518 53.8471615439
7031 1 56.9058709744 46.2059307054 6.4954522973
7032 1 35.6947584476 54.5517190928 25.9306590566
7033 1 55.3556050213 31.0083107071 3.9978127926
7034 1 55.5949505144 31.187252956 29.5371547381
7035 1 23.5634061586 58.0194573739 49.8081433622
7036 1 21.8508261698 42.4451201666 14.9341193331
7037 1 53.6347739116 50.1915370507 39.5491656714
7038 1 51.5881809886 29.2832595584 42.946108075
7039 1 3.7719336327 40.7212027597 23.4493391354
7040 1 32.720134868 46.0405303725 59.2686518909
7041 1 7.3819502123 60.7208491774 24.487090805
7042 1 59.7991170864 29.2583802242 39.2352451615
7043 1 23.5987411116 19.1833206492 15.4224471247
7044 1 49.0652905344 2.3395957235 40.6143161013
7045 1 22.8211202017 30.7554232979 57.3873963151
7046 1 51.7429997313 57.3741063417 57.7195196796
7047 1 23.2976696756 26.7959559998 14.9010518637
7048 1 8.7278277114 52.2771810805 6.9171412647
7049 1 4.8307980942 59.4651671378 46.7639206326
7050 1 27.0246569171 4.0273215724 33.2974613916
7051 1 42.2363227167 6.0408596231 47.7266563857
7052 1 26.6558759007 59.7734819244 43.5603441931
7053 1 54.8605377645 30.7661938451 32.2670160582
7054 1 42.0705444699 40.8153033299 19.747609142
7055 1 58.8611976817 37.7202511758 58.1246434195
7056 1 56.9562594993 8.6689991086 36.1949905282
7057 1 5.4548158847 48.582064581 38.6873329392
7058 1 35.6394570416 22.1874845015 25.0450807322
7059 1 45.40330449 38.6499824452 14.9061537018
7060 1 48.5527132652 31.7761688403 9.610823624
7061 1 59.5595826363 50.9144234256 53.1741598087
7062 1 21.9870641439 48.6779287495 33.5453099483
7063 1 6.9455603927 59.4518141788 10.5169352723
7064 1 16.2991444717 12.5118799573 19.3739782301
7065 1 35.8620483502 13.0523598721 48.1489752098
7066 1 63.3266917407 33.2647718361 40.5457877075
7067 1 32.085554383 27.0986020773 30.6709595331
7068 1 5.9847582992 44.3327372936 36.9416224954
7069 1 15.6120339495 55.5839910103 16.0187953165
7070 1 35.7373367511 57.6312767755 11.2712514895
7071 1 20.9192683164 34.7145126821 23.7992244549
7072 1 31.4858049658 21.2896869598 9.1083870454
7073 1 3.2400386628 25.960262315 3.6877721991
7074 1 31.6616609176 42.6142996388 2.8975982479
7075 1 38.2798787301 42.2171120916 41.6003565472
7076 1 27.2005128688 20.2176081077 25.9595064871
7077 1 32.73808578 7.9655753016 58.6746971541
7078 1 56.5189500891 25.6534591842 25.1216083043
7079 1 1.2176089271 10.9267199508 30.0772567389
7080 1 7.9383654981 8.0171605539 24.1867122111
7081 1 12.7398250467 28.6262561798 39.247779307
7082 1 30.2197932786 41.0518774541 41.308481017
7083 1 17.1454827324 5.7322299083 28.0907521319
7084 1 28.174963954 19.0479644743 41.4971860426
7085 1 8.998036176 52.8635145529 61.5284512597
7086 1 56.8280207035 62.3553269527 42.1587243884
7087 1 13.6845469022 44.1127283969 48.0258382521
7088 1 57.0827976823 55.5849987808 59.3029160878
7089 1 7.0382626814 55.7842224109 53.1679242287
7090 1 2.6631971288 18.5532751314 2.7987674549
7091 1 40.4322875553 48.6311933927 21.1916812789
7092 1 59.2811860364 12.309381073 56.2853992764
7093 1 19.3006629265 52.8967079937 5.0644685797
7094 1 39.5128229478 42.9095134088 22.3663007791
7095 1 52.6790925519 2.2122765183 43.2020187957
7096 1 46.166438699 20.8304585413 7.4150176818
7097 1 1.3276939971 1.6326075582 9.5259819452
7098 1 53.5129596527 22.8604862367 9.8815989595
7099 1 6.4484964907 2.7816542522 57.9384578201
7100 1 56.1024889311 26.6353425768 41.1762741249
7101 1 60.0982359671 13.5649371413 17.7278481085
7102 1 39.3213465533 10.0288594234 2.2415900427
7103 1 59.1875893515 1.9432899755 56.4128192586
7104 1 45.2193233886 48.8067974018 24.5954891191
7105 1 45.7710777358 28.8594290786 9.6020056321
7106 1 33.2213117334 56.4850638061 52.2189193486
7107 1 26.6962497063 51.2794253025 13.9805165001
7108 1 9.5254150743 28.5706398455 3.9491563732
7109 1 34.6037838987 37.794385293 21.5159944221
7110 1 50.9547972311 60.6990561404 33.4040331217
7111 1 28.377525824 4.1856486161 5.4451853779
7112 1 47.5018605792 5.9667507002 57.0717751925
7113 1 6.3281057076 44.3465941379 26.9086373386
7114 1 34.9526614477 35.7325498413 11.1714822103
7115 1 35.8891321823 62.5022095027 27.901354264
7116 1 11.0972851074 11.7538475864 35.4219045855
7117 1 44.970530047 7.3503943986 43.6141339434
7118 1 3.0923435979 62.9705078556 24.661624058
7119 1 7.9683466704 12.3741933131 8.1278263516
7120 1 48.1141441419 12.1119210412 59.8215399799
7121 1 4.0848904621 48.7514330101 8.5668363745
7122 1 38.3131981421 13.5523400101 52.6960356934
7123 1 25.7823908222 12.6116492366 48.147274597
7124 1 29.2364612159 24.9364934611 38.1361454629
7125 1 43.963452392 17.53454513 63.029399444
7126 1 35.8939820778 28.6083682535 52.2015982932
7127 1 29.6513477325 54.70313661 14.9893577535
7128 1 56.2413093171 33.1765919176 27.5355965592
7129 1 29.3242002349 25.6935810472 12.3871683583
7130 1 1.8179548185 31.7312600676 62.6660981798
7131 1 36.0290863101 60.1715512708 57.2269088634
7132 1 54.7501239094 57.6472121464 1.8548518158
7133 1 57.7750730283 16.4207067879 15.4570892356
7134 1 61.9261426922 14.8220048653 26.0229960284
7135 1 8.042039888 47.2802140555 20.0341308915
7136 1 63.4337043704 6.2792666299 26.346868272
7137 1 29.0429062948 24.179405875 60.9815468079
7138 1 61.972500135 42.640627643 50.0607788287
7139 1 46.4588181145 16.3299444575 15.1168407214
7140 1 37.169882513 9.975447587 37.4415396477
7141 1 28.5197474354 18.7892193991 54.0432988769
7142 1 55.022158958 40.2389215911 23.5362593408
7143 1 23.7419075079 48.7656047828 9.5519950212
7144 1 20.487501644 58.8908639257 30.9649765757
7145 1 5.7946297978 11.9867055569 60.5936181522
7146 1 63.1910206375 48.365771838 40.1566623243
7147 1 57.7357069932 52.4847188173 14.3647919878
7148 1 46.4648647375 18.0488859976 12.8972891869
7149 1 23.3510185263 30.3985465706 33.5459398048
7150 1 9.3393554463 17.294821723 58.4496494049
7151 1 32.7828685815 3.175207527 36.3846403387
7152 1 46.9205659592 56.5561116262 18.6183393142
7153 1 9.9214058941 49.0169805362 39.9976865283
7154 1 37.7711435859 1.5537784902 43.6962672389
7155 1 59.4293912852 39.0850243717 16.2718086969
7156 1 45.3498926536 45.3682844652 52.8614990119
7157 1 24.7760689951 2.0001030373 57.9447563858
7158 1 34.411803619 15.5306564819 40.1306492483
7159 1 14.659438887 54.8586481949 9.3934601249
7160 1 27.0455681549 21.6672229823 1.1298207794
7161 1 18.880800543 28.1063095889 14.1661352286
7162 1 38.3257322877 19.7949743554 39.1029752837
7163 1 24.0813372085 40.3881346103 56.1134484353
7164 1 40.8666366396 8.4424397037 33.8654660381
7165 1 15.1547580864 49.3994294399 62.585665497
7166 1 57.6841847266 17.2439293129 40.0660889508
7167 1 16.6587295822 45.0933520764 3.9934226923
7168 1 48.9439171751 43.0471370674 2.4408073743
7169 1 39.7203606846 3.3994616569 8.1217797286
7170 1 35.3641467389 38.6312127197 50.0598340439
7171 1 54.3439294134 1.0922485758 29.7810351984
7172 1 24.6652142404 16.2813825167 26.9988957837
7173 1 13.677807437 29.156784361 50.0608418144
7174 1 55.1888819897 43.1007378607 62.545732591
7175 1 57.6290722775 8.1661846162 28.82547981
7176 1 38.2492677012 2.7146753055 39.5587394911
7177 1 46.7070445851 61.0715533105 7.4968990347
7178 1 10.1970311251 21.7269333843 55.9455286762
7179 1 1.898985865 16.9380079813 56.1747334786
7180 1 31.71469484 12.9250658612 49.3345542141
7181 1 12.5209498918 38.137594133 6.4998549946
7182 1 29.0706199835 43.2672719354 56.527768081
7183 1 47.6178801577 5.6061767148 61.7705681216
7184 1 8.0498501094 39.4692998595 15.4381305531
7185 1 33.3993091975 27.1912539774 10.9110995081
7186 1 6.7608108663 9.1306839677 54.9099815046
7187 1 39.2089801429 5.5286602679 16.3340385252
7188 1 9.4783647893 43.8946720556 49.9548999408
7189 1 19.840638956 43.8359064384 6.3692353411
7190 1 59.3461872335 25.2533742968 38.2915310764
7191 1 24.7098710705 43.2143009986 32.6910984805
7192 1 53.3421425535 7.9408219387 52.8755448132
7193 1 33.9312860487 39.7166445309 19.7468533141
7194 1 56.0428415148 29.965520185 16.9858770799
7195 1 37.955187673 25.7432137441 23.7513553563
7196 1 62.2717449871 14.8223827793 46.1232935246
7197 1 62.8350257094 50.9881796288 12.9216016501
7198 1 38.0328489869 12.896722316 17.3565476659
7199 1 9.8758672648 37.4291944591 53.1984092863
7200 1 17.328519049 11.4457217569 2.7484293186
7201 1 29.2153610211 3.4046453764 28.9559231038
7202 1 48.7610068299 51.0846736539 30.1467929032
7203 1 17.2012880237 38.7018826258 11.8541837365
7204 1 28.5358717634 41.0677498394 58.3182613263
7205 1 37.7860711864 24.3615603924 30.9242878419
7206 1 2.1571577707 46.4150430836 57.7883630017
7207 1 22.6607587213 25.7134845145 43.1379623834
7208 1 51.2279030359 8.4199538245 32.1624598691
7209 1 25.0723535212 29.8742539694 44.6906217914
7210 1 63.017684112 52.4529740466 47.2542009795
7211 1 1.5766429132 32.3960736675 30.5827796146
7212 1 56.3618008772 17.1679686116 4.3594701312
7213 1 19.4110767816 6.1651744125 14.6652335673
7214 1 24.6861254782 44.2936861868 25.4505194003
7215 1 45.6762213378 53.9480015793 63.3215269169
7216 1 35.5335151681 20.9034589167 31.5191243779
7217 1 45.7676135247 15.0497609977 49.9689457422
7218 1 31.5538294744 62.1542137528 61.9961197561
7219 1 57.5612997115 13.9879488075 16.8134223536
7220 1 21.2969932959 29.0757848073 51.3024780527
7221 1 56.3559432112 52.5616243033 36.8109902447
7222 1 36.045777509 58.7041114554 28.680990715
7223 1 21.2884902323 10.0429682103 9.0707216231
7224 1 13.653998859 17.6499978376 16.6683663876
7225 1 47.1992145017 19.0843701835 47.2060169526
7226 1 51.6980279728 56.1188652017 15.1839834308
7227 1 40.5987586443 19.3400289615 57.0387707087
7228 1 56.5186351608 10.1907325595 49.3889108353
7229 1 55.4637513928 60.2776821013 26.9890070357
7230 1 38.9480305698 27.8985828952 1.4033353611
7231 1 41.5615573831 35.621254187 38.3895367573
7232 1 50.6659450123 34.9149960254 26.5482334145
7233 1 54.6938147329 43.9602401235 21.4507412824
7234 1 41.5686117766 13.092859649 57.261236046
7235 1 39.7505308139 16.8764709953 26.3311848436
7236 1 24.1447007785 12.5293269841 35.4673802292
7237 1 63.5424805985 53.9485684502 61.3779785273
7238 1 61.6812544613 13.3137503449 56.9959404626
7239 1 42.9295428475 48.5968032245 45.6589002823
7240 1 13.0240163269 1.9148456532 26.9843460972
7241 1 27.2972588366 24.3318941484 11.0268041583
7242 1 20.975010622 31.458847105 44.0125182181
7243 1 22.1114608146 38.6934425479 23.715327561
7244 1 26.8851436889 60.6506831566 33.8905343293
7245 1 39.2804688625 4.3590544259 32.878543793
7246 1 48.5859696916 62.5309309618 27.2097717603
7247 1 48.6580252822 3.788517756 5.2264298957
7248 1 35.3523054355 35.2674637568 27.0687468763
7249 1 62.8924056421 43.2628629394 45.7903513466
7250 1 8.2616708708 51.5728124885 24.6922980725
7251 1 60.3160403658 31.6507014134 28.8482806175
7252 1 24.4734229176 25.6350673727 37.9087042588
7253 1 51.3507880509 39.3015060717 58.4123618965
7254 1 29.4208202313 6.0205341519 52.373045249
7255 1 32.1884099594 44.6659943999 39.434594763
7256 1 8.0407171893 29.5175032134 30.2807633937
7257 1 46.9819139883 25.254445053 29.9597884903
7258 1 21.6891419906 20.4718812013 61.3367859082
7259 1 54.4271334651 52.7235604251 26.6929744522
7260 1 59.3817741292 40.834513955 18.4535688379
7261 1 58.2977280024 40.1455138631 46.9938812629
7262 1 1.5395399528 12.9395525621 19.5100902329
7263 1 4.7635923992 8.5643169482 30.6007305266
7264 1 9.9357666237 48.5061668654 58.7331478429
7265 1 52.9196347725 55.6511337196 2.4362724071
7266 1 49.5488314161 21.7496082205 43.9688061728
7267 1 7.516802502 38.7902515013 25.250413971
7268 1 22.1815008642 39.0441466809 57.7224170198
7269 1 38.2759106337 22.4083751974 35.1272576864
7270 1 48.6126126242 24.8681540242 32.1285735861
7271 1 15.702418366 40.0745290287 15.7812764074
7272 1 35.0969615858 26.7802095858 35.0786957455
7273 1 20.1495206134 14.1439642776 53.5210848024
7274 1 25.4994592551 57.1268246559 3.001297832
7275 1 23.5121988202 43.8219866085 2.8538610083
7276 1 8.0512357938 37.4496018116 17.1202254843
7277 1 28.2849998952 7.6133595128 58.4480747635
7278 1 50.9879276862 50.4053103675 40.0460595122
7279 1 48.9056848819 8.5977623316 1.3975381613
7280 1 3.7876800468 59.6446762577 40.6881352902
7281 1 31.3662581906 26.4652183198 57.7523352064
7282 1 19.95382418 38.6989852856 61.5408594339
7283 1 51.0824061703 57.5281062708 48.0109106516
7284 1 36.6833813054 9.4339599017 2.2008824132
7285 1 57.4367140838 3.3762766369 62.1927609743
7286 1 27.2320056969 28.2093541223 39.9411883948
7287 1 18.4354289689 50.0694708493 56.7098596127
7288 1 47.7789344803 58.6207814325 50.3339476191
7289 1 59.904303132 11.2824629363 42.3621680575
7290 1 25.8992921999 62.4656148365 58.1350360528
7291 1 18.7339179931 36.263896836 22.8546285707
7292 1 44.3511920908 32.5425783035 47.3319882648
7293 1 57.701127868 49.8410848603 41.5526134199
7294 1 55.4238814725 63.2264185762 35.1443267992
7295 1 22.9010489992 61.8896739973 1.8155928564
7296 1 15.2390328942 31.6401828089 30.8221251077
7297 1 47.3490573776 6.5394099867 14.6720990039
7298 1 10.935474957 56.6213017802 8.0631400828
7299 1 11.4077414063 62.5004459043 29.8277075695
7300 1 14.1165655172 49.9501760166 10.025269241
7301 1 17.3922605329 17.9194504743 29.5342573979
7302 1 36.8610638412 34.2557881489 40.1516864574
7303 1 43.8191522539 19.2057435428 35.4214007002
7304 1 27.7089330847 50.6808726128 2.4770997093
7305 1 32.563174613 59.7968496028 30.9341765899
7306 1 22.4596455214 61.4026689045 44.2482105431
7307 1 47.279017328 11.1265734375 42.4967684046
7308 1 30.0164755808 40.2797362962 10.7735388352
7309 1 59.6049323087 8.484325165 58.1612380857
7310 1 62.0344780206 60.8494029015 3.7992316161
7311 1 19.1539693335 26.3777942291 44.8847435835
7312 1 25.0139658181 14.9766976367 19.1762032701
7313 1 32.3653366673 14.88965146 57.5637561521
7314 1 16.3709481196 2.6545554968 7.7007206177
7315 1 14.4714896892 31.6272077637 41.3130159842
7316 1 14.3361965 19.2539905553 20.7201076719
7317 1 8.2733232172 57.1298479674 55.0591945238
7318 1 21.1420485819 63.3993142022 40.6037974968
7319 1 28.3290898545 9.3857758748 6.5125214101
7320 1 59.8741959884 3.5215719484 42.8748083123
7321 1 25.5871352884 39.7029766435 14.820241267
7322 1 45.4174762626 59.999537444 62.0355487768
7323 1 51.4950252033 43.2682797059 44.5670439342
7324 1 61.5103743764 57.0376369669 16.0293769067
7325 1 26.8332435082 24.0180996098 62.7491762601
7326 1 55.1253924484 23.5491084146 37.1437434657
7327 1 46.3932500466 61.7284937034 23.5413611789
7328 1 20.7138720919 35.9301358444 33.5262252945
7329 1 20.6801747659 18.2489914269 20.4084546456
7330 1 59.3009005468 53.8545938513 12.5509310641
7331 1 1.2677656648 7.5023787867 12.8749922646
7332 1 32.6539999291 54.5018974388 50.1949382762
7333 1 47.1420865117 22.521812364 3.84602366
7334 1 48.1715240746 34.865804228 56.2066672063
7335 1 21.5255682418 2.5982400217 46.2387462322
7336 1 38.4043383865 17.459088314 11.1905668641
7337 1 9.3921374261 50.2218331513 54.0601160471
7338 1 18.5867205148 15.5345615925 62.5922789908
7339 1 34.5499941484 24.4430638314 33.729417021
7340 1 52.5555776803 8.5823308459 62.1063446542
7341 1 2.0755472561 17.5004069044 30.5413980386
7342 1 6.7609809276 44.5054439626 46.0987921044
7343 1 52.6120128282 26.9248246522 24.9664116477
7344 1 18.1226422008 29.4547065142 25.3287051415
7345 1 5.951136556 13.156034262 3.9853290355
7346 1 62.4145334694 4.4558948721 35.2087611253
7347 1 20.0437047112 61.4471997633 49.9149670349
7348 1 48.1504238798 43.5674615722 19.4035814885
7349 1 22.6149681493 18.4752988892 11.1795443743
7350 1 25.2074577535 49.9028737889 1.8091431252
7351 1 4.7008901785 56.3472511906 3.1138028109
7352 1 58.7119216768 27.2338952666 44.7361604208
7353 1 14.6586200735 28.0419382484 28.3683299182
7354 1 52.3967278557 15.347494194 5.9566918909
7355 1 4.7075981509 32.4672474588 4.1015312724
7356 1 52.980163988 28.8971574866 26.7914840183
7357 1 52.2355475618 10.9758487625 59.4044489654
7358 1 14.4699780335 16.5858551782 62.6305112841
7359 1 15.6006965314 56.0643826092 13.2391123424
7360 1 61.4586631527 47.5272437986 60.7026463228
7361 1 10.3428429189 9.1491387649 34.5176825068
7362 1 13.4949600774 28.8943231321 34.5558518144
7363 1 55.3773980583 46.2706169742 40.0196685223
7364 1 25.2273612209 33.58051893 26.5160477442
7365 1 13.6423465126 48.1681228492 5.2239797537
7366 1 15.1941241214 31.0595180455 4.3903079084
7367 1 43.820978838 57.4087484525 15.8502457008
7368 1 37.4933768426 54.8078817561 52.061896108
7369 1 28.9220998064 9.3756981698 1.9178815618
7370 1 18.4589226186 13.439721657 38.5801313526
7371 1 44.9477292395 23.54482539 35.7748132165
7372 1 9.5140146706 18.6614215029 63.5002802089
7373 1 15.2398517078 52.9590637932 37.985042874
7374 1 2.0962002528 11.3303950206 62.521924013
7375 1 12.2932567451 53.1793876181 25.2783166166
7376 1 45.3468693421 63.6925754169 12.6397408392
7377 1 48.3016524401 22.3649780804 32.9795727854
7378 1 49.2594753121 12.7408958028 33.1607195323
7379 1 51.3810211658 44.8545104686 46.7231689131
7380 1 50.1325824766 3.7376064502 13.0779320485
7381 1 41.8680455856 4.8971849757 8.9739756554
7382 1 47.2732226476 13.3223163941 11.9092332
7383 1 51.7865228196 5.0214367795 42.9925285035
7384 1 16.3944417693 57.1034569775 30.7416924249
7385 1 11.7691531008 49.9731657811 49.351245413
7386 1 18.643092677 27.2321316682 2.4165138067
7387 1 49.6421761584 55.5594266044 13.4722852412
7388 1 15.6970645852 25.6781495614 36.3989380826
7389 1 63.1000063645 6.6657025257 47.0061004802
7390 1 21.240747105 5.3173056003 53.1872608252
7391 1 61.5367653663 33.3595022629 7.6706134741
7392 1 23.6215419191 48.9595376178 25.7886264022
7393 1 55.6095631866 6.3864304252 25.1145539108
7394 1 42.7568991642 60.3709638579 25.1265211855
7395 1 32.9381912093 46.9513029594 16.4988719871
7396 1 29.0987115861 32.0591004074 33.7139855353
7397 1 18.1727157974 33.9081073273 26.3575128479
7398 1 8.2995252501 28.5553973168 20.3183221717
7399 1 7.2439549384 47.5816634055 43.2388024188
7400 1 24.1116962947 14.3209539712 33.3849484679
7401 1 6.0403116479 44.0822433394 58.9609039753
7402 1 25.202796815 43.721713444 51.2701034254
7403 1 31.4502180701 34.2423722041 22.5451170567
7404 1 10.5392321946 21.8394887517 19.1139104562
7405 1 56.8567421627 9.8227703567 6.4723995472
7406 1 49.0084144869 45.9987708825 54.9126898878
7407 1 31.3661952049 28.1214261464 15.0942288709
7408 1 45.9223692817 29.4765625369 24.4450163867
7409 1 23.5314094453 57.7083712185 42.0964315745
7410 1 46.535282701 39.1049908247 49.7977507289
7411 1 28.5150864969 6.8666708585 26.5536501809
7412 1 45.4082173711 39.3485563568 54.2007630171
7413 1 14.9831221736 26.72156994 13.2428914818
7414 1 29.0842878708 22.3928177403 46.1100665368
7415 1 62.6955754668 40.6469426712 44.8508573005
7416 1 47.0268857467 59.0371796048 26.4378195594
7417 1 53.691649959 60.1078097868 15.3612880527
7418 1 57.2685423821 41.6177405883 62.9919229787
7419 1 31.9456002552 27.7275768389 28.13137788
7420 1 51.8444066376 50.2877791332 44.3544043593
7421 1 29.5042132399 29.6875644848 40.3718843111
7422 1 54.8826457298 63.6576813634 1.655810844
7423 1 39.2433073255 25.3923206541 51.7271903316
7424 1 33.5632608603 2.1578506129 26.3406956777
7425 1 4.0571452806 6.58993708 47.1163253783
7426 1 46.3361850421 51.3892093011 24.8224264379
7427 1 63.8080281245 29.6017780212 42.8593138409
7428 1 21.2192689963 2.9770861458 8.0232701625
7429 1 55.3619665726 9.559364343 34.286525149
7430 1 1.2300126924 17.9049637734 25.4399378101
7431 1 46.2718137016 15.3379203743 20.8970973654
7432 1 7.2858466983 7.8136538991 61.3269601459
7433 1 57.6458894477 44.9554134896 40.1906745785
7434 1 29.0939876619 41.696913558 31.8113148364
7435 1 59.3618706619 19.5002644706 60.7204712635
7436 1 63.495304342 9.2937538313 55.9766435903
7437 1 8.2194074955 35.2096429245 12.2734162634
7438 1 49.6651659229 8.1263146959 14.8338461687
7439 1 24.0308227123 38.498187014 30.7455345499
7440 1 4.2249390684 28.6384124115 13.6560773856
7441 1 34.4657193406 12.635016915 32.0433539934
7442 1 10.9832810699 13.6874442424 5.1980863505
7443 1 63.7565688435 3.6938440163 39.7315721314
7444 1 60.2891454907 35.1348789507 53.9592130261
7445 1 20.3698444384 36.3870967792 38.3553985317
7446 1 18.7906680692 21.4003527575 28.6102578232
7447 1 38.3610672408 14.0851986605 19.9319051717
7448 1 30.1760812333 41.2315755309 53.3419535965
7449 1 13.8667644052 59.8117772032 51.1981108205
7450 1 54.4746876354 34.9844062184 21.54603858
7451 1 49.2967628205 47.9951642376 24.8345196839
7452 1 30.8626878702 6.5392084326 8.7010588076
7453 1 47.0373413656 40.7886603974 59.1897938495
7454 1 63.3142835665 26.4710130001 39.7325169162
7455 1 23.4552597871 44.124254772 60.5657155065
7456 1 3.8004661349 13.9769263177 53.0189631521
7457 1 44.4986415117 24.2601534861 50.6302321453
7458 1 19.4193908882 19.3169762114 5.4339298411
7459 1 35.8918405655 43.1655501008 38.099865725
7460 1 24.0422861017 52.565529414 50.969472889
7461 1 44.9091190324 63.5499758915 22.1821937064
7462 1 16.1946512683 13.804723534 59.5491270174
7463 1 22.4488749743 30.4117105727 12.563213267
7464 1 15.5096822584 42.6393049443 18.8627866454
7465 1 7.8472252538 16.8416399275 35.1579317009
7466 1 8.3879571112 16.8502059767 29.499804244
7467 1 44.9797889385 48.9943686856 58.39926088
7468 1 25.4164441604 48.0631887462 5.5027227747
7469 1 42.2790899771 9.7967572807 60.8712589241
7470 1 13.8533484605 50.3463557934 55.9292153912
7471 1 20.5468971176 7.8566101165 54.4439506352
7472 1 40.7604428234 4.5177593835 57.2803206998
7473 1 4.8488938732 15.8685745267 7.2638898986
7474 1 11.2458682701 42.5487945565 31.3021387927
7475 1 6.3972765551 39.5863272085 51.08429574
7476 1 47.1920971226 17.1940446733 18.9657681931
7477 1 63.8595503912 58.1555693767 17.1850377244
7478 1 45.4486541623 9.2730945361 54.9473319986
7479 1 23.74115168 18.926969029 38.1219107046
7480 1 45.7441828607 5.0029441908 63.8728403646
7481 1 12.1262817708 20.0422560411 45.8387873161
7482 1 19.7850226217 54.7905607006 27.9983521744
7483 1 3.3894406391 54.4467220041 39.7131173341
7484 1 33.0032553921 16.846489823 17.732886961
7485 1 47.403917884 36.814769384 15.2001077588
7486 1 37.4242185922 16.2519052296 43.495531953
7487 1 52.6178704942 5.9505381923 35.4950309322
7488 1 60.2766113451 52.5203686986 5.9174329314
7489 1 22.6181804178 54.8760952216 35.5425851025
7490 1 10.6072567032 33.5129983067 23.7174690733
7491 1 36.0790339354 39.243748225 25.3774560393
7492 1 10.8671355201 63.5512985903 27.2869921746
7493 1 45.0360351294 5.3372720533 55.6786584514
7494 1 54.42184267 55.1621760715 23.2868361427
7495 1 53.5060942162 2.4579268756 25.8693110276
7496 1 35.48810251 11.5272251958 56.2522688213
7497 1 32.1298962849 62.4161081108 56.6185304114
7498 1 8.5949909627 52.2605528673 36.5136349623
7499 1 34.2117611753 18.1655984183 25.8369364004
7500 1 4.2746284525 42.9846552965 11.3496686314
7501 1 19.9589890038 4.87709885 22.5307563272
7502 1 21.0138097862 32.2161236481 14.0478481665
7503 1 22.8389451424 36.3721691788 57.7556734462
7504 1 16.1651109955 9.1751518409 52.8465084258
7505 1 35.9728401192 53.3434022666 44.5000901818
7506 1 5.3173118989 30.2639462235 15.527696156
7507 1 3.7890027455 2.5390964906 9.9299089577
7508 1 47.3243040147 13.0883876674 20.013345625
7509 1 56.0076325331 1.3361114002 4.0775904246
7510 1 56.037865648 34.6199712123 45.7271767335
7511 1 18.7759924113 58.2853198282 3.4795794115
7512 1 28.8705775398 19.4494980318 27.9743546394
7513 1 13.4521928169 59.6454320855 18.9745861849
7514 1 52.3667466834 14.5990356428 30.1394235815
7515 1 6.6523684623 33.3472830456 56.2303498129
7516 1 31.2417985342 30.7920809498 57.9588021871
7517 1 33.6936411684 1.4453134113 21.6858667365
7518 1 45.3091409341 61.0587042366 25.8992292143
7519 1 4.3206646685 35.5786128978 24.844030518
7520 1 56.5242408842 24.2845919207 16.2436541087
7521 1 12.8862666971 21.7267444273 15.6003816031
7522 1 33.7253229534 58.353848222 19.0809059724
7523 1 54.6076503554 23.3262651634 46.5119780083
7524 1 12.906611064 54.2456088042 60.1462940227
7525 1 9.1478790518 4.5597708161 6.7898094624
7526 1 18.4127541327 19.505870194 9.1948033656
7527 1 57.4468547745 55.7531074968 29.562978857
7528 1 31.8580501932 14.8206821665 30.3494807445
7529 1 35.0504781716 2.0263113688 10.0475661632
7530 1 29.5110786764 7.143492817 37.7660417478
7531 1 21.9352899346 48.5770257285 30.7894355522
7532 1 3.4097346175 54.251151542 55.1990226803
7533 1 18.1981620025 51.4139626639 14.8536866503
7534 1 29.2053463018 36.0459034803 60.2332772137
7535 1 22.9428714749 34.2564180054 13.9319545593
7536 1 48.3409554895 5.1328332108 22.1578812432
7537 1 60.3739241837 51.7332369546 55.7417700787
7538 1 34.1366192876 49.0627711081 56.1138893349
7539 1 50.4191672118 7.138069752 36.4029691646
7540 1 13.1866452909 16.6300711087 49.92794208
7541 1 40.3134966079 10.519013799 30.812551288
7542 1 45.4156496786 56.6269704893 43.3717021531
7543 1 24.2733804739 8.792010095 33.7551151687
7544 1 13.0103484395 26.4928690228 27.0112409723
7545 1 59.1620801608 42.1599841015 43.8251988769
7546 1 21.8782249302 6.8025577592 19.0874564806
7547 1 17.1152496175 40.3211808579 53.545145323
7548 1 24.520788131 6.8384973745 56.2254369318
7549 1 50.6881159633 8.7265050126 60.0180552269
7550 1 39.5559681222 59.7235342991 23.1312615722
7551 1 47.0396088492 20.0484916211 4.9463830717
7552 1 42.3777885002 1.7189539642 41.7448456423
7553 1 42.8074136603 37.9601005542 38.3033723798
7554 1 27.1983083709 8.3385763569 14.4922749558
7555 1 10.7691928249 23.1545032793 16.8436554685
7556 1 61.6354009037 27.875530145 14.7298568505
7557 1 47.6507586702 63.7017713227 62.3321482312
7558 1 58.4297459376 56.6003905424 12.9576294454
7559 1 48.9594116465 48.8914501236 35.9320254141
7560 1 24.4232233497 61.0719312244 5.7521396742
7561 1 39.9795466594 33.5459398048 7.9315000616
7562 1 21.7690707882 9.3341276368 6.5626202009
7563 1 46.3787633457 10.0489518477 18.0199125958
7564 1 48.5159296421 39.1104705768 24.1816733586
7565 1 41.4065496835 50.8024979147 61.3015139408
7566 1 2.620492854 21.8840825962 31.6484969155
7567 1 58.2742973384 16.1307208273 30.0325369231
7568 1 37.8037701558 44.6648606581 29.2212186872
7569 1 56.8972419395 50.1107894396 7.2646709207
7570 1 62.0541295453 4.7424607116 53.0779807119
7571 1 1.0400352305 28.4127977914 59.2954207947
7572 1 55.2502930044 3.6615323748 4.8156248497
7573 1 16.0072059558 51.9724564764 62.3349196001
7574 1 60.5143192111 44.9499967232 57.8032276165
7575 1 59.8541035641 27.5020252045 11.5590329522
7576 1 41.4943516881 20.439506574 21.2872935048
7577 1 11.121534585 33.1338876428 3.8047743538
7578 1 30.5221244278 48.7162240284 32.1660500515
7579 1 28.8293849207 46.5640671458 2.7834178505
7580 1 51.9648981976 42.2705869136 5.2935852022
7581 1 13.2441511949 35.6657850458 21.682843425
7582 1 60.9128294572 44.0011178143 63.6515087691
7583 1 32.274007466 2.8502015417 51.7353154812
7584 1 41.5522984917 22.5742164299 37.6762242022
7585 1 22.9447610446 38.8331447331 9.2912973907
7586 1 12.3822554771 45.7464503443 19.1387268047
7587 1 36.7533583693 7.124149922 40.0522950921
7588 1 23.4877603856 48.0492059305 13.9057525263
7589 1 20.0694028589 59.7406663975 51.9481440131
7590 1 48.7431818892 40.7429957967 32.8740718115
7591 1 50.765084435 21.0946203829 52.4838370181
7592 1 56.2306017556 19.1416241449 58.4202351035
7593 1 44.0006769147 12.1966367486 14.9041381609
7594 1 14.6989308933 51.1679406913 12.4097802088
7595 1 17.5381982981 47.4199792263 47.2842451374
7596 1 41.5546919466 21.8539124669 56.6393156779
7597 1 59.8145485721 60.8916032911 20.6806156655
7598 1 3.6628865664 4.7211526641 31.7092150879
7599 1 41.5516686351 32.031890604 23.9220464843
7600 1 8.1227245135 24.6752289597 45.8617140949
7601 1 5.234806988 5.9121925249 40.9577138983
7602 1 40.4131399158 22.5064438639 61.0735688515
7603 1 50.4785626855 25.8148284351 46.5202921149
7604 1 45.2215278865 12.5351216644 24.8753973747
7605 1 27.7952864192 36.1919672167 10.7395895666
7606 1 59.5438362223 33.8429171733 16.0300697489
7607 1 58.8910528827 63.7367913475 33.4800568086
7608 1 49.594999902 12.8467746907 54.49289049
7609 1 10.4757426533 46.1360166271 51.0875709941
7610 1 11.5740235383 48.2605228067 44.9535869056
7611 1 44.9870322889 6.0775928577 47.7738956278
7612 1 58.859497069 13.1273757885 9.6440800504
7613 1 5.3930332546 48.5227950786 63.7697328456
7614 1 57.4467288031 51.5396820334 23.7298772476
7615 1 35.0337239871 52.3996251959 29.4736651967
7616 1 53.592573522 46.373031651 47.2282508892
7617 1 10.0590925383 6.6825952786 28.4521638264
7618 1 40.3341559031 25.7340178384 49.2293051828
7619 1 34.6365364399 20.6098827737 26.9088892812
7620 1 37.944921011 21.6761669455 53.6090127783
7621 1 39.1565130914 52.3389070234 20.4850452034
7622 1 17.9039560029 33.0537698882 57.5288620987
7623 1 36.5237126673 45.7230196802 57.2923509601
7624 1 22.5204896652 13.9091537518 18.7555850588
7625 1 48.9480742284 49.7052877858 52.4602803827
7626 1 44.4395609663 24.4146573005 30.7278985662
7627 1 1.6384331015 55.9534648688 24.9300059385
7628 1 22.351121236 39.4340278921 60.3863953437
7629 1 3.3166355192 19.8953105055 29.8008756801
7630 1 46.6569080029 7.3379232387 2.3493585002
7631 1 61.2213961863 49.960001779 59.5714239396
7632 1 19.7519551523 61.7042442258 9.0001147026
7633 1 60.749318694 60.588705271 27.8274720894
7634 1 5.3000160377 19.7321146706 3.2092638713
7635 1 52.2034248772 56.6434097455 29.2471687775
7636 1 46.7996334996 50.2913693156 34.7421633851
7637 1 12.827312123 44.1063668456 43.809074549
7638 1 27.2425872871 35.6067674861 5.4173394193
7639 1 10.1512405531 23.6691590751 23.6595852554
7640 1 27.5141184505 3.8867753795 39.938228069
7641 1 56.1089764537 33.4311169538 56.4826703512
7642 1 48.8241184573 39.2526292026 4.4884962477
7643 1 26.1304495577 18.8944054448 49.9270602809
7644 1 14.8805185398 30.6802814102 28.2129443047
7645 1 35.4469728766 10.9504655431 3.9655767338
7646 1 46.6000949411 44.5999224467 24.2404389758
7647 1 10.2843922301 14.674996344 17.798643986
7648 1 24.5129779096 23.481650777 61.478944534
7649 1 9.8915506931 20.7397591966 53.3600304798
7650 1 51.677116735 58.0325583903 40.1474034328
7651 1 29.5775915293 55.9081781821 17.4682842198
7652 1 3.0888415954 21.1520633012 34.2257439909
7653 1 17.2166565238 60.3408567143 22.9111267042
7654 1 9.6280816938 56.9214284314 3.1214744638
7655 1 61.469055786 34.2906822023 49.7243724396
7656 1 20.3426976206 61.6662638752 20.6506974789
7657 1 6.4255886076 22.0349962282 55.4606650957
7658 1 18.2945930419 46.2444149412 33.6807920945
7659 1 11.6364423235 43.7557886839 4.3694155663
7660 1 12.9771549988 17.592239991 6.3467557604
7661 1 26.4319618934 22.1273332 47.17792535
7662 1 6.5962167499 28.2500428561 40.5886179536
7663 1 62.2825155343 40.0085830468 49.0278770547
7664 1 53.4867576198 17.2613133539 4.1393037704
7665 1 17.6925761411 10.5719217501 33.8206832367
7666 1 60.1547341006 34.1999828576 47.411602134
7667 1 64.00920431 54.7532731922 6.0536709055
7668 1 38.8121705096 2.6965480337 50.5446346387
7669 1 14.0656731071 52.1359042539 40.3750965795
7670 1 50.9386729031 41.2217497685 60.5894610989
7671 1 9.7427785735 61.8828715464 23.7279876779
7672 1 32.3565186755 61.3704202486 3.591189994
7673 1 25.2181653151 61.8669361754 22.6910548219
7674 1 27.2413905596 49.5844183118 6.8666582614
7675 1 3.3920482452 43.8877436334 3.2550040547
7676 1 20.2697602309 33.0229699024 41.9077265489
7677 1 23.2974177329 4.496205692 9.0023192006
7678 1 35.1573018443 47.0038329966 9.6740612227
7679 1 17.7963135167 7.5571133219 19.8359150318
7680 1 16.5445995734 39.0960468615 49.8674128646
7681 1 18.9490140086 44.3605769536 38.6810343736
7682 1 28.9864081613 36.7221804696 63.9663740639
7683 1 31.9863519747 47.6929590597 20.7133682067
7684 1 36.0709717714 43.1724155373 27.7552905276
7685 1 27.0097293166 14.0358808918 30.4322438966
7686 1 59.8085019491 56.729952037 8.8763478885
7687 1 53.3971290312 53.269520092 6.2667387829
7688 1 32.6548187426 54.7809238953 40.4560331476
7689 1 40.9482030642 57.1592622688 18.7996120324
7690 1 9.2321538596 47.041120505 1.9796515947
7691 1 63.4069984522 27.0261685728 46.3406570237
7692 1 36.0738691116 41.2828458549 55.4515951612
7693 1 7.2300036156 42.1174687836 6.4079022353
7694 1 50.961221768 58.7989048678 23.0059831023
7695 1 3.3281492971 38.7591995728 7.9097700103
7696 1 34.2068482941 49.960001779 37.7614437949
7697 1 12.9517717794 60.1219185738 39.6051599196
7698 1 41.9710901189 15.2491735849 22.2437306924
7699 1 15.2937674294 19.1101943025 3.3688443295
7700 1 48.9253993922 52.692634468 20.4769200537
7701 1 8.1652398313 22.6598139365 16.0621294479
7702 1 43.1426863076 20.9335660603 9.3649276227
7703 1 38.3354320787 52.1289758317 37.0772935986
7704 1 31.0652497402 35.4750014936 25.9638524974
7705 1 19.0310213328 52.4786721943 35.5223667069
7706 1 52.4615400958 34.8991866257 13.8330670792
7707 1 39.4875027141 54.2758419192 7.8010567679
7708 1 49.4136641982 31.8651675724 13.7118196913
7709 1 18.0374855938 16.3195518243 56.0722558162
7710 1 52.5928651887 12.5867069167 1.0166633951
7711 1 27.5463041207 41.6132686067 18.2869087919
7712 1 50.6357118974 56.1615064909 4.174833979
7713 1 48.86757856 18.3197243187 23.1871298492
7714 1 55.5184229423 20.9874187963 12.9878625603
7715 1 36.349053443 18.3891345117 32.4428090243
7716 1 23.10272907 55.1219912229 16.3023567401
7717 1 23.8882861726 16.2013907335 38.6659178162
7718 1 63.1334517479 59.888745675 19.2364175573
7719 1 18.1191150041 15.797841635 42.5195692121
7720 1 28.4327012587 42.5497393413 35.6560852548
7721 1 39.2674308317 28.914856456 58.6590137257
7722 1 37.4741032319 24.1391580408 25.859170337
7723 1 29.0552514834 54.1839458469 7.0164759429
7724 1 27.8779865856 14.9870272843 35.0510450425
7725 1 9.5783230255 8.3947595621 8.3198066313
7726 1 38.4740635078 21.4533866799 12.9527165642
7727 1 22.6444454364 27.431418284 47.6296584754
7728 1 29.1159696559 5.9199145663 21.4703298214
7729 1 30.2973286213 53.5436966529 53.3334505329
7730 1 16.1574267455 28.4561949084 19.0108029372
7731 1 3.8202247352 40.4324135266 27.5932914201
7732 1 6.1859092905 7.2865332419 48.6366101591
7733 1 43.0165890242 26.394296471 53.5518218025
7734 1 5.7584382398 62.6555795752 35.4532084566
7735 1 1.3336165383 50.4192301975 63.045334815
7736 1 4.8118331132 27.0647157943 58.5879659056
7737 1 11.5111638535 7.1271606364 63.4518442394
7738 1 42.9770340322 32.460067094 19.8728246263
7739 1 34.2690151366 8.8512166117 10.8671985058
7740 1 33.5029206017 25.7408832749 24.6170931991
7741 1 18.6869306936 49.9271862522 47.5382033028
7742 1 47.0140366729 56.2709125755 7.4249064298
7743 1 19.3438081009 35.3101680316 57.2903354191
7744 1 32.952362982 22.0247925519 6.9548696727
7745 1 36.7831505847 27.3676768001 42.131325628
7746 1 17.3447693483 48.2052843863 25.5841749625
7747 1 44.8785709892 46.3622611038 40.6736485894
7748 1 16.8339556775 33.7153712197 19.9620753009
7749 1 50.9547342454 62.8362224368 18.2637930561
7750 1 51.5404378613 9.938097093 11.204864608
7751 1 2.2115773776 3.6369679689 49.3183669005
7752 1 54.4118279506 30.0638407942 62.3293138767
7753 1 10.377988915 38.1300358543 49.5412101517
7754 1 5.9008047182 51.3495913234 23.3198406265
7755 1 2.9640670107 13.7761910318 48.7555270778
7756 1 19.3523111645 47.1490149338 52.5856218383
7757 1 54.3278680711 40.3000176775 29.1023017685
7758 1 8.7590685968 45.9395013802 33.4989525054
7759 1 10.7696967102 46.2445409126 31.5984233189
7760 1 53.8528302529 40.5767766503 15.6718703228
7761 1 25.2358642844 19.4115176812 31.0598329738
7762 1 14.5342234027 21.4669915816 2.1593559701
7763 1 26.3590245036 26.10475141 7.2331340027
7764 1 12.4337777438 49.2338401501 62.7166126759
7765 1 3.035562029 11.8203604392 15.7722694586
7766 1 57.889580951 43.8006974567 32.6738404108
7767 1 18.6958116711 62.9055066585 37.1716461114
7768 1 24.1967899161 7.0765264674 8.3674237873
7769 1 1.5130532247 48.3570798174 51.4402906682
7770 1 34.111991896 63.8848706249 35.8236900856
7771 1 14.4255101603 46.2961891505 12.1823390047
7772 1 13.9174678584 28.9792277965 54.2709920236
7773 1 8.9441204544 51.6272320954 46.3984148704
7774 1 62.5990814417 44.9899296291 43.7424987105
7775 1 14.4477440969 60.346399452 53.8079844658
7776 1 35.280249845 25.7401904327 63.3294001239
7777 1 29.416474221 29.3740218888 2.1960514133
7778 1 59.1489791443 26.1511088529 6.2217859202
7779 1 49.5844812974 59.2795484094 29.8170629937
7780 1 12.3763978111 60.0845680797 55.4338961918
7781 1 35.5024632396 51.1100568733 49.5000805183
7782 1 58.4357295749 15.375333854 43.9849305007
7783 1 27.5957478607 41.074237362 54.1807965641
7784 1 51.3474498111 14.8424752036 57.6751147921
7785 1 60.8189178439 57.2465603881 62.1748100624
7786 1 49.1233633093 30.2151323401 42.4727708696
7787 1 46.8658314241 50.5358166469 38.9890342319
7788 1 19.2966318445 2.299366785 22.7767153141
7789 1 57.562307482 7.7899712924 50.2348711821
7790 1 14.9355050176 25.4635574312 58.9906332049
7791 1 43.485643205 40.055255418 7.5239828668
7792 1 43.1867132812 30.1736247927 48.4246004408
7793 1 42.573232991 53.8111967343 38.8658342886
7794 1 13.06703553 8.980463178 55.2419159121
7795 1 3.9124042429 47.560500225 52.2191712912
7796 1 41.7805585093 35.5906431581 16.2927199348
7797 1 19.3650972526 17.223584946 36.6668160779
7798 1 45.6103383415 18.5385364879 3.4248259806
7799 1 63.2977183389 22.7742588736 30.5907787929
7800 1 13.5912021599 17.0162361661 33.6021859957
7801 1 43.6303842427 7.5736785494 12.4693646395
7802 1 13.4228415012 11.4579409742 36.6455899118
7803 1 38.3443760419 6.2351199836 18.7670484482
7804 1 18.0097089195 54.9206890661 41.9727907316
7805 1 32.0874439527 19.4004951914 41.2048066271
7806 1 21.6014029717 33.7346448305 32.0751617497
7807 1 53.4902218309 62.7099361964 14.2733368152
7808 1 53.1705696263 36.9224748559 34.9603456978
7809 1 35.9215068095 56.1494132449 16.0332190317
7810 1 25.9047089663 10.6466857239 6.1006645035
7811 1 10.8437678417 29.6296806668 30.0020518656
7812 1 24.2173862256 8.335427074 5.8304749347
7813 1 8.6353647683 44.6866536951 7.457281057
7814 1 50.8950868291 21.5314259078 33.0592496403
7815 1 56.5525214438 36.7897010929 22.0975409846
7816 1 6.5758912787 14.5550086692 60.2881377202
7817 1 57.1583804696 51.8532246294 52.1296056883
7818 1 29.5719858059 10.6641327506 24.9187315061
7819 1 51.4878448385 23.3661350837 28.6944696454
7820 1 53.7896556399 56.7514301457 44.9686404774
7821 1 32.579298941 35.0752945201 49.8423445734
7822 1 31.0159319715 13.3613675009 1.2566720012
7823 1 36.1810077126 10.0088299847 34.9384896751
7824 1 48.754015422 8.242775174 5.7916442777
7825 1 43.5211041294 11.325734082 50.4830976527
7826 1 63.6915046607 11.6738558032 1.9912409555
7827 1 22.9023087124 51.1968511074 27.312564351
7828 1 16.9688079671 30.2003936966 17.0188815637
7829 1 5.3581392012 50.8801592286 16.7830002817
7830 1 44.6350054571 10.3296789168 4.4468312362
7831 1 44.1430244975 32.8675213032 27.8015849848
7832 1 35.0182295157 41.7424521874 17.0559801151
7833 1 51.106088777 17.9466602777 38.5813910657
7834 1 19.0210066135 42.269957057 58.6077434016
7835 1 49.0584250979 17.106557597 47.2113707334
7836 1 61.1539385486 2.2654427106 22.3625216398
7837 1 43.7472226347 34.8981788552 59.1058339699
7838 1 34.5317283081 14.1894399213 7.8002379543
7839 1 63.2029249265 8.7894906687 60.7089448884
7840 1 51.1270630005 19.5499601532 31.3250025859
7841 1 59.3662166721 53.8888580482 59.0744671132
7842 1 13.6274189121 62.7704024262 43.9193624327
7843 1 28.9034560522 42.6141736675 11.6765012007
7844 1 9.7127344155 46.9366902872 10.8930856104
7845 1 62.1896116915 36.6919473547 55.1290456164
7846 1 61.9479987148 56.7208821025 43.4587483298
7847 1 46.9467679922 16.1947142539 23.4038634917
7848 1 20.8282540433 47.7532993183 59.402685367
7849 1 23.5089865517 43.0776221249 12.825107625
7850 1 57.4227312682 27.685628392 26.7128779195
7851 1 19.487919282 48.7189324116 29.5358950249
7852 1 54.7413689032 37.3576427538 55.8666076491
7853 1 35.861166551 62.4040148648 31.7596036128
7854 1 29.4348660326 8.1452733783 4.3277316591
7855 1 20.6067964766 2.5618595067 52.9957844307
7856 1 12.1797565928 34.1626953492 28.9710396612
7857 1 61.1439238293 52.2375001171 51.3451823275
7858 1 13.9584715205 12.5991780766 11.0986707919
7859 1 31.6082490812 34.3968130328 4.5536864017
7860 1 46.051237934 3.4620001149 37.5908156526
7861 1 20.6513903211 51.1432503141 25.6576162375
7862 1 21.35594787 41.9259294035 11.3848776131
7863 1 50.4553209784 20.8736037157 29.102931625
7864 1 11.3860743406 5.6825594199 46.0380739319
7865 1 55.7600989047 39.2397171431 47.3439555394
7866 1 17.5438670071 22.9516894667 51.2083144968
7867 1 16.2582037952 38.4697174975 9.1409506296
7868 1 37.2547871774 63.7774170956 41.0270611056
7869 1 41.3055206911 34.6664546265 24.4688879504
7870 1 18.0488230119 48.9696153228 51.0492757152
7871 1 36.6773976681 59.0193546641 52.940420039
7872 1 17.3038286718 52.8563971738 18.8587555634
7873 1 38.4910696349 7.8797258523 38.2781781174
7874 1 27.7524561731 63.9381564899 47.5431791696
7875 1 57.9065240925 58.3154899574 30.5025988744
7876 1 2.0964207026 50.9588283131 51.2297296199
7877 1 39.1568280197 34.4320850002 46.2364787486
7878 1 46.9534444717 8.9186742493 33.7187724451
7879 1 48.55989363 21.0186596817 56.5352003884
7880 1 54.5024013241 53.6134217742 3.707348141
7881 1 40.0584047008 19.7682054515 11.429030558
7882 1 36.5313339317 39.5640302862 2.3183443632
7883 1 47.7127995414 23.9452881914 16.1156672555
7884 1 45.5380308083 63.5371268177 64.0230611543
7885 1 62.896625681 54.0679262684 8.6877058485
7886 1 24.4702106491 1.2281338302 19.414666964
7887 1 40.2357093226 26.9563174802 44.9253693316
7888 1 54.8107161106 54.6466384765 36.2189250775
7889 1 26.8416835862 49.3043210992 23.7657790716
7890 1 55.5356180264 43.836347338 6.6395193884
7891 1 35.5856672913 45.7132569035 46.1067282971
7892 1 21.3300607653 7.3244443083 49.1864749367
7893 1 40.4384601496 23.5368891974 30.7998911711
7894 1 32.6182240765 57.8074476555 57.5019672235
7895 1 21.4789588563 27.988715369 13.2884301111
7896 1 18.1963984041 53.6964998546 46.1770832749
7897 1 31.1123630109 38.4753862065 41.3971648207
7898 1 21.7916826387 9.4573275801 20.0152351947
7899 1 38.5160119547 45.875256011 2.2226691516
7900 1 40.5374106153 37.5029506623 6.0271098544
7901 1 20.4048644632 1.2471731344 10.0265919398
7902 1 30.0853189029 11.5376178291 33.0960962491
7903 1 2.0016524844 29.4555883134 21.9293692829
7904 1 36.622474176 15.7172829808 38.7811185811
7905 1 33.0061527323 45.0477504614 20.6275187574
7906 1 29.6083285294 48.2534054275 36.6212774486
7907 1 12.9733758594 44.3909360398 27.7860275277
7908 1 54.0010984873 42.2197574891 44.9778993688
7909 1 31.2155965012 47.5778212804 34.4858747505
7910 1 37.6679100956 42.2690122722 47.8189303719
7911 1 25.2201178704 21.9992833612 26.8884819286
7912 1 45.89484455 35.8518446739 21.9199844202
7913 1 3.5582673916 62.751947629 61.7191718263
7914 1 45.5486123985 56.9458038803 11.1643018455
7915 1 37.540742056 5.9162550997 14.1408779805
7916 1 25.629146721 50.4677291526 35.6021695332
7917 1 63.8143266901 22.5774286983 2.6967558863
7918 1 15.5168626232 55.2861948283 42.7771175598
7919 1 8.2535457211 37.3218669011 37.3436599381
7920 1 14.0050179203 8.7772084658 8.0335368245
7921 1 7.5159207028 59.5724317101 38.7028903963
7922 1 46.957979439 61.0197161155 10.2508838611
7923 1 7.3565040073 43.8006974567 56.5751332943
7924 1 47.8046956136 18.6825216977 8.9043135198
7925 1 27.8359121674 20.6201494357 39.055862013
7926 1 57.4648056864 13.0419672389 45.1499131956
7927 1 39.4063142034 50.9310516388 51.454966326
7928 1 62.8479377689 56.8476722282 21.2059160372
7929 1 59.787653697 45.5343146546 38.7969909665
7930 1 20.288970856 21.2748853306 53.8812997695
7931 1 52.5366819835 43.6315179845 50.9269575711
7932 1 24.7251765849 49.9434995371 42.4848641156
7933 1 14.1099520234 28.0950351565 58.484606444
7934 1 17.8591732014 46.6082830764 29.4222689014
7935 1 48.9164554291 10.7383298535 40.102872574
7936 1 22.6883464387 53.6015804708 39.9716734524
7937 1 9.9823760092 12.0016331574 24.0040538085
7938 1 2.2040631888 8.3916102793 29.7401575076
7939 1 62.1044550845 53.5358864316 2.0945500286
7940 1 54.2335785439 49.5350375574 29.4554623421
7941 1 36.1336424992 6.3898316506 47.9259430016
7942 1 37.3654529751 34.2098716056 10.4268027985
7943 1 45.7038090551 55.5051959545 48.1144590702
7944 1 36.8921787553 12.4952517441 61.8292077675
7945 1 13.7255505643 7.9223671415 17.6545957905
7946 1 9.1189686357 25.3560409162 31.1054975744
7947 1 8.3723366685 4.7279488164 27.4186951815
7948 1 53.8669390399 24.5239374138 25.4854134538
7949 1 7.690957841 39.32342508 57.0874586209
7950 1 58.7119216768 51.3635111534 30.308729025
7951 1 43.6015368122 19.7504434965 16.9474558297
7952 1 51.1889149147 34.3099558131 50.9447825118
7953 1 2.1851108049 16.9747286188 27.7801698617
7954 1 50.4022240703 52.0228450012 25.9725445179
7955 1 43.0873849016 39.5535116816 60.3151585666
7956 1 17.4391848467 4.9484552998 15.9403781747
7957 1 56.7759315659 2.7012971521 23.1478267998
7958 1 11.8739612326 25.5949455097 30.9016130057
7959 1 12.9864768759 40.87387999 52.4998983604
7960 1 40.9887028411 20.3520194977 39.0573736687
7961 1 60.1549860432 39.7454289757 40.3931104772
7962 1 30.4753260853 59.3989692133 41.8997903562
7963 1 58.575809674 63.3773322082 4.1993102049
7964 1 44.0321697428 6.1799508474 35.2261451664
7965 1 60.1100142848 63.7768502247 6.3770329653
7966 1 30.4822545075 57.5349087217 47.2956455412
7967 1 18.4032432987 61.1783769832 42.230213108
7968 1 9.6746910793 42.4036126192 17.9938365341
7969 1 21.8385439669 45.8102548139 46.7671958867
7970 1 62.9832309581 55.1634357846 11.2790617109
7971 1 3.1137902138 36.416637052 29.682210704
7972 1 54.1134648978 2.6135455361 14.8871320337
7973 1 42.2731063398 37.4880230619 51.0811464572
7974 1 25.1160655666 27.7224750008 9.1896385418
7975 1 29.1046952234 26.9469956031 34.5867147859
7976 1 30.4548557471 3.8574870494 53.6370413952
7977 1 4.8145163021 34.6696668949 8.4769558433
7978 1 13.3507859106 14.8160842137 5.6436720759
7979 1 63.7298629253 30.9765659364 4.5860106404
7980 1 2.4744543118 11.5838493007 32.2808099168
7981 1 1.5335437183 34.6369773394 58.0938434337
7982 1 6.8408593366 30.3654791011 50.8691997245
7983 1 56.0049241498 46.1882947217 17.4061173773
7984 1 59.6468807556 11.6634001843 53.606682309
7985 1 6.4920069819 63.9020027233 27.746976421
7986 1 56.3207342294 25.4369774843 52.9443881353
7987 1 42.8508107774 38.8513475877 35.6640844331
7988 1 41.6629013037 62.8413872606 55.8419802576
7989 1 25.0454586461 11.4341953818 39.9438337924
7990 1 21.9398249018 16.9426059342 58.9879878074
7991 1 26.9093301808 34.68742885 59.7671833587
7992 1 21.6870004783 44.3948411505 16.8238779725
7993 1 18.5818076336 57.9538893059 22.4947915175
7994 1 50.0833906792 35.2233737975 19.505870194
7995 1 5.7372498651 25.4853504682 17.1894467204
7996 1 41.9549028053 46.7278928373 61.0507050583
7997 1 52.8094098743 63.1410100266 24.4679431655
7998 1 55.0290873802 63.6135284185 16.5657627539
7999 1 8.9390816019 35.0388258252 16.0072059558
8000 1 44.2623823158 39.2131371962 51.587740089
