# LAMMPS data file written by OVITO Basic 3.7.6
8000 atoms
1 atom types
3.2391972913 61.7608027086 xlo xhi
3.2391972913 61.7608027086 ylo yhi
3.2391972913 61.7608027086 zlo zhi

Masses

1 18.0153

Atoms  # atomic

1 1 29.3688015021 48.7914200809 45.7824732167
2 1 31.4361942567 50.5179830055 40.8275659293
3 1 31.1696868656 10.0016028837 55.8456729195
4 1 59.9507879747 20.8654366702 53.5194391041
5 1 26.3952016877 53.0569428565 25.6180347677
6 1 19.5511584557 42.0638348437 7.5323773777
7 1 25.3106792961 17.6906980979 33.8519076067
8 1 21.915665401 28.7825905807 4.9620909113
9 1 32.6779642021 53.083570187 5.8846254991
10 1 23.7647725674 27.2939179821 24.7203718622
11 1 46.4543597685 56.8356243967 5.4440865578
12 1 35.3327968318 30.1137815391 22.6494678113
13 1 32.3305799523 48.0400611889 44.0070447516
14 1 27.2082423517 17.1501340287 46.3553412122
15 1 21.658931118 3.5050375361 61.0296922922
16 1 40.978434628 28.2446599837 5.0238955788
17 1 4.2764927474 17.8094384353 43.6593678938
18 1 28.7851655313 3.3780591123 54.2438780576
19 1 54.1019631645 37.3221802864 56.8246808565
20 1 33.958651015 28.2406219929 48.8467815196
21 1 4.658685648 26.9189700562 15.6248269051
22 1 56.808002199 25.473544924 15.780260289
23 1 48.1371485323 32.0102912059 38.2268072629
24 1 59.8035476155 34.7446546974 41.4614719591
25 1 59.6150495244 3.9663282386 4.9561860813
26 1 52.5124578397 47.3006407045 8.591372645
27 1 36.6593060618 38.1808092811 27.3724539765
28 1 42.9750747617 56.3217461795 41.6266199296
29 1 28.1682892886 56.3549864514 60.4699916579
30 1 23.2118019178 18.6663703034 19.1926551009
31 1 40.954265205 18.2295650406 45.6306096507
32 1 33.2889297626 50.5466000705 47.4202003443
33 1 30.9451394657 17.6077144614 25.3282357777
34 1 41.9462649384 55.8088628297 12.7664561317
35 1 40.5930698564 12.3510697764 36.9299684869
36 1 38.6007017999 18.1739109938 22.8484412697
37 1 47.8500415361 19.9610437801 10.754541859
38 1 13.8917095606 53.9831057839 41.7826385297
39 1 24.2923448402 5.5345785163 7.7446703535
40 1 12.1753293953 18.2372898925 45.3858722968
41 1 49.8788100311 51.349048324 8.3743511235
42 1 8.9624288842 21.7444897052 20.1175305529
43 1 35.8952479815 29.8140923978 27.1733634749
44 1 55.9342746301 25.7366580619 24.6364518801
45 1 35.0108109588 45.7556117998 18.1642549289
46 1 14.0072312097 34.3973289692 46.0887752995
47 1 36.1604678972 60.0639687596 40.3229926474
48 1 23.4182076201 24.2480439849 54.7279687776
49 1 58.0374240856 48.7035791511 25.0157304048
50 1 47.4910700085 19.8155005474 23.8059717776
51 1 13.6815584756 38.8909689628 21.5008642618
52 1 37.0914881178 26.5101966423 44.4987432803
53 1 20.7297250672 14.7073251753 16.9908967403
54 1 11.42239042 27.0509362764 6.6817775473
55 1 54.8733364455 47.8545476997 36.1597071164
56 1 19.0149835069 60.6045328288 45.1740240852
57 1 12.539041173 40.509032831 47.2486149973
58 1 16.293728855 46.8898190344 46.0779488025
59 1 55.3370616468 41.3763815449 53.5484658204
60 1 14.2368114678 57.6459145453 33.7543520905
61 1 60.5293325658 44.5284137342 55.1850225159
62 1 14.2653700112 8.5380243495 11.6359357582
63 1 56.9708093052 7.4840326795 27.9469605769
64 1 3.4687482886 39.443705526 24.4704260855
65 1 13.2889370248 32.3958900639 13.4259361031
66 1 38.6328301613 21.8415770485 10.1250834712
67 1 36.475665264 25.6067400979 54.1728328286
68 1 23.8038649998 38.7708826285 23.5747529146
69 1 16.3684609451 53.4618538444 47.2682197351
70 1 59.2320841386 8.4251595813 40.9829407916
71 1 35.2045759943 53.4612101068 22.2690188545
72 1 55.5063646513 13.0711196095 44.53409033
73 1 8.941279176 5.3944309756 26.5663188619
74 1 48.8648061741 15.1020534039 28.7550854261
75 1 44.4405142829 23.806205864 15.5514993335
76 1 42.9462821318 22.702020213 9.3254442547
77 1 41.6674094886 8.17227602 20.0217306849
78 1 28.5756581839 7.028687772 56.6291601728
79 1 54.2336367767 52.5914034854 4.9942602378
80 1 30.4053946989 55.628908893 25.5234053318
81 1 56.8679283229 5.0709586539 16.5756859499
82 1 38.1209416787 24.925373046 56.8693328414
83 1 55.4768697621 28.8859397358 46.0011099346
84 1 21.427127039 21.4047132641 10.7858509179
85 1 21.470140419 12.9440692041 38.467214018
86 1 33.5906671601 39.569468456 13.7057278986
87 1 27.7073731243 54.746754213 48.4296395162
88 1 44.2315921516 17.4444391823 5.8352157076
89 1 21.8438593912 17.6110501929 51.4607075472
90 1 27.4286932393 14.7698262499 15.3387147762
91 1 30.9171076167 10.801417665 61.3488106065
92 1 54.0375893985 47.501077203 27.6678125191
93 1 49.4176012588 46.6394636065 11.4936697354
94 1 42.4712622606 51.4374159482 6.9629036354
95 1 56.6353049414 26.8212974967 53.794432128
96 1 44.7334734396 11.7472438517 54.3404387065
97 1 38.7631577766 58.452634876 45.0758248313
98 1 18.404954292 57.2489039742 55.4837753116
99 1 11.6229439618 19.4021039267 42.8160130381
100 1 39.5247579495 30.140935564 16.0375797881
101 1 9.276754279 55.6409643437 16.3229896577
102 1 35.5326481143 53.7985286404 51.6986563948
103 1 21.9690956267 19.2241982463 43.5652066307
104 1 53.444707014 53.0475793997 50.9728129228
105 1 35.1269763456 34.2352826438 17.2520786653
106 1 7.5943400535 7.7231519592 50.7057203157
107 1 59.9626678606 37.8580041056 14.746827259
108 1 9.7423521717 4.4842854117 4.9201309202
109 1 61.5844771115 13.2401885275 54.7233455708
110 1 28.9259099923 40.4820543709 13.6633582563
111 1 37.6368509587 45.9509569187 9.2253723095
112 1 5.928036826 28.1254514734 25.2347182522
113 1 34.349458296 43.1590081675 61.3797100142
114 1 47.2537063769 39.9113516748 44.0514626501
115 1 59.3970565442 9.2031340994 12.9286195003
116 1 18.1510875677 22.9845625239 59.0966651436
117 1 55.3294538381 45.3650386053 26.1250659571
118 1 52.6006498991 10.0323267266 45.5806907213
119 1 48.3372339012 48.9452733815 59.4429374829
120 1 24.5846602593 12.4384425333 56.3820234331
121 1 53.5712892465 39.1557207057 35.3976972922
122 1 48.6466376291 32.0755427959 53.7698530537
123 1 54.3932251946 53.0807611499 39.0268561306
124 1 56.9553010798 29.7705523233 39.541729215
125 1 35.0753602896 31.4550382137 11.7274050275
126 1 60.6477217736 9.7493162428 36.5415605917
127 1 13.3557686982 59.8105116865 60.7085257216
128 1 33.5954659318 43.8243402995 49.5413159327
129 1 4.3866245566 37.0858700437 56.0183116555
130 1 46.0627331851 6.7919210608 60.9026418868
131 1 44.458597459 45.9451632798 4.7570487624
132 1 19.1258234275 32.0649503853 9.7539394496
133 1 36.6898543398 54.2351583384 15.2605299113
134 1 5.9382664026 10.9931929659 26.9051589573
135 1 8.5903777777 16.6004991106 36.1997944161
136 1 13.3311311023 5.7622626743 20.3836868144
137 1 15.9915232846 55.3171057793 7.2234184141
138 1 48.4796169672 3.329199424 6.2635177812
139 1 7.2176364795 10.9074002924 5.0040626067
140 1 16.322053312 25.2604677586 6.1966158819
141 1 8.4326854598 8.0403566171 26.016800987
142 1 17.4087995246 53.329770581 14.5523599642
143 1 46.9822246494 4.2020883782 54.5803187671
144 1 21.8275318632 47.813582576 5.1301883707
145 1 47.64094384 61.1299983238 38.7197932669
146 1 57.271025141 23.6757612055 4.0753891025
147 1 42.3962375625 17.0137201664 8.83884881
148 1 9.9136449108 57.8064978306 45.7589475314
149 1 16.5781438573 31.7288608054 55.2531416646
150 1 14.2019325909 40.4075563672 27.5756409905
151 1 43.4566490526 3.2827424571 51.5424622299
152 1 30.1978185645 14.9922083505 43.0239403022
153 1 7.3053311052 43.4382147469 27.7526103253
154 1 25.9678184033 10.5101556348 41.9999877722
155 1 27.5689695275 23.1374209573 14.6060242764
156 1 3.4426499934 60.6377731007 56.0099430659
157 1 56.3405316149 33.5670244316 27.5098627061
158 1 34.7560664104 56.5594024191 17.3195540763
159 1 61.86145987 55.5113975093 36.2142492526
160 1 43.2304630477 26.6694924523 27.4888534497
161 1 12.6579570752 52.5791139483 11.4558647783
162 1 50.6797367229 40.0656146267 19.9856813759
163 1 26.6248404673 52.6178552511 34.8524514945
164 1 9.3036742175 61.4447275178 17.9933133195
165 1 14.7891969013 56.3060038677 15.5609798336
166 1 30.9265295951 45.5521906994 43.8858465068
167 1 50.8614463077 15.3889263136 13.8414395016
168 1 31.1386704148 20.8162785216 15.9461105188
169 1 6.9733790028 27.9356073855 35.0195891996
170 1 58.6212356212 26.0790094536 50.1243081659
171 1 40.5710657327 6.081720414 36.6993933615
172 1 38.4715446168 50.12190878 27.5879305277
173 1 36.5650862771 5.9267142377 24.9099818638
174 1 45.3199769691 56.8621932056 14.4297572008
175 1 58.553935775 28.5510791096 23.2105729641
176 1 23.2789847208 28.0451013092 10.181322734
177 1 41.9806756424 60.0215991172 55.200589263
178 1 21.6787699423 50.695888686 49.8634773705
179 1 11.2893122893 12.3050132729 16.1566127335
180 1 53.6937164451 5.0018738987 6.4462573463
181 1 22.564084789 49.7663900271 21.5464525924
182 1 42.3921995717 59.1309002828 42.2789602652
183 1 19.1099055509 30.8885490732 20.5346140348
184 1 11.9002778499 42.3636995499 3.7879818905
185 1 25.6917719906 18.7930110575 24.2442400806
186 1 33.4362871651 40.2645295635 25.5974351626
187 1 10.255762216 35.2818245135 6.9233664388
188 1 57.1350794516 45.9263778445 41.991560661
189 1 25.8874682391 53.1235989651 21.0426400914
190 1 53.8698664774 30.991664142 44.9890958121
191 1 61.0925444964 6.2231671343 59.8698525944
192 1 55.8427468392 43.5624561152 44.5013767525
193 1 59.4427619181 54.9535110449 34.8386403957
194 1 15.4145002552 45.2812356663 18.59953863
195 1 58.296616276 30.2140290492 49.1643782722
196 1 18.0458657212 36.7930864518 35.0082945298
197 1 60.4485142288 39.4398431 46.0743789846
198 1 15.0029178043 28.5901130204 23.4355300153
199 1 49.0806338548 17.4127204722 57.1895045447
200 1 45.0271348556 21.9612537316 33.3687532324
201 1 61.0916081507 18.8594916013 19.5575373107
202 1 44.6031458244 38.1878903953 40.1141875592
203 1 36.7198759234 36.3332236764 53.5152840702
204 1 59.6415598117 34.7897163335 24.0093343564
205 1 18.102104984 6.9236590468 6.6058106513
206 1 37.1364327108 27.2408388859 17.1168352352
207 1 10.7329473866 45.9247392395 41.0417550051
208 1 51.2256847798 32.3797966225 9.4429556384
209 1 22.7257799848 38.7999678664 54.740667966
210 1 40.6091632978 55.8153587279 10.246866932
211 1 48.4869906895 48.3791353707 49.1001215494
212 1 5.5231785076 5.751131865 30.953098404
213 1 21.9940843523 45.1667674061 9.2601926647
214 1 7.897095727 60.1616998406 53.6185747037
215 1 24.3461847172 32.9582241704 30.6576228182
216 1 10.665413454 15.714423483 45.5250951961
217 1 56.26234675 17.8924220718 14.8809587786
218 1 11.7735785742 34.3970363612 17.0472530463
219 1 40.7027978665 25.5275603658 45.9809199807
220 1 6.5156464138 41.3422634489 42.6565416634
221 1 50.2115638795 25.627632311 27.9690232222
222 1 28.3481847037 29.0330045302 55.885643176
223 1 49.8767617749 52.940601905 37.2123937546
224 1 4.8932285382 32.5313090589 14.1991235539
225 1 34.7148086786 27.5570896416 21.3635725755
226 1 49.354690533 21.6598674637 22.9949793697
227 1 35.9312972904 22.8273734918 10.2805168551
228 1 46.8719114232 32.3249033566 59.1544844898
229 1 41.6573437725 54.3576440585 31.672563021
230 1 33.559241058 22.2116091596 6.477777083
231 1 58.9566814635 48.4127852938 9.1573116824
232 1 16.868586585 8.132580815 12.8450506477
233 1 59.6680700989 29.6948838875 11.5900548196
234 1 20.8084951481 48.2538406135 13.4767913782
235 1 5.6403329094 13.975746586 58.1542917316
236 1 3.8549031019 38.4438638974 12.9865558896
237 1 51.7539007903 19.947408246 55.5800433525
238 1 52.7670268233 56.4171363964 61.0064006932
239 1 35.8683865646 5.7164227008 38.0685063203
240 1 55.4331541229 13.8564210326 21.2725129575
241 1 36.8149150106 3.6004710589 32.9229941639
242 1 5.396011059 4.6823400809 37.7004054222
243 1 35.8436319255 8.9616798076 41.9903317073
244 1 22.7503005375 32.9533083555 33.0142293468
245 1 28.0774052354 15.6300938495 10.1003873537
246 1 6.478069691 15.540146142 12.95594909
247 1 19.9615119529 18.4625395517 37.6800984251
248 1 34.8887348899 53.0678863967 47.7995959123
249 1 10.0967590141 40.9388155012 31.2813460888
250 1 60.4286754045 16.6752312007 7.6861546003
251 1 22.5125272547 5.8117485439 47.7393186587
252 1 6.5350755868 6.5215395395 20.5564425936
253 1 16.5473029713 40.1882759117 23.609105097
254 1 3.5785371612 60.1348969453 9.3164904491
255 1 24.0886311317 32.4878275061 35.2975083037
256 1 16.7831450411 58.5912140376 37.3403219841
257 1 29.337668008 54.3512652035 27.6523042936
258 1 55.9552253648 60.6672679898 44.8566028974
259 1 41.9957742166 27.6675784327 54.5904430049
260 1 44.3790080756 26.3416544187 54.267988959
261 1 17.6234567733 4.6818719081 53.0129931309
262 1 21.9553430495 10.0208564919 3.748304242
263 1 24.976989102 19.601838166 59.8673361654
264 1 14.440700741 35.7927766504 6.9789502596
265 1 16.3079496051 12.2446774978 20.3638479901
266 1 29.5754412909 15.6386965255 18.5564082068
267 1 9.8547136541 7.1720949661 17.905589433
268 1 48.7276900526 52.6539630816 20.8035793333
269 1 48.8238995719 20.1202810684 58.13673525
270 1 50.1889160182 25.2633353173 36.9017610731
271 1 33.8540143845 16.9331359158 60.1467768312
272 1 37.0451975279 24.153999765 34.9102708407
273 1 7.9869673564 34.3643227838 59.2523911356
274 1 22.790270794 42.8196998993 45.0016779573
275 1 35.7219069862 36.70881534 30.9569608299
276 1 16.9619285456 5.8078041877 34.5783948164
277 1 25.4230993001 4.1174193195 37.8797741428
278 1 30.7673508284 31.2469353848 59.6784284231
279 1 56.914335956 26.6765735665 6.4219650279
280 1 50.2779273801 32.5691725376 58.8453148484
281 1 37.938471313 32.794246632 36.2385357189
282 1 58.5351503396 12.5518574046 56.4078314611
283 1 39.0160296336 49.594512072 39.5773688727
284 1 14.5729595693 27.7905908472 29.5731589482
285 1 18.366388554 19.3876490902 58.489562009
286 1 48.1984206532 21.6048571546 28.6117660145
287 1 29.1691257844 29.8796951174 23.4231819565
288 1 4.4224983007 38.9458037071 6.7170251102
289 1 49.1434860591 45.994965166 44.3019936429
290 1 11.789028278 6.9937328171 44.7388574273
291 1 40.8218308119 19.061976356 32.0715048051
292 1 26.5422664821 46.5743875812 12.6501737017
293 1 25.6488756538 24.6042064755 12.9444203337
294 1 40.9641553563 49.5519668649 55.8849994383
295 1 32.5747906117 38.240735405 37.0906102937
296 1 56.8698595359 45.3459020403 19.0936950662
297 1 54.1905063535 30.8569474063 36.1148795666
298 1 51.7144572283 54.0368871392 29.6858715603
299 1 13.5109679958 20.2625470912 23.7149706812
300 1 46.9423714361 49.3369584866 40.4527350466
301 1 32.2153509112 36.9184397306 46.746324058
302 1 41.0363710174 7.5674961931 48.8553841956
303 1 53.7819085044 34.3505116849 30.315505513
304 1 56.2244247497 6.5714350603 25.363641349
305 1 4.9814674149 38.2521471181 43.9237099855
306 1 40.5834723131 6.6274636453 11.2260504339
307 1 33.3830325041 59.3085133552 47.1061148881
308 1 35.18327413 18.5751936422 56.5466447092
309 1 16.669847213 31.2908851105 58.2040936178
310 1 48.2928160027 53.6783837845 31.311426194
311 1 41.6796405041 4.8629084944 22.7250777255
312 1 47.1923172128 51.7913546178 50.1755730922
313 1 56.1144626532 24.0791506317 54.4002477873
314 1 49.9252176642 14.9616600725 31.4218564634
315 1 53.4476916159 14.5398948622 61.1129685367
316 1 58.2241665285 44.0456104896 6.9652971691
317 1 25.1444194151 52.9873021461 43.9937603472
318 1 29.6878612949 53.9862659506 34.0901490624
319 1 30.7994791898 40.2832564773 59.4970699679
320 1 58.3608729987 52.2159873867 26.1734048031
321 1 20.1920285566 9.1916638647 47.9693670896
322 1 23.5288134543 36.3186517967 36.525642715
323 1 25.1689399678 26.0917671636 15.4753627248
324 1 33.6291158549 28.9407159585 39.807358782
325 1 8.8816983295 51.5017897142 23.8757880528
326 1 10.7373950286 44.9514078982 50.5640980306
327 1 37.6419423384 39.2066345024 55.1060768702
328 1 52.3518745545 54.8128836271 12.8200034006
329 1 13.9858708237 59.7836502696 41.9928481363
330 1 15.9121094661 33.1418064466 5.351610717
331 1 26.0675392189 41.6088878832 38.9261989693
332 1 34.3852149969 38.4969429935 40.9875054769
333 1 9.0266036767 56.1121803105 22.7446239417
334 1 21.6174978214 60.3692174534 48.5645903383
335 1 32.6198522479 37.6965429962 22.0167322136
336 1 33.4176772945 33.5029432736 28.5167269273
337 1 21.3928333782 19.4215916213 53.6985152167
338 1 3.8996955387 12.097963833 36.2088067433
339 1 41.801716573 49.6007738838 19.2919662653
340 1 11.3048790364 16.2470286139 10.8113078163
341 1 30.3469316151 38.2733319392 20.4096704072
342 1 31.8759841214 8.8484580576 4.8538434978
343 1 12.4003449682 18.0121572765 37.100207837
344 1 29.0318926197 18.6618056182 31.02221242
345 1 39.6539736542 41.6169053431 15.8451022279
346 1 20.2836733907 51.7547200928 27.2978389296
347 1 47.5803739784 42.3366625682 60.0417890711
348 1 40.4451857595 14.7832276976 28.4817895288
349 1 31.305047339 5.3082871725 34.3894870741
350 1 15.8598496724 36.0743826157 11.784873244
351 1 52.9660002817 5.1893010443 14.1459859362
352 1 7.1756823405 33.2759964878 16.9428505023
353 1 57.3802849783 8.5375269159 32.5223552533
354 1 36.6140688608 44.9799664416 44.0819524065
355 1 24.396045125 41.7405029738 20.3437165579
356 1 29.0081328479 58.8049934622 27.0694876253
357 1 25.3026033145 8.3574091187 44.6730791428
358 1 29.42814241 19.5623360824 12.899885392
359 1 44.0162326436 39.502870869 15.2460750748
360 1 58.0127279681 15.6963403069 59.3533994266
361 1 61.2813351955 16.9518043079 40.1495931305
362 1 6.4581021192 29.5324279109 50.245155281
363 1 57.0796594913 21.9106910645 22.9978469284
364 1 54.6743044654 28.1104699424 55.3206755973
365 1 38.2606327508 14.7324309441 50.095222928
366 1 12.7989356227 33.5021824928 38.6005847567
367 1 54.2397815452 31.2815801752 48.6870760584
368 1 22.3435753798 51.165583091 40.3212369992
369 1 12.3730153784 19.7759984637 19.7213978059
370 1 13.2402470491 55.3022998132 17.8246540527
371 1 34.5002099515 22.401394726 16.4444219889
372 1 25.3982861394 21.3981003227 28.1725613658
373 1 34.1397753838 15.7553886067 42.8755295108
374 1 40.6194045788 46.6292808471 27.6755958926
375 1 54.2471552675 58.135096645 53.4009913748
376 1 15.0117545667 25.2707090396 30.8189083628
377 1 54.5724183504 44.9633463057 42.4589727235
378 1 34.4382355714 46.8775880189 22.7057655957
379 1 5.0744055764 46.0678830864 15.9498559015
380 1 61.749625082 40.4777237721 37.0825343122
381 1 36.0403815629 42.331044494 33.0602858502
382 1 47.9014235057 23.8188465308 45.4639401184
383 1 27.5114427894 10.8765594063 53.8806344528
384 1 42.051779393 19.997385697 20.9862837854
385 1 54.2063071869 4.520966754 47.4604632089
386 1 34.8557287045 44.8794848451 59.1840379005
387 1 3.5346477128 34.5050672448 43.6238452793
388 1 55.8475456109 32.342342795 25.0213484789
389 1 36.2365459843 53.5002440176 56.0191309579
390 1 46.5128813739 36.7470884699 41.5961886948
391 1 50.1414549962 9.3937389683 22.9867278233
392 1 41.0857632524 58.6237520502 18.2800106644
393 1 46.442128753 40.4192606883 10.1187631378
394 1 36.5375811225 47.5206234192 19.8617326157
395 1 33.5272882615 17.5480224239 13.4654381868
396 1 20.2882380759 7.7895505727 61.4789626569
397 1 12.8841430802 31.2609220485 10.8363550634
398 1 38.2522641613 6.6859911029 22.5991977523
399 1 36.8103503254 49.285283909 30.7204750225
400 1 22.8602041124 20.0485921018 35.6331297108
401 1 34.4306862843 43.0262226448 12.9769583463
402 1 10.9788551726 23.2266664056 13.7072494604
403 1 3.5413952539 7.9501045972 27.5897446974
404 1 57.4285653028 4.4330029289 13.6865913336
405 1 27.9258342774 41.8548541908 11.3033574746
406 1 46.625886594 24.1056023973 51.9112653873
407 1 36.2164730736 13.1210385389 16.265404398
408 1 4.9439843266 30.9055788604 7.3780149391
409 1 9.0762182937 28.2069720698 36.7855956863
410 1 54.5531062206 38.4692037526 21.2401505097
411 1 43.7798053577 4.9391036247 5.7588216039
412 1 47.3311889825 49.2937110202 19.5876759375
413 1 25.4723159702 29.3941998789 49.9086560499
414 1 34.8079165528 46.1320227659 48.6630236786
415 1 58.2264488711 48.6733234811 55.7445475853
416 1 38.9383714632 54.1458543685 61.0198606624
417 1 60.8722691736 19.7126780867 13.9020093632
418 1 9.7639466441 60.7490811942 6.7112431756
419 1 56.9984900246 38.765908292 29.8607341173
420 1 55.3381735573 23.2148450413 9.4672421047
421 1 3.4227251424 31.6674716413 44.4027093258
422 1 47.051689795 12.2525193929 9.8536602652
423 1 26.7208159002 19.4548318932 7.648525208
424 1 30.5766289163 27.2487978243 51.8030589389
425 1 17.9740011897 35.7048186775 19.6972283828
426 1 55.6578185661 28.5920442334 37.2902860114
427 1 55.8113792587 53.2561504014 36.613893296
428 1 26.280499341 13.4121835258 17.5853006865
429 1 41.9405883427 38.7532676252 38.815007919
430 1 10.9483654162 21.6695820502 17.9051797818
431 1 9.3939145331 27.710533291 28.7930074264
432 1 39.2772700802 39.5203688291 42.5929286783
433 1 19.5151091468 40.815744565 10.1600793912
434 1 24.2864926797 14.6036834121 24.0369565542
435 1 24.8899674747 43.0808233026 53.8298962209
436 1 5.5174609467 5.9434045996 24.7021131213
437 1 53.2624122131 4.7351441255 18.0247979432
438 1 54.4276358986 47.8254039402 45.522286159
439 1 43.8430672132 40.9464233099 42.6897819352
440 1 22.7065848982 56.9716286077 11.0627166331
441 1 51.8067458 14.645233752 41.7374013287
442 1 13.1003218906 18.1368668176 32.4564599256
443 1 22.7559186116 59.5366890948 56.2507594722
444 1 11.0511878769 37.8051005743 39.2785575555
445 1 50.9439032497 33.3358055686 30.3317159977
446 1 29.4638405893 27.4514581438 28.2114197118
447 1 46.3457436689 59.6965115991 57.4183240219
448 1 19.8356319797 47.2160769846 29.9261612721
449 1 11.0642381949 51.1576826743 56.7304610718
450 1 50.1189241782 16.3962001861 8.5209418929
451 1 32.4212884407 6.4686008952 9.8147433976
452 1 9.1360683396 52.340228755 39.6853997563
453 1 53.0325978687 36.1700654405 21.4505942027
454 1 55.5284858181 23.0726960617 12.4330585456
455 1 48.7843389666 24.9332734627 16.7257353462
456 1 37.5397636153 26.5408619636 36.6777988891
457 1 22.4135672199 40.2782821408 29.0832160677
458 1 3.4046390403 56.5149845206 57.5595951773
459 1 15.2060462967 6.2856506524 18.3340846279
460 1 14.8991004763 10.7623837541 18.3360158408
461 1 43.9805929859 33.7440522879 18.1778319414
462 1 21.8031868754 6.909303697 7.6813499765
463 1 7.1881415903 60.7195863051 13.8832824494
464 1 18.9214659814 60.7150801414 10.54023574
465 1 55.3783779002 53.1769121476 7.646629108
466 1 46.5536124113 46.5390405316 19.0993716619
467 1 23.5904952264 48.9844243355 48.6956787344
468 1 26.0192003729 61.4096145545 47.1177606875
469 1 43.324156138 45.5468067117 55.6151563157
470 1 12.288393137 14.6030981961 23.3163800267
471 1 52.264735884 47.058361258 37.4387553244
472 1 38.1017465921 22.2166420177 32.0032686132
473 1 57.5931865788 44.7211839025 31.7004193052
474 1 28.3707155217 26.0691193023 10.7811106679
475 1 22.073322606 52.8972959169 37.9861078998
476 1 53.7567442141 46.7189944682 61.0941245797
477 1 22.8429987604 25.497714347 26.6701361899
478 1 58.1044898454 11.6110055543 53.6633437319
479 1 48.4840646092 61.2542982138 14.1810403778
480 1 17.890315294 41.6171394296 44.4986262371
481 1 51.450349223 32.9818083774 6.6621669573
482 1 54.8698251491 61.5577327378 14.2032785879
483 1 55.3913696966 36.3811528713 12.8499664626
484 1 41.8657392094 55.621944822 7.0056009987
485 1 47.1275923173 47.9382921171 10.1619520826
486 1 6.3772720778 40.2540541962 18.446036459
487 1 22.030601834 33.1034162734 3.4696781969
488 1 22.9222955358 12.0391496195 54.222166542
489 1 34.4076287718 44.3823438071 56.3326311982
490 1 19.2379508235 58.825944197 27.3468215134
491 1 34.4696616735 18.6688867324 24.1157266351
492 1 53.7916230909 22.8037892848 47.1330348266
493 1 61.481186478 24.7728657423 41.7668376962
494 1 17.5503047665 31.1798111034 45.6739741603
495 1 26.4064963575 49.8056580244 60.9813534461
496 1 53.3446935904 27.3207208773 32.4449311693
497 1 59.1062041653 41.9370770464 45.7437904356
498 1 6.9260642848 27.8690683201 38.7132388471
499 1 9.5367072503 16.9198515113 48.903079304
500 1 51.7594603428 22.7205715619 36.5221314187
501 1 41.4175807551 58.8230766383 34.5133187912
502 1 61.6764730752 14.336883413 59.1760789622
503 1 30.92342795 16.4840996374 51.0360162567
504 1 43.9850406279 60.6275318197 8.5065689866
505 1 41.1315856694 21.3410417574 51.9112653873
506 1 46.9950994026 34.127134717 50.2549283891
507 1 36.5111293569 10.1577970486 10.9017822183
508 1 47.6882292971 45.6913550771 25.0884142387
509 1 11.2729262398 52.8782763952 60.9828750078
510 1 20.989151344 58.6576360598 44.8101367427
511 1 33.2598445247 19.3966028958 41.8155276719
512 1 32.372598465 48.7038717592 34.1380782572
513 1 61.8749198392 21.9074138546 15.4136809527
514 1 58.9938426829 22.2589531384 26.8267985276
515 1 23.0255276477 21.0693844651 26.5374677104
516 1 35.0101086995 26.3270240174 3.8532586448
517 1 11.9418867113 23.841201784 40.2327523318
518 1 14.5298876677 18.6922953746 10.4187448871
519 1 15.615639013 34.0464919447 52.1132234476
520 1 40.2276024305 10.1253175576 23.5615855534
521 1 21.121000521 47.9753948149 56.10632815
522 1 48.3014186787 12.9455907658 47.7723248441
523 1 13.3641958094 27.4736378323 44.063635144
524 1 55.066808873 26.2836009861 51.5367271126
525 1 6.5043224832 32.0289010764 23.0551395801
526 1 19.6677334937 28.8950105847 11.8274184511
527 1 60.6622936534 32.5118798859 22.7610685129
528 1 13.3447666364 7.5902435411 50.9997328613
529 1 16.1868098819 37.9530431928 20.252481375
530 1 54.3364592374 35.246301899 4.0897386001
531 1 8.0462204819 54.1618307668 33.5385244097
532 1 51.4154118246 11.1665924828 40.2428765695
533 1 32.7931932431 17.5879341588 16.8635537269
534 1 56.5377494251 4.3148243989 57.7537698641
535 1 42.2489972032 24.0555664247 24.9369018023
536 1 33.4417296744 23.6932591656 9.0209504896
537 1 7.7023767893 61.3615097949 47.937414293
538 1 32.3323941221 55.1816282628 4.1493896725
539 1 27.9525201294 14.0874643307 24.9546338487
540 1 28.8417559237 35.3452619338 47.5914345618
541 1 50.6162993026 56.5520286969 47.2419435342
542 1 51.3108337157 45.0485537632 34.4690179359
543 1 48.2601609469 44.7819293289 30.3890086494
544 1 56.002218214 38.1904068243 9.1846997937
545 1 16.8579356528 12.2074577567 5.5545460881
546 1 30.8624484372 26.7475017523 33.0862109214
547 1 45.8212730411 9.5780820253 50.9717595339
548 1 34.0004354413 4.9467231377 21.4838344746
549 1 44.9618832656 50.5624594256 15.9260376081
550 1 45.8172350504 4.2967295185 33.9685411663
551 1 28.1751363164 21.7755646776 34.6651823572
552 1 55.9866514669 35.9479174264 49.2151165041
553 1 34.4533926672 45.8460276802 36.1085007116
554 1 53.9872608178 8.7741765839 51.9027797545
555 1 12.3781067581 25.5647801068 15.1441304382
556 1 52.5973726892 60.8676459668 48.5744804896
557 1 43.3463358264 54.7897090713 9.6146580287
558 1 3.7033777907 27.2021561048 51.964695613
559 1 47.1592525058 54.4366482258 3.8558979692
560 1 4.0856830529 46.8427676637 49.5993108437
561 1 54.2859550919 19.1229558689 46.5852725998
562 1 5.1437068616 50.0233583965 23.9505786646
563 1 6.2793478755 9.2627676153 13.6601980896
564 1 35.0805101909 25.6928839011 7.6254267303
565 1 44.1976496204 54.7461104753 15.7418115943
566 1 38.7871516348 47.3310719393 31.1391971092
567 1 48.5213428719 12.6015422476 51.7759049139
568 1 9.7671068108 44.8963390675 28.5260903841
569 1 61.2742540812 17.2302501065 17.0807859262
570 1 30.2984757258 41.216032346 3.5845508414
571 1 33.720760689 7.8925427461 37.5600120908
572 1 49.9661242664 46.5385138371 41.0011410109
573 1 11.1825103594 36.6847044386 55.6587549118
574 1 7.9574666151 18.6494575594 11.6567694497
575 1 48.9212210017 8.7046646209 34.6126884772
576 1 36.5367618201 51.4279354481 11.5761851991
577 1 48.2509730548 19.526052687 39.355454945
578 1 17.1152551518 4.8923273055 39.2506427497
579 1 16.175515212 46.0979046699 28.486354214
580 1 55.0960111541 42.8393046371 29.4987194662
581 1 14.2400301561 46.6546207023 44.0614698446
582 1 47.6083473058 56.5578808574 21.9995268616
583 1 10.3272756179 15.1722208088 3.4653475981
584 1 27.4234848165 17.2249246404 53.80362002
585 1 14.5103414515 3.6372062411 47.5186922063
586 1 56.3081106455 50.7796916249 17.0539245094
587 1 49.4901680496 60.2567389278 30.2707950064
588 1 23.8413773489 25.7587207071 31.6601564406
589 1 20.7144509282 19.7204029386 49.7607134314
590 1 34.1940834336 34.5663393657 48.9360854895
591 1 59.3006714601 14.3051061813 48.7321376946
592 1 30.6675714912 27.7438906061 11.7863948057
593 1 56.0725026621 12.6840577112 29.7146056685
594 1 9.745278252 13.7495020595 5.8079856046
595 1 24.8850516599 26.2778658688 19.0143982908
596 1 5.0108277043 21.7395738903 55.4685596942
597 1 10.0938914555 28.6755545644 32.3047719243
598 1 6.7528695935 41.8250666936 45.6348232063
599 1 17.5393612263 27.1967721171 24.3210204269
600 1 34.0710124974 28.3936559911 35.6147539267
601 1 42.7468990221 44.9583134476 16.1226702023
602 1 59.7766861986 14.8648653371 29.1299163088
603 1 44.0380026809 18.8990522066 3.5188006473
604 1 22.678728614 13.8616294554 57.987973329
605 1 10.8331948967 17.6772966503 56.527391101
606 1 60.3119248017 31.0422853306 58.3247651682
607 1 26.3390794681 6.6003447334 46.8478590434
608 1 3.669793997 20.1337410376 28.3230204133
609 1 20.5242557106 27.0648058969 43.2155985599
610 1 17.020157543 38.3183935754 32.6622218902
611 1 32.5086611976 53.8362165543 26.3849604067
612 1 15.4028544557 10.9643418144 54.7090662991
613 1 52.1846198062 35.9959051428 58.435136916
614 1 45.0734254455 30.4975662274 8.9671457256
615 1 8.1627194418 40.3370963543 37.2851361101
616 1 22.4030918525 61.2338156519 45.0236820809
617 1 58.9922625996 18.8999300306 49.5998375381
618 1 38.0994057279 31.4476644914 40.0565437779
619 1 6.4490312704 11.3336131446 31.3121284532
620 1 3.7873012842 29.0801729442 12.8191840981
621 1 52.6235318468 47.9930098182 25.1256339797
622 1 37.2304769307 37.1937838841 61.0015434
623 1 39.0043253125 47.9259440584 45.1187796897
624 1 26.8757811114 48.7838707938 31.9697942549
625 1 27.1032545916 34.9211558593 20.7047363417
626 1 60.2620058723 25.401153698 57.936649881
627 1 47.1841827097 17.052637034 38.6739708499
628 1 16.7286614264 26.7166608662 41.2195436423
629 1 11.7402212591 5.0652352408 26.2574418285
630 1 55.1555861484 59.224300765 55.8178751569
631 1 51.7742077874 38.6405550132 8.5011732946
632 1 27.0780317797 61.2104070097 51.3161006602
633 1 51.2983100921 37.8678942569 36.8931583971
634 1 8.0130562881 22.1634458783 37.5504730691
635 1 49.5653683125 59.7073380962 4.6036753389
636 1 19.2942486079 33.5233087923 61.5738847009
637 1 51.5205166279 17.7228264593 27.9528127375
638 1 60.4338838274 14.1371491737 5.4899674965
639 1 28.257359172 10.6283107561 47.09634178
640 1 30.0822969154 31.5633617053 5.4567974505
641 1 36.4477504582 11.3646881171 38.1677004414
642 1 38.0726028326 47.619876062 11.493435649
643 1 47.4470032396 9.4068478079 45.9983594191
644 1 34.5429307235 60.432011136 19.0429568343
645 1 22.8178929917 57.3214122433 8.0444999467
646 1 15.8921535986 54.7806967441 52.8752917933
647 1 7.9223243911 33.2399471789 14.1448740257
648 1 55.0642924439 43.4256326018 51.6740187989
649 1 31.8518146984 48.4942473686 13.5168201563
650 1 16.4749117454 58.1730771669 46.8719114232
651 1 55.2668942419 18.0152589215 25.1176165198
652 1 56.6361827655 45.1502057918 28.967635897
653 1 40.0718764385 4.5115447755 29.8210564688
654 1 9.0969759072 29.6049947016 14.9620697237
655 1 44.2250962534 30.8896024621 12.3724301624
656 1 48.0435724852 17.1823209116 23.7685764717
657 1 7.1036773572 45.3264143457 3.9585214565
658 1 24.7676573194 22.4737859519 14.70129745
659 1 58.0206283848 58.1936182504 30.25306296
660 1 47.1495379193 7.1519167166 5.9202124874
661 1 36.8622589894 23.441499219 45.0264325963
662 1 59.4831418258 44.1532317219 33.7741909147
663 1 23.0021190056 25.4698580628 34.4195671793
664 1 54.1416993345 42.6023506568 46.7473189252
665 1 52.5765389977 33.3971947326 49.2800754861
666 1 52.3307482549 51.2009886623 41.6164956919
667 1 3.8004270951 30.1335618417 61.3074943531
668 1 10.5859411138 48.6394394716 16.6834827471
669 1 26.6178763963 19.0723932018 10.5766947002
670 1 10.3086072257 6.9027960945 12.6924263008
671 1 27.0763931747 29.1595282412 44.4619331905
672 1 26.8109391726 27.2464569601 13.1539862027
673 1 6.9452652235 5.4332190957 35.3190442545
674 1 39.904504647 22.3275404599 25.0765928744
675 1 59.7048801887 6.3605173422 28.6960371263
676 1 27.2932157228 46.1698862446 42.9240439217
677 1 24.2885994575 28.2474104991 44.9450875648
678 1 24.4268860111 21.6324793524 46.1927096707
679 1 16.18382528 10.5221525639 33.2611905216
680 1 24.188995685 60.6753439714 30.1583164808
681 1 50.6910899143 5.7600095925 29.7843049006
682 1 16.2628879689 54.1234405937 29.8820359816
683 1 58.7794195207 60.4522596115 6.9960853857
684 1 56.4887668414 57.8849753035 32.7226747086
685 1 58.1589149384 47.3538953654 50.9380510892
686 1 26.3961380334 6.3967129551 12.6455504949
687 1 19.7213978059 9.7788696535 51.7574706082
688 1 7.1791058544 41.1733700957 25.5787082489
689 1 41.8686652896 33.234738756 50.8672984682
690 1 26.2558617452 4.5116793752 23.4001829656
691 1 60.5005984576 8.6874709733 22.6913107592
692 1 40.3306589777 16.7372055808 37.1014367907
693 1 5.4392643775 12.5699991023 3.4344522869
694 1 5.8555753742 49.589771822 52.8807928242
695 1 18.5555303828 37.8199650621 45.6155110765
696 1 6.3953903669 18.6337737692 14.2662478353
697 1 41.252081655 48.7318450866 22.0818667604
698 1 16.3809260471 43.0523232808 11.7492335863
699 1 52.5119311453 17.0034203639 11.1964385015
700 1 45.0130311487 24.3306179702 45.3974010531
701 1 43.1760379547 38.1936840342 10.7771897203
702 1 37.743886975 54.0695421951 58.3786050452
703 1 18.3821308659 15.2021838707 14.0183503148
704 1 47.5505279596 19.5596440885 19.6027159901
705 1 26.5032910929 42.4529449981 27.071009187
706 1 24.5993491822 40.3662401138 56.0581648687
707 1 43.6951831163 60.2479021654 28.4593172323
708 1 24.8597703263 12.3907474249 40.2790429217
709 1 30.153400666 43.6814890606 60.615183761
710 1 44.1362604563 60.1739893777 46.6453742886
711 1 21.0096924275 6.6576373851 58.2636686121
712 1 34.6779400672 26.3029131159 16.576856382
713 1 9.7324034988 12.5955730438 49.3057079493
714 1 31.0028417686 27.3632075629 3.86278011
715 1 8.7922422035 32.6356530813 55.5913380223
716 1 5.2071033167 39.0140984206 4.0479132088
717 1 57.4417911856 16.1867513603 17.7617433269
718 1 34.0633461671 20.2159638933 28.0696218619
719 1 54.7786484879 35.6680671093 8.3444816961
720 1 15.9793507907 21.3893220819 24.404355193
721 1 9.7864189406 33.6751138368 26.8603899291
722 1 58.9421095837 24.1518929872 32.8772887901
723 1 49.1984378465 21.3996218844 55.4440391415
724 1 34.6966084593 41.3804195356 27.7887766775
725 1 4.9791206985 29.7708449313 23.0951098366
726 1 45.8364886585 5.5792539099 25.3615930928
727 1 38.0893985334 11.3889745834 17.6532442704
728 1 24.4546837736 28.716695253 16.1255962826
729 1 23.0086149038 58.8300407093 4.3582883952
730 1 5.8283335668 11.218325582 58.1657034446
731 1 17.9728892792 47.2370277194 10.5176464003
732 1 38.1453451882 10.6893487906 41.5324001449
733 1 6.2740399659 60.682659172 29.7474362892
734 1 19.5237703444 3.672532223 4.4913138565
735 1 25.0664686367 5.3349788767 14.9381343871
736 1 34.3275712156 36.9667200551 14.893950575
737 1 36.3960758806 20.8299140557 37.1719553253
738 1 17.4903786426 47.1698449164 23.9045806827
739 1 13.6774034416 38.1049067588 46.0919354662
740 1 23.7764183668 42.3557406115 15.9039164413
741 1 21.658345902 4.1449127697 28.2248211594
742 1 47.6846594792 8.1864382485 49.4618435925
743 1 44.9553873674 36.6587793674 43.9583547759
744 1 50.2807364171 55.0764064163 26.2268935505
745 1 28.8282374329 52.9162569171 21.2776043371
746 1 6.5349468393 39.2734661758 46.9486917695
747 1 9.8419559441 9.4411414686 23.8272151204
748 1 43.1930677418 59.6413842468 31.2299641192
749 1 29.2613558346 42.4889357855 8.6717520701
750 1 9.320060267 10.2398443394 54.7774780558
751 1 10.5672727217 19.6786185123 6.6034873436
752 1 19.9188497026 60.2664535143 37.0128936017
753 1 17.354608518 37.4616957937 22.86886531
754 1 53.5175078912 39.2517546602 23.7757746292
755 1 5.6323622668 21.5399566942 24.7484037112
756 1 58.3879099804 44.6966633498 44.9069899997
757 1 52.1603333399 59.4368512359 31.0024321174
758 1 27.9754605988 9.2053579204 32.0438240858
759 1 23.1646920254 51.0571425562 43.0105973761
760 1 45.0891092358 32.4443459532 24.44543736
761 1 40.0929442165 50.1790258669 48.9025526096
762 1 20.1058847535 19.0570605412 34.6843774438
763 1 28.215691789 31.5925639864 8.6701076129
764 1 39.8691575973 31.6576985332 44.0905550825
765 1 22.8173662973 19.0956262792 24.5259045674
766 1 12.6163482138 47.1123766998 15.7363105634
767 1 34.349165688 45.1695764432 14.9915060912
768 1 4.5445685174 54.4267580745 59.0447564796
769 1 59.6423791141 27.5272436229 61.7689957334
770 1 42.6416771756 20.4720544386 55.555347235
771 1 23.0052791723 24.5418809657 12.1110726726
772 1 59.4367341927 6.1169913856 16.1090346683
773 1 49.4270232373 28.0441649635 36.6802567965
774 1 47.7789377855 32.9693432754 56.3940788838
775 1 34.4386452226 27.7750826218 14.1551738282
776 1 46.3211645946 23.1344363554 40.5885636927
777 1 12.7386583691 30.9332595798 50.9850439383
778 1 38.1822723212 5.2707221539 51.9147766836
779 1 9.0788459138 20.7669448083 29.3508938909
780 1 32.8903976297 37.9013100936 28.6384518665
781 1 26.3444634558 4.6157951634 43.5532097016
782 1 4.2254619074 38.4004408662 18.3663300324
783 1 49.9937464642 38.7189739645 26.3060732826
784 1 61.4075077767 49.7251908169 57.4211915805
785 1 4.19770511 36.8919294433 27.5888083518
786 1 13.990435509 47.0890265793 51.0204495096
787 1 8.5988751148 8.6774637787 19.9516218016
788 1 33.986390256 33.1291072582 24.7165679579
789 1 18.1434212374 20.9056410131 54.7159133269
790 1 6.4084933543 58.3649109895 28.0906896398
791 1 3.9378633298 34.4710076704 53.5231259653
792 1 8.0804556211 8.6596029848 38.6976135785
793 1 22.2522231538 16.6028399748 58.132580216
794 1 27.338277359 46.6396976929 24.1098159529
795 1 12.2832432357 38.1783513736 4.3693138657
796 1 35.5125752037 8.8820611634 6.4160894587
797 1 31.8494738342 47.8883146661 6.0638888808
798 1 22.3865887598 35.2688327171 60.1169308125
799 1 54.641005672 46.5794204393 58.3008883532
800 1 5.6475837364 53.4600981962 23.8118239381
801 1 57.4969770595 6.895744241 57.1681441587
802 1 20.3713972772 27.5442148884 8.3180065218
803 1 4.3102246007 46.2834766807 55.3485318815
804 1 12.0404956165 61.2814522387 50.4039829181
805 1 38.4912078762 46.5721637602 47.4237116407
806 1 26.8974341054 37.9154723221 54.574115477
807 1 33.4911219093 4.45440428 42.8736568195
808 1 44.5240246138 48.6765421694 26.2143699269
809 1 45.8042432539 48.1748949678 37.0185701975
810 1 21.9623656421 47.6861225194 52.1257470711
811 1 10.7941024643 47.8378690422 30.250546531
812 1 50.6830724544 17.4228447099 54.7329431141
813 1 10.2266184566 12.1588848242 53.0022836771
814 1 40.1813703622 32.4105204653 38.0207526902
815 1 27.2473933058 33.2428732592 22.8110459639
816 1 9.9320792165 43.8157961451 6.6491107871
817 1 19.2350832649 25.8706140167 15.3174714334
818 1 39.5575300485 10.0387641032 19.8354564148
819 1 31.5679849121 28.1177851431 8.0433763319
820 1 54.6343927306 14.7006537123 50.8753159282
821 1 41.1350969657 4.0092011668 61.2112263122
822 1 40.5899096897 46.5327201982 9.0332166181
823 1 48.8302784269 39.5022271314 32.3167103318
824 1 20.9158822941 10.795331418 28.6440699406
825 1 21.8694918543 56.510478357 59.4830247826
826 1 56.1983241137 11.8838918004 8.7796190932
827 1 11.9761803721 22.1239437947 44.7795299431
828 1 36.8677014987 45.5675818816 37.4242419662
829 1 13.5190439773 22.3468525897 20.1337410376
830 1 28.9604962611 10.0031829671 9.5348345589
831 1 33.2190549657 54.3831594785 16.204893058
832 1 52.3989259252 15.5110609041 23.6831934494
833 1 4.5582099037 57.5703046311 20.1219196734
834 1 15.0920462093 33.1374173262 19.3929745563
835 1 26.9544926706 31.16073306 59.314775167
836 1 60.5017688897 10.4613486159 39.2814836357
837 1 25.4405387385 28.7818297998 58.8490017095
838 1 19.9841598142 52.2405079394 34.315047592
839 1 61.6729032573 7.9116734589 43.501827732
840 1 27.057373653 54.9725890883 33.4106547019
841 1 31.3625155555 54.7627891328 45.9317618322
842 1 36.341299658 61.0106142488 21.3794904522
843 1 6.5826946172 51.5021993654 22.0247496735
844 1 6.4396034398 47.0276374152 28.8179961519
845 1 30.1508257153 38.0023183845 38.6101823
846 1 34.2294304833 12.9476975436 12.2135440037
847 1 58.8600622929 7.2351578481 20.6747147581
848 1 46.044650009 54.9387636003 36.5604630703
849 1 16.9670199253 49.3469656811 34.5987018135
850 1 44.9767477533 32.7134282949 41.5502492346
851 1 4.2478171607 8.5074819237 20.8972724235
852 1 56.7496561584 34.0349631885 54.0230760404
853 1 53.7243817663 50.3071881828 17.7278007957
854 1 14.83981809 26.7716126537 8.1419676805
855 1 11.007413716 47.8311975792 4.0270268478
856 1 25.7829486518 51.9899769466 17.432617818
857 1 28.393363383 49.9701037356 55.8881010834
858 1 61.1630045093 52.3098560418 58.515662645
859 1 17.1180641889 50.3993011897 43.4311336327
860 1 46.1295648585 27.5540465181 41.7890759063
861 1 34.7400900121 6.5643949111 11.3991573427
862 1 44.1456239132 18.9994167598 17.4190993272
863 1 29.4317707496 7.3620209843 33.9350082864
864 1 22.0281439266 55.2551899208 45.6438940551
865 1 39.4635443502 8.5187882978 45.1785302488
866 1 5.8225165193 51.2850842093 32.5224137749
867 1 26.3644193232 5.9642265868 30.8522071562
868 1 56.8880597552 57.4915930718 25.3007891448
869 1 30.7823323594 9.0763470413 23.4415577407
870 1 57.7788756328 33.2062972558 5.7612619549
871 1 32.3348520295 7.2347423447 21.6457052352
872 1 53.794432128 37.7019269839 6.5861766527
873 1 24.4625256688 4.5906308731 21.1669985029
874 1 10.2620240278 25.7988080069 17.0030692342
875 1 45.7964598804 35.0990030182 35.5039140061
876 1 25.2168691626 10.2115198824 47.0830573755
877 1 22.1446019214 33.6764598337 6.1768706922
878 1 57.0383432379 52.6044538034 4.0145968588
879 1 54.3221799656 36.8322959274 60.3057215115
880 1 19.4766019304 36.5006539895 55.280822384
881 1 20.109513093 47.5567312498 39.1665472027
882 1 57.231874187 58.701351699 41.5039586447
883 1 24.4257741006 30.6318147902 7.7346924198
884 1 49.5103580034 42.9566404559 15.7397048165
885 1 43.3509590333 22.388637016 53.558765623
886 1 32.4654722528 28.7719396485 46.4939788954
887 1 46.7034862428 23.0820595186 31.4407004203
888 1 25.1012304703 40.1265941396 59.8849511686
889 1 4.5440301187 55.2773110877 8.6542072928
890 1 38.2862066924 4.4754545015 20.7354601845
891 1 30.4223659645 45.3660334726 55.4059415764
892 1 35.1111169905 39.0624957883 61.2678752262
893 1 57.6930829593 43.7969521881 35.8012622832
894 1 35.1970267072 39.2854045833 29.6496466865
895 1 42.8002122047 35.4537024686 52.1781824296
896 1 35.7249501097 5.3254222985 15.9559421485
897 1 40.372736012 21.7087330042 57.1326215442
898 1 11.8359626055 8.651591377 40.3435922525
899 1 14.1257374607 61.1232098176 58.1438163642
900 1 16.7443452167 56.0407254303 13.3835664608
901 1 40.1000838523 11.8086330158 15.3825474586
902 1 8.8778827208 46.4597437562 52.1275027193
903 1 8.2751745588 29.9756705503 46.3315814404
904 1 60.5885564305 46.8105807807 39.9114101965
905 1 14.8696641088 6.1385975623 45.7244783058
906 1 18.1480444442 55.9521237197 60.9316686031
907 1 46.3649972771 35.8682109998 5.9136990327
908 1 16.4112402387 12.9294973244 41.7959229341
909 1 19.9348846224 61.7576425419 30.2789295096
910 1 46.1855700348 26.9379310563 56.3098662936
911 1 21.626451627 25.4909258408 51.0278232319
912 1 50.9133549717 33.2002695304 20.487270056
913 1 27.452628576 24.6295463306 30.092889326
914 1 51.245523604 26.128635775 46.5245271734
915 1 6.4050230231 12.4278501227 22.7534021825
916 1 4.1859890846 18.9286056173 25.7021888363
917 1 37.5533991494 5.2905317174 54.7420139629
918 1 26.8531917717 4.9193701393 6.5085009258
919 1 20.2966651871 26.0076716166 57.0684233431
920 1 57.890827464 59.2461293239 51.4841747109
921 1 36.8819807704 40.7833821172 26.0153379469
922 1 10.6211711203 9.0046171095 37.7238140643
923 1 10.743715362 40.9069797478 19.3563985529
924 1 18.4381360423 55.3640986285 38.2122939048
925 1 58.0436858973 30.2827334139 18.59479838
926 1 35.3634621531 18.2027621453 20.4708840065
927 1 41.6177831672 12.3952535885 59.6398626851
928 1 51.0074577132 12.3125040384 20.5802023654
929 1 33.2432243888 59.9569327433 61.3061483562
930 1 6.6210906425 35.2820585999 12.5275124167
931 1 37.1346770626 12.1461271142 55.94229209
932 1 39.4666459953 34.3571246263 51.7024017775
933 1 28.8877539056 12.4839723423 37.4202039754
934 1 37.3731526047 17.1095200345 28.6554231321
935 1 19.41971893 59.6784284231 13.1933712432
936 1 52.2097255749 40.3386764376 58.8916054382
937 1 42.0637178005 5.0571358507 32.1418477748
938 1 21.4487215114 53.5974484042 20.0447296758
939 1 12.4339948913 25.2065108384 37.7362206447
940 1 41.1753598303 27.3711665012 7.7198396363
941 1 53.9327772032 32.4499055057 28.3563777284
942 1 29.4943303458 51.9705477736 39.5146922333
943 1 25.1514420077 34.4141831916 53.6811342999
944 1 55.832095907 9.0588607856 30.0767373629
945 1 39.5735649684 51.502257887 59.9977808238
946 1 57.5200345721 44.6879436306 52.2092574021
947 1 12.1288632406 34.5230333777 32.5400872997
948 1 23.762899876 15.1213655337 43.8212386544
949 1 21.6672997076 37.4976280594 32.5584630838
950 1 27.0333212731 29.7772823079 6.6554896421
951 1 49.7015480883 31.3674313703 31.9199923687
952 1 52.8134344564 16.0732779674 16.9941154286
953 1 60.094458516 5.0012769783 50.5238936876
954 1 24.6447034264 20.4075051078 53.1506359468
955 1 45.1668259277 39.2199774284 22.3853598061
956 1 7.4217832478 41.3296813037 8.2838181999
957 1 47.012538841 49.8936159973 6.441253749
958 1 28.669526839 52.8459139474 53.2747602719
959 1 20.892005479 40.2390726652 43.047992682
960 1 20.8631543276 49.6672544275 30.6544041299
961 1 55.9838424299 16.0297964145 61.3723362919
962 1 12.0544237586 42.8972995481 43.8272663797
963 1 9.9038132811 44.6532403186 32.9215311238
964 1 31.9031966679 36.4568798287 16.3843203002
965 1 57.9216683501 24.5746530647 22.8429987604
966 1 23.8965632228 32.7713061627 21.3654452669
967 1 24.5831972191 59.3723019051 45.7347781083
968 1 20.8613401578 58.3979171749 34.7989627472
969 1 28.0139092935 39.3691490007 3.5060300625
970 1 36.8856676316 12.1585336946 5.7156092505
971 1 33.7514845318 9.2013199296 17.0564409384
972 1 15.7105025354 33.0810610202 12.2113201827
973 1 23.1766889545 47.2271375681 19.0971478409
974 1 18.7095007266 30.5832418578 6.4242473705
975 1 35.1572320156 31.9936710699 47.5661532282
976 1 13.7199486487 36.2275921786 17.9440966494
977 1 54.3951564076 5.3823813771 55.8780938889
978 1 51.1305286494 23.0948172286 31.570676906
979 1 54.7389708394 16.1782657275 56.7207464853
980 1 46.7098065762 31.5260834426 13.7077176332
981 1 47.0618140328 3.7371775292 10.5576751784
982 1 29.7456221194 35.9600313987 55.2281529391
983 1 33.1523988572 58.949483306 50.7729031187
984 1 25.4658785936 16.211857129 37.2424738598
985 1 33.5187441071 31.262326567 26.779571592
986 1 13.4124761339 55.7348915204 53.4934555113
987 1 39.5964469161 17.508403297 52.0331073698
988 1 44.4801919314 33.7269639792 58.5826113616
989 1 8.2398041005 56.8544098321 5.6253747871
990 1 35.5545937163 14.8164679694 8.706707025
991 1 54.6118033909 36.4878377579 32.0495592031
992 1 48.8674396463 37.0969891487 49.0973125124
993 1 4.8383411245 10.9913787961 38.7773200051
994 1 61.034022891 61.4692480704 28.1913468011
995 1 12.792205638 40.23924823 56.0600960817
996 1 17.8073901791 60.0846268863 33.0473525755
997 1 50.1970505214 44.2880069792 48.4744085443
998 1 23.6829008414 40.4307309229 12.1639176823
999 1 52.6444825815 11.8819020658 18.3016051368
1000 1 37.9953543135 51.2306005947 42.7161166577
1001 1 53.4354606004 52.3181075881 60.8472804481
1002 1 47.5191018575 35.6770794365 31.4011983367
1003 1 53.1483536042 50.2976491611 49.635594239
1004 1 17.2958528261 56.5309023973 28.5448758195
1005 1 33.7146159204 15.1979117935 3.8667654313
1006 1 43.0640861235 31.1166662911 17.7775441603
1007 1 59.023337572 29.6444967853 7.7203780351
1008 1 53.8260923165 35.2103696333 38.1558790771
1009 1 23.4567733581 4.7823300959 10.3868506122
1010 1 50.0943451039 34.9567369954 8.4617355847
1011 1 56.6477115217 15.5695825095 54.7039749194
1012 1 32.152498707 25.8262546398 46.0912917285
1013 1 41.8223161781 20.4542638705 61.1630630309
1014 1 3.6686358545 29.8467474536 35.2045174727
1015 1 22.7807317723 53.7064741551 24.0038918471
1016 1 23.3005206716 20.1843622263 30.848988468
1017 1 34.8217861733 52.7505237306 38.1914016916
1018 1 48.4485419947 59.7648648343 46.3862991414
1019 1 22.9447093107 45.0443987292 52.7430914867
1020 1 52.621717677 9.0840426324 9.9264026208
1021 1 16.7492025099 54.4662601582 26.3559336904
1022 1 61.5888662319 58.440169774 40.8458246702
1023 1 44.795272255 40.4833418462 51.1180635474
1024 1 58.6868968625 19.1158747546 20.8848073216
1025 1 38.532465608 43.100193954 48.138084878
1026 1 52.333557292 23.9173383927 17.7763152066
1027 1 9.9666069637 55.9967171831 42.2687775059
1028 1 15.0281406162 16.2524126016 15.9682316856
1029 1 31.1998254924 58.7148116683 54.0585986549
1030 1 40.5595369765 7.5972076122 32.4823264751
1031 1 11.2281572117 24.0941906843 7.2539140227
1032 1 43.384960086 21.5906364045 18.886821191
1033 1 23.8157448857 9.1449636236 52.4442216478
1034 1 51.0609464606 54.8803590381 51.2070163877
1035 1 46.5260487352 22.5034564058 55.9976535287
1036 1 52.82268087 48.4082206086 31.5470341774
1037 1 52.8254899071 26.3885302246 20.2032061833
1038 1 60.1680786956 30.7146228619 33.0892540449
1039 1 6.0637776898 18.5939790775 27.8968660827
1040 1 40.230352946 12.8589787898 50.8567645793
1041 1 34.3817037006 44.5916170681 42.3337364879
1042 1 61.9504127102 3.2002746886 24.2694043709
1043 1 31.8473670564 12.7214530171 27.1177679498
1044 1 58.0855288452 20.1781589362 6.3644382898
1045 1 23.3980761878 26.4275641355 48.8877466434
1046 1 56.0097089795 30.6628312411 55.0728951199
1047 1 11.8377182537 25.0874193714 57.6138447056
1048 1 29.7423449095 17.5774002698 20.8240618952
1049 1 32.8158411044 12.1599382131 32.0749575798
1050 1 30.1915567527 7.7687168812 53.9746786727
1051 1 45.3137151573 52.396585061 52.5798162076
1052 1 17.9202783559 53.4156217761 18.242264229
1053 1 58.6425374856 34.1398339054 9.522954673
1054 1 32.1304945834 10.3186729419 37.8839876984
1055 1 36.7908626308 23.7108741688 6.3592942406
1056 1 25.9850822769 7.1273317901 21.8023675729
1057 1 18.3476031187 11.194741375 53.7092246705
1058 1 20.0480654073 50.3895280816 47.5192189007
1059 1 47.5296357465 11.4130854848 54.2730803387
1060 1 46.6713578814 61.3158629427 25.6772586324
1061 1 41.9013203455 10.303223238 39.5054458197
1062 1 8.0732164985 14.1226358156 56.4095285877
1063 1 38.1102322249 36.0050345132 18.7996825206
1064 1 38.2067343523 18.8431640734 9.7036693905
1065 1 17.9320411986 4.850390723 10.6273158888
1066 1 58.2941583685 56.9485710952 55.095425938
1067 1 54.6847798328 34.0745237937 50.9606404289
1068 1 4.5565595944 27.2266181358 41.3598199305
1069 1 54.2343390359 31.9510673412 12.9555394388
1070 1 42.1467599586 48.7039888024 34.9148355259
1071 1 25.3250170894 28.1960870512 56.0936874832
1072 1 44.9800249633 57.4262244386 54.7664174724
1073 1 54.6586791968 18.3809604338 5.9336080828
1074 1 43.2175297729 46.0318337774 51.7436595094
1075 1 6.3714608824 30.5213259992 15.9584000559
1076 1 42.5745528942 32.1417892532 26.1213790959
1077 1 46.1817661305 54.461695473 32.8950793582
1078 1 8.6064536627 42.3730044851 23.5093257597
1079 1 54.1755248225 47.7215866122 52.0461576878
1080 1 14.8182236176 49.2999728319 46.7449195394
1081 1 51.9342058566 55.9300610745 18.350821807
1082 1 15.3262496742 47.3706910662 25.9218789431
1083 1 50.4077868225 15.1882557286 10.9872237622
1084 1 55.2364630071 4.0166919323 50.721989322
1085 1 25.1367530848 6.2815775486 28.2272205453
1086 1 34.2296645697 61.4344862368 23.4309068085
1087 1 8.8245987991 30.6384277317 58.9916188619
1088 1 15.1093686045 44.4523941688 39.9674153728
1089 1 37.8913028991 47.5037691969 58.3470618998
1090 1 20.5485421768 13.9934201108 47.8186739556
1091 1 52.5203582565 38.4683844501 48.7178584229
1092 1 22.5493958661 42.9208252334 29.6625799613
1093 1 19.0191970625 17.2490940634 26.709579752
1094 1 27.5958309444 23.54724776 48.1363877514
1095 1 16.7640084761 42.1728605946 7.0074093163
1096 1 17.5978828317 46.2040043406 39.4638369582
1097 1 5.3351310329 4.6146774007 44.8943493329
1098 1 30.9135963203 53.1774973637 11.1802280168
1099 1 22.4552346029 34.4352509695 57.236029221
1100 1 57.8681210811 54.168326665 17.4472482194
1101 1 53.762537853 27.5950701635 18.0499622336
1102 1 19.0788305784 47.4906603573 58.2119940345
1103 1 28.7982743709 53.2359604475 50.4038658749
1104 1 35.8756432437 34.259276502 32.6526243469
1105 1 30.8252872178 37.7881878303 24.1857769967
1106 1 51.964695613 20.8646173677 30.2332826574
1107 1 26.1234273521 31.2750257554 29.1843999235
1108 1 32.4854866418 16.0405058683 19.2378923019
1109 1 61.2564635132 34.0377722255 13.0506955692
1110 1 55.0505398667 40.9018883681 36.9493976599
1111 1 4.7122621778 57.5801947824 43.1930677418
1112 1 12.8112251598 44.6002782657 47.2084691759
1113 1 61.1569182623 54.0315616731 38.3893217612
1114 1 19.422527967 14.1037918587 60.3212882586
1115 1 30.1255443818 60.1439677942 29.3544051872
1116 1 42.2176296227 54.1480196679 38.1340505183
1117 1 10.2587468179 40.6409990512 50.8647820392
1118 1 23.0645615586 33.5841712619 41.8536837586
1119 1 28.3655070989 57.4956895842 33.1121945143
1120 1 50.8568816225 3.6089063631 17.4268241791
1121 1 4.0036240578 23.9268188928 58.4736441323
1122 1 49.1293823522 7.0338669341 45.9464507551
1123 1 32.6978030263 12.3672802611 55.3064548472
1124 1 53.9527330707 37.8532053339 41.5919751392
1125 1 8.7545835504 53.0667744862 12.8587447034
1126 1 37.2567531315 49.2468352142 36.4238151216
1127 1 50.4555989741 19.0614496616 11.1918738163
1128 1 42.9648920023 9.1317962624 31.8817192388
1129 1 41.3024687572 36.9450670611 29.7081682919
1130 1 33.0785445911 26.9706446337 5.8810732376
1131 1 50.4519706346 8.6883078322 44.0237234091
1132 1 43.4295535493 5.8035672234 61.4497018542
1133 1 38.3309757206 29.3678066348 36.0682963687
1134 1 33.3160837875 6.755146084 32.6960473781
1135 1 48.5596745234 26.3142663074 52.0912778455
1136 1 43.8794091302 46.0824549661 12.3313479954
1137 1 34.0178748797 16.363428087 27.8925354839
1138 1 17.1158988895 7.8253540909 58.1527701698
1139 1 19.9768446135 24.7546070014 54.4322005838
1140 1 50.4953351442 10.7496260442 50.6380108182
1141 1 58.8852265832 9.0900001318 10.0748134121
1142 1 59.3728871212 60.5781395848 24.8471296596
1143 1 49.3903887123 9.3397820481 3.9346563458
1144 1 36.5557813418 46.008015484 50.9141742742
1145 1 17.1640036491 27.072355184 28.2433139867
1146 1 7.0981178047 13.791988745 49.1428423214
1147 1 25.6924157282 59.755267291 49.290024159
1148 1 12.6849355353 59.9916945769 19.8980745326
1149 1 45.4175324854 5.8120177433 22.5053876188
1150 1 30.3286728742 9.4077256319 29.1412109787
1151 1 8.0103642943 10.7337666891 59.7179890283
1152 1 54.1560371279 56.7520555442 12.1877359757
1153 1 53.3634790257 5.9764576023 53.103584576
1154 1 29.3941998789 48.3399844167 33.6143098887
1155 1 25.2904893422 29.5024648489 22.3688567134
1156 1 54.3064961754 12.2392935101 4.1167989905
1157 1 29.711269937 35.2987372575 37.4406280157
1158 1 35.9373250158 19.7360867288 54.1145453096
1159 1 16.0185602663 36.4335297081 45.59303878
1160 1 14.9920327857 45.1095917976 59.5634334684
1161 1 44.1573282343 55.0191137646 50.4110640324
1162 1 53.3673414517 42.7892101429 4.1931989464
1163 1 60.0426083736 4.1854448336 18.2455414389
1164 1 7.3644437788 19.571582496 19.2912640061
1165 1 15.4470382678 48.5714958877 5.1319206102
1166 1 19.1948204003 57.9932402735 38.5504317409
1167 1 10.4463085633 29.546941269 44.5372504967
1168 1 43.2998696717 12.5767876085 34.7035140088
1169 1 59.8647026931 21.7598223658 49.5807594947
1170 1 7.4284371543 36.896728215 48.0439236149
1171 1 53.7565686493 32.9362200468 32.6350678653
1172 1 52.2714658686 11.3854047654 32.001220357
1173 1 5.8006060302 13.7588655163 9.9321377381
1174 1 48.8023050995 37.9481273779 20.3886611508
1175 1 23.769863947 45.8679732822 15.3589632516
1176 1 41.3467696125 29.4293713637 19.3287763551
1177 1 4.4275077501 43.2137258685 33.4104791371
1178 1 4.8876280206 54.5209778593 34.0144806266
1179 1 6.1092372728 8.7843827518 7.6836908407
1180 1 9.3281947702 58.6620251802 58.7039851713
1181 1 38.7704144556 51.1246179673 30.1518791042
1182 1 54.9279371033 54.0910781459 59.0715008533
1183 1 41.9041293825 39.1540235791 43.5524489207
1184 1 17.9781562237 26.3114572703 37.9631089089
1185 1 7.9016721165 50.7573363717 45.2394512401
1186 1 11.2907753295 43.5472404978 35.1336478086
1187 1 19.2487187989 44.6342207968 8.5427763039
1188 1 45.8868172392 30.5290508511 36.0336515783
1189 1 4.2016377619 4.8795988563 21.0669265576
1190 1 50.6703147444 39.8012140135 41.4319185484
1191 1 38.472246876 54.9068693254 44.6913964053
1192 1 16.7644181274 59.7547405965 14.1801040321
1193 1 60.3750110924 61.0047035666 59.5826870766
1194 1 26.6172326586 52.0119810702 59.139620002
1195 1 32.0627850859 20.3194300916 24.650555587
1196 1 48.8172866305 28.0576249328 22.4350446491
1197 1 47.3792937422 25.8981776929 24.0442717548
1198 1 31.22598465 34.0966449606 51.5572096745
1199 1 58.2531347231 18.9201785061 52.4508345892
1200 1 21.8061129557 45.2398023697 38.683743958
1201 1 26.7757676877 40.1343189915 15.4925095552
1202 1 46.703603286 30.488436857 41.2552418217
1203 1 19.0903593347 38.6186094112 26.6852932857
1204 1 35.1289075585 34.7190222342 44.1932605
1205 1 45.3562018429 35.9691022475 51.623280567
1206 1 40.3993048208 36.6940093738 9.006384462
1207 1 5.8284096449 12.6029467661 7.1047014853
1208 1 24.2565881393 25.0581000471 58.5421729323
1209 1 37.5020171798 37.82353488 43.8177273581
1210 1 17.0817222719 32.9095927163 37.6826733757
1211 1 44.0036504985 36.326610735 29.3201115264
1212 1 60.5410368869 37.1980559613 33.9025287954
1213 1 39.6822395896 42.058743464 41.2933393868
1214 1 18.084607024 61.4054595205 26.6328579273
1215 1 14.2509151747 53.032246739 44.5072289131
1216 1 9.0969173856 21.222594028 57.6518837491
1217 1 56.8312937979 47.6973586676 12.2452627138
1218 1 11.824024198 18.881788333 9.7861263326
1219 1 22.3213371698 31.6414295269 50.3277292663
1220 1 27.2138604259 33.8402618073 26.938867402
1221 1 23.0554321881 39.1357063166 20.7979612591
1222 1 9.3425325635 18.2273997412 51.649088595
1223 1 55.2780133469 25.72419296 4.2491221925
1224 1 16.5297464896 8.55305855 45.3825365653
1225 1 50.5161103141 35.6251707725 47.0995019467
1226 1 49.7799670396 15.698095955 38.4927294379
1227 1 24.7827558936 27.6896995995 53.4672963537
1228 1 14.7381660614 10.3532592107 59.1193715265
1229 1 52.6248193221 56.64618996 49.4229267249
1230 1 32.6015349854 33.4055633222 59.7974028469
1231 1 38.5508413921 4.7586639587 38.435612351
1232 1 11.5696307793 11.6844501691 60.3331096229
1233 1 36.3799824392 60.3070675085 15.7289368411
1234 1 7.5393765617 47.8136410976 48.8494735134
1235 1 30.2828504571 4.035126238 31.8771545535
1236 1 60.2627081316 36.732692155 55.0847164842
1237 1 48.8380032788 54.942216375 23.853959494
1238 1 35.5067815647 57.2633002891 50.7482655228
1239 1 57.9760349215 15.5319531173 8.5872644283
1240 1 8.2259930016 44.58658421 37.1867612914
1241 1 4.1252319538 24.5005061907 55.5013903148
1242 1 16.6425176233 12.897076355 17.4302769538
1243 1 51.061473155 21.4599576596 14.351572336
1244 1 36.8162610075 21.390785122 34.2977837184
1245 1 11.8968250752 16.873034227 41.546328287
1246 1 32.2782031155 8.2254838636 42.5668865639
1247 1 16.2500132157 26.6161207481 16.9617529808
1248 1 24.2012267006 54.8559555287 60.5182719824
1249 1 31.7182098732 53.9231211383 39.8310015106
1250 1 3.8356377894 9.5736343833 29.9740319454
1251 1 34.2474551377 50.6597808554 56.0847336776
1252 1 6.1953752239 47.2552279387 51.4081551455
1253 1 41.4389411411 37.3060868449 49.2751596713
1254 1 55.2298500657 54.7849688213 10.2396687746
1255 1 31.0522925252 21.9957814788 35.4391891105
1256 1 39.3930843373 31.6969080088 12.7029601898
1257 1 30.2041974195 40.4575923398 40.0750951268
1258 1 16.4543121402 7.2683044854 10.1476142892
1259 1 5.8578635689 3.8139572903 17.4768601517
1260 1 33.9941151079 13.2059533883 36.6093286108
1261 1 48.6025123386 25.7037103981 56.9164427338
1262 1 29.1016503734 34.6824462308 3.227749529
1263 1 15.5684120774 37.5947154028 43.0960974417
1264 1 48.2795901199 25.1299060569 5.7112142779
1265 1 50.4667766008 44.9788545311 37.2092335879
1266 1 47.4672517151 34.2833288819 8.2068915496
1267 1 29.3353271438 32.4854866418 47.712281677
1268 1 26.6240796865 41.6550029083 57.7886487409
1269 1 48.0598414915 24.242835562 34.8609371273
1270 1 3.3960065183 15.7823085452 48.7846900962
1271 1 26.928626121 53.8531878198 60.9729848565
1272 1 23.9249462014 61.1733628335 54.4993248652
1273 1 40.1539822509 28.7713544324 41.9710780991
1274 1 42.6746248394 27.3632660845 39.3130853027
1275 1 40.7500248021 61.4131258509 13.1586094096
1276 1 50.5563731787 3.4115200106 28.2505121442
1277 1 6.1551065072 59.7529264268 20.3929917496
1278 1 36.6285236974 34.2952087678 61.3069676586
1279 1 38.0483163664 36.2270069626 38.2809397479
1280 1 41.4602430054 33.9471222587 23.8828106455
1281 1 5.875946745 41.6760121646 36.4350512698
1282 1 9.9328399974 18.2399818863 18.8156003972
1283 1 23.0938223613 57.0825855716 50.709231612
1284 1 47.8698803604 30.3331790378 11.4400639449
1285 1 36.3761200132 27.0231385138 29.6807801806
1286 1 29.6282277789 40.2457441282 23.2427013254
1287 1 8.4306372036 31.8875128777 25.071911146
1288 1 26.2582026094 28.4370790223 39.6446101974
1289 1 9.1735806887 17.1728404116 29.3483189402
1290 1 60.2555099741 5.6204531201 46.19815218
1291 1 6.7257799424 55.7266984957 58.0040082489
1292 1 50.7844903966 22.6929493642 51.57745815
1293 1 11.8325683524 38.969095306 15.0709784314
1294 1 29.9514426057 47.874386524 27.1264291474
1295 1 36.0711054058 56.9868442251 21.3925992918
1296 1 45.4397706954 33.9922424165 44.1483159071
1297 1 49.3144276685 11.0798049419 8.8205725126
1298 1 56.5908870429 13.083350625 51.7752611763
1299 1 46.2382394797 60.7606099505 20.3718654501
1300 1 26.8943909819 15.821049848 18.8669238452
1301 1 9.2733015043 8.368282433 58.455151305
1302 1 14.2358166005 36.557829598 52.2636824951
1303 1 5.547470826 45.0777560443 52.854575145
1304 1 44.6833204238 52.5764804761 8.5155169401
1305 1 38.8222060764 60.6930760178 37.0003114566
1306 1 14.4705467598 23.190265967 37.3287932278
1307 1 19.8494430785 14.0785690467 41.7525584245
1308 1 32.2433242386 13.2287182929 57.9137094117
1309 1 15.0241611471 53.1997940954 12.910419281
1310 1 5.5031055969 60.196637239 46.8737841146
1311 1 9.6887463812 27.7548926679 10.6207029474
1312 1 7.6551440016 12.1363540061 51.4840576677
1313 1 17.8038788828 28.4060040498 33.636079926
1314 1 14.7575952344 21.7683665202 39.6577775586
1315 1 55.4406448884 18.4082900235 31.7234768177
1316 1 5.8812488025 23.3818657031 61.6089391426
1317 1 36.6711274261 16.678157281 18.2550804605
1318 1 34.0483061145 21.2321915713 33.5010705823
1319 1 14.1952611279 18.2247077473 18.1529602591
1320 1 47.4917137462 51.3702331452 54.3571173641
1321 1 50.4402663135 10.816691804 16.7913380658
1322 1 8.2681285575 29.1022355895 40.8628544573
1323 1 48.4144824204 51.9713085544 23.7643043945
1324 1 30.49510832 12.7547518106 24.4524599526
1325 1 18.1926379076 39.9002910914 17.0451462685
1326 1 29.9038060189 24.0334452578 12.1632739446
1327 1 27.3590525289 35.6254048589 24.6588071333
1328 1 58.8295725365 26.1337856763 27.0738767457
1329 1 10.808089128 43.2395338965 39.960860953
1330 1 37.4618713585 54.643229493 20.6813276995
1331 1 31.1732566836 28.531591415 42.9225808816
1332 1 14.1026214266 11.6164480636 28.4678028651
1333 1 32.7224991438 11.8346751302 51.0141876978
1334 1 37.3731526047 54.6048393198 8.7362604357
1335 1 19.0804691833 20.4278121049 52.0239779993
1336 1 49.0012785579 14.8967010905 41.1410076479
1337 1 49.594512072 9.0409473222 13.2267285583
1338 1 11.3586603917 33.3448764174 48.2082522829
1339 1 14.5017387755 21.2067931946 8.7151107275
1340 1 51.234697107 10.7306065224 54.939699946
1341 1 25.3604226607 4.4221471711 52.6911828227
1342 1 13.3893015781 27.7959163133 46.9483406399
1343 1 54.6622490147 26.1796666149 22.2624059131
1344 1 30.1199848293 58.5455086638 59.4088779085
1345 1 35.4725464256 5.3756513925 29.3195263104
1346 1 61.594484306 36.6730001175 23.6763464216
1347 1 58.1383738549 6.614255319 34.4775035686
1348 1 5.5062833201 22.5337705974 34.7553056296
1349 1 41.2758414268 39.3058871452 7.860496315
1350 1 37.4522738152 60.2081659953 11.5595065415
1351 1 41.4200386625 17.8464826115 22.8480316185
1352 1 52.7146499864 58.8485920583 36.7199929666
1353 1 48.2608046846 38.6024574481 40.1411074977
1354 1 3.368531795 48.2313097954 53.4669452241
1355 1 41.635164084 29.98076193 22.1570085017
1356 1 10.2222878578 41.3553722885 42.2034088726
1357 1 18.0133277086 28.6786562094 39.7973515875
1358 1 39.7191082011 51.649381203 33.6185234443
1359 1 41.0376584927 34.2335855173 57.9199127019
1360 1 14.716571589 25.6453643575 33.8165605571
1361 1 12.0835089964 58.830391839 44.2140356699
1362 1 55.8305158237 5.0477958024 38.0002116067
1363 1 20.5099179173 36.9351769097 7.5787850108
1364 1 44.0782655454 8.3165083687 48.0139020313
1365 1 40.6745319311 59.2173952156 38.3186861834
1366 1 9.1387603334 24.4481878754 9.2134924236
1367 1 4.9439550658 28.4701437293 43.8849686827
1368 1 42.7478938894 26.9525614577 44.2218190435
1369 1 52.7508748602 8.652902261 32.7660977398
1370 1 7.666824914 31.5755927208 48.8564375845
1371 1 41.9929651795 53.2846504232 43.341946706
1372 1 41.2277366671 43.3595617092 26.5368239728
1373 1 19.0423716182 27.1064147583 51.083418757
1374 1 60.0168588672 59.5002301346 34.4370651393
1375 1 23.6389511157 17.2314790602 13.9615258359
1376 1 13.0051072386 47.3548902327 20.7067260763
1377 1 51.312121191 29.0679419287 47.1414619377
1378 1 39.2521643114 28.8732405475 31.0856498403
1379 1 5.7032904526 20.4320841821 21.2681823587
1380 1 61.5463795464 50.5959337839 14.7074422185
1381 1 28.8102127784 31.515491032 29.7008530913
1382 1 59.0436445691 51.5140207297 52.7766828882
1383 1 24.7666039305 19.5813556041 43.3321150763
1384 1 49.3807326474 4.912651859 38.9185326389
1385 1 34.8932995751 26.9428468712 51.1595553657
1386 1 26.1272312565 6.1602622606 9.7881745888
1387 1 29.3634175144 41.136091833 20.5496540873
1388 1 23.2130308715 59.7046461023 32.5847392846
1389 1 53.8747822922 49.1635589697 42.9212348847
1390 1 23.3490936041 3.5640706203 35.8776329782
1391 1 22.0247496735 59.5651891166 11.6951011013
1392 1 59.0498478593 28.6959786046 26.1215546607
1393 1 25.6236528418 23.3976665366 31.7479973704
1394 1 50.6698465716 17.7997823704 23.5193914759
1395 1 30.5889769751 60.4789454636 25.0881216307
1396 1 58.9732430778 50.6612438956 16.2844824413
1397 1 51.8069798864 6.2607614136 42.8363785568
1398 1 12.1228940369 47.0027657329 54.803403127
1399 1 57.2693280145 60.9412076248 55.7835814961
1400 1 42.3359603089 49.0506122713 13.6844845558
1401 1 51.6366820147 26.124773349 54.038408701
1402 1 61.6963118995 3.3830703174 46.5771966183
1403 1 7.7955724459 45.3051124813 15.9096515586
1404 1 41.6464587539 20.7819848609 12.62313672
1405 1 39.5361696625 48.442865399 24.402716588
1406 1 9.9302650467 46.3228031996 23.8975580901
1407 1 36.2608909721 7.8192854004 54.2429417119
1408 1 17.6184239152 30.7184267663 48.7547270343
1409 1 35.730100011 41.2911155658 19.9505684127
1410 1 37.5233190442 27.1556314285 27.0129557545
1411 1 36.9848032311 32.2891466557 26.4664810031
1412 1 52.2636824951 17.8557290252 45.3223178333
1413 1 41.2682336181 43.8260959476 54.9996845916
1414 1 25.0988896061 48.7456561854 24.0153035602
1415 1 21.9061849009 31.5050156647 29.8932136083
1416 1 52.0647675583 30.6013835554 33.2529974969
1417 1 7.6977886954 11.3728226203 38.0369631749
1418 1 30.9166979654 61.5026053855 21.0836052152
1419 1 52.5971971244 10.2250968948 21.9450432469
1420 1 26.1495865097 27.0476590665 32.9423648153
1421 1 28.3229033701 6.3580769912 24.4558542057
1422 1 29.6727627207 37.3546012558 4.2878283823
1423 1 4.7483524518 55.2321909299 40.0408599876
1424 1 13.3997769455 10.7822811 39.2359538267
1425 1 44.9513493766 34.3492827312 31.2089548629
1426 1 54.526654455 42.0335206521 19.8538321989
1427 1 44.6678121984 27.709948075 5.9633195019
1428 1 29.564146621 54.0033542593 56.9451183205
1429 1 24.136501805 33.0144049116 14.3959902345
1430 1 31.6178453199 10.0085084332 45.7628099573
1431 1 60.4429546762 26.0774878919 31.1930955078
1432 1 43.3871253854 52.0977152221 19.1342505387
1433 1 3.8553186053 4.06202862 49.2162284146
1434 1 3.9386182585 24.3243561584 16.6874036946
1435 1 44.4997381476 56.6703008614 33.4872009618
1436 1 48.2996045089 42.2649150799 45.3544461947
1437 1 22.2008411842 49.8254968486 28.1442954304
1438 1 57.0014161049 21.127086768 49.3055323845
1439 1 33.2052438669 61.9275892841 33.915052419
1440 1 14.2647847952 5.6651753309 14.5042552045
1441 1 43.0715183674 49.6688345109 40.0597039446
1442 1 10.6983611178 11.6920579778 38.40313286
1443 1 34.1964828194 22.1252897916 53.9708747683
1444 1 18.0053687702 50.093876931 7.4681089506
1445 1 13.8979713724 43.9447777634 31.0947792107
1446 1 47.8927623081 27.0313900602 13.9310946011
1447 1 26.3132129185 50.8311906377 11.1267977911
1448 1 43.9907757453 53.8347535141 12.916798136
1449 1 30.0302712082 36.8854335451 51.9091586095
1450 1 56.7835401679 57.03477342 52.7062813969
1451 1 40.9093791336 15.9513189417 4.0886091332
1452 1 3.6874979531 10.5011433076 24.1475623884
1453 1 18.1387980306 20.3361672708 40.1037121919
1454 1 46.0036848852 17.4604155806 56.8681624093
1455 1 60.7722557499 45.5110500108 46.3257292798
1456 1 43.3296571689 14.9652298904 44.3039833775
1457 1 16.868293977 52.1870777136 24.4378880729
1458 1 38.5227510215 15.5105342097 31.3313820614
1459 1 11.5253884456 38.7978610886 11.3023040857
1460 1 54.4915414917 9.8322413576 15.7055867205
1461 1 24.8217312828 31.9715499031 23.9449020688
1462 1 6.7073866018 48.7747414233 21.1699831048
1463 1 28.3673797902 8.0761250223 48.3211989813
1464 1 48.6545965674 29.4400222959 46.4112293453
1465 1 11.5663535694 21.6053253275 8.6543711532
1466 1 50.4445383907 35.7212632486 31.7408577345
1467 1 19.0416108374 56.1885510056 34.2876009591
1468 1 21.1464574194 4.4671678421 40.7320001476
1469 1 31.6132221131 48.1320571526 16.1947688202
1470 1 29.6161138066 17.1330457199 33.178089842
1471 1 44.9586060557 15.1397413178 60.7116273667
1472 1 60.4789454636 47.6741255902 60.6756365794
1473 1 21.5747185278 28.3862822688 23.4440741697
1474 1 59.8193484489 26.6528723163 13.7039137288
1475 1 32.2899659581 41.1978321267 34.3986164445
1476 1 39.521422218 26.8335285122 55.2559507017
1477 1 53.8272627486 42.7530437907 15.1891335527
1478 1 5.3831246015 47.143802802 45.1129275292
1479 1 6.1440459238 53.8620831039 53.317012871
1480 1 4.4793286317 49.6402759674 17.8570750221
1481 1 47.3136910225 9.4517924008 7.5715400361
1482 1 37.9865760727 44.9268873455 19.8564656712
1483 1 39.7125537812 56.0349317914 58.0002043445
1484 1 32.8420587836 28.643718811 52.2684227451
1485 1 10.1840732494 34.3032847493 19.3341018212
1486 1 22.0620864578 30.9114895425 27.0714188383
1487 1 40.4575338182 7.3287807125 29.4650110214
1488 1 34.9402339027 10.4731699802 13.2089965118
1489 1 33.9513943359 28.0491393 28.3843510558
1490 1 44.5229712249 51.2451724744 21.7231293192
1491 1 61.114841228 10.8548478907 17.4835901363
1492 1 42.6652613826 38.1733770372 59.7378278526
1493 1 35.0136199959 4.7700873761 47.7940363597
1494 1 25.677024546 18.0168975265 51.7280342407
1495 1 12.1838735497 44.1253169161 12.5444836823
1496 1 25.026673945 35.8383064594 49.4495540554
1497 1 7.462215825 38.5159625153 42.5030394924
1498 1 5.8830746766 54.6348609034 27.225857355
1499 1 59.2338397867 4.4584832359 32.8322856755
1500 1 56.5480492277 17.4206208889 49.1142252564
1501 1 34.8705931922 13.5563807616 60.3719679689
1502 1 50.2430485032 43.948698711 12.4554137989
1503 1 6.4539061201 58.216675763 9.9354734696
1504 1 20.1060603183 53.0820486253 23.7639532649
1505 1 52.5693993618 16.4993152548 38.3324387607
1506 1 27.7814029552 29.581644581 41.7146364242
1507 1 54.550823878 32.5029260803 53.4849113569
1508 1 6.5306689099 24.2102975494 7.8396684756
1509 1 54.6463896597 11.7789040402 46.997264702
1510 1 37.7866662686 9.0351185703 35.5767734048
1511 1 17.0647510064 16.5383491656 46.21090989
1512 1 37.7798777623 31.2185524062 7.6470797243
1513 1 51.6577497926 27.649436735 14.1988309459
1514 1 13.2634801265 13.0882079182 32.1256372901
1515 1 24.3928264367 3.4428226322 27.4346624431
1516 1 57.8937535443 50.7169564639 10.3845682696
1517 1 41.2035087225 47.0044043378 43.2002658993
1518 1 39.4830320448 17.7674199226 16.6062342279
1519 1 38.2385701056 38.396168789 9.626186785
1520 1 51.2455821257 21.9388399567 20.7865495461
1521 1 39.6809521143 34.0406983058 55.4492475644
1522 1 4.8999234099 16.1001393843 22.2868679442
1523 1 9.0467058481 11.3948852655 32.5893039699
1524 1 55.9019707039 50.4839819528 14.2878423077
1525 1 45.354855846 33.1579584097 15.7807284619
1526 1 39.3150750373 47.0409803412 14.0883421548
1527 1 46.7398281598 16.8082508098 20.1393591118
1528 1 60.7700319289 29.287397949 43.4857342905
1529 1 41.08640699 57.3952079877 28.5827978198
1530 1 28.5969600483 40.3747842681 27.0560861776
1531 1 32.230215399 61.6332256088 16.4081385936
1532 1 9.4126414468 15.8672233947 42.9232831409
1533 1 37.3887193517 33.1685508203 11.410686099
1534 1 30.0299200785 52.0956669659 6.1081370667
1535 1 14.0420515649 3.3288588282 21.5552308332
1536 1 18.2875014299 12.62787697 43.8736740128
1537 1 47.2021488426 32.3280050017 17.8227813613
1538 1 8.2038133131 59.8003289272 31.7053936416
1539 1 55.9424091332 21.9319929289 18.3834183412
1540 1 36.5148747396 38.4495404931 19.3407147626
1541 1 39.1942279221 19.6181071723 3.2681486903
1542 1 16.5632208479 45.932230005 4.9424217997
1543 1 60.7079990272 39.9971443484 34.5350888284
1544 1 30.3915836 15.2986274765 58.3475885943
1545 1 43.2219774149 60.0867336641 38.333433628
1546 1 41.6040305899 13.3042696854 48.0665129546
1547 1 21.4200459247 18.1070793204 47.6264890034
1548 1 43.5267579359 24.5205205797 32.8483205954
1549 1 21.1277305057 55.6664797637 12.9979676027
1550 1 20.4916591764 24.0184637269 9.4361671322
1551 1 25.8377248745 20.5648697048 31.9246740971
1552 1 36.7441038681 41.5754135249 61.0559099714
1553 1 11.5378535475 39.7261893153 53.4118178718
1554 1 49.3715447554 6.7824230043 9.5503427843
1555 1 19.7167160774 7.3436686089 29.2717726803
1556 1 17.2900591872 31.4590762044 18.2206697566
1557 1 45.5565798198 61.2889430042 6.0205360755
1558 1 59.0547051525 40.61507398 8.7910776235
1559 1 15.1488706882 26.5143516763 52.4177113606
1560 1 47.7957334863 42.8032553282 11.1053788835
1561 1 26.2871122825 60.3286034593 43.6976995453
1562 1 5.4395920985 45.6555983762 32.0567573606
1563 1 45.6246404469 29.9389775037 60.0042182004
1564 1 55.1008099257 17.8242444015 17.4085654382
1565 1 56.0424225569 51.2126929834 21.1218783451
1566 1 8.4504175062 36.276340676 35.5102343394
1567 1 7.4038463757 34.9239648964 53.2183454443
1568 1 46.2504704953 51.8418002416 19.5258771222
1569 1 9.7520667582 5.5262450397 35.5822159141
1570 1 15.4867159163 15.5843299541 39.448445776
1571 1 37.6370265235 20.0988036392 59.5159139248
1572 1 30.5206822616 7.5334015058 46.3657580579
1573 1 24.6840884669 24.1814463979 61.1678032809
1574 1 39.5121758043 43.7980640986 60.2359637579
1575 1 54.8240612537 7.2795991553 48.9136717146
1576 1 61.4085611656 53.0982005883 52.2019422014
1577 1 43.8574635281 11.5280219178 51.6133904157
1578 1 40.5254188805 37.6561045669 35.3999796348
1579 1 17.32880049 21.4638200856 50.1674971107
1580 1 35.3838276717 57.3891802624 5.8338638586
1581 1 54.8373456581 39.6454294998 58.1513656513
1582 1 38.7663179433 47.6208124077 4.9605342366
1583 1 32.8462723392 60.6800842214 44.7822804585
1584 1 5.3376299054 35.8887520833 25.2529184715
1585 1 11.4081696699 42.55945432 23.3621439221
1586 1 52.8294693763 24.2414310435 12.1555490927
1587 1 11.530070174 8.9056336661 60.2499504216
1588 1 43.5894345753 3.5737483382 57.8079023491
1589 1 40.4286241451 60.1230170594 57.4784257106
1590 1 49.9457587477 34.755247108 57.1090373372
1591 1 14.4174091421 16.7391367938 26.1124838119
1592 1 19.1180985756 16.1309802703 9.2607193591
1593 1 48.2930500891 21.8491263356 50.8692296812
1594 1 39.4410720537 4.5861598224 44.9349633271
1595 1 22.0447055409 20.3736796199 46.0300781293
1596 1 46.9646096462 26.3734316505 36.3947298837
1597 1 30.6628897627 38.8409329902 35.0585645888
1598 1 60.7930309199 10.4918968939 51.364029855
1599 1 49.6070356956 53.6629340806 58.7929965331
1600 1 21.9859498491 20.038467864 4.6158946501
1601 1 31.9594359307 43.5038759882 57.2040764244
1602 1 44.4319701285 10.3872017418 25.1584646004
1603 1 33.8427782363 31.8124296579 39.1937597492
1604 1 32.59550726 47.2420605774 50.1423328203
1605 1 41.0133135049 4.4912319263 51.6693955921
1606 1 18.7042337821 11.5068370967 12.5133501882
1607 1 27.8451915051 26.9767894023 15.7004368193
1608 1 39.686336102 24.3827607206 49.9051447536
1609 1 12.4620852619 9.0279672301 43.0389218332
1610 1 60.7907485772 52.0325221537 7.5778252565
1611 1 21.5575716975 24.056561292 31.6355188448
1612 1 54.2933873358 55.3125410941 41.746998872
1613 1 59.4465658224 59.9733187928 3.3748497875
1614 1 40.0182121263 58.8591259472 12.0290839034
1615 1 16.9419141566 7.2382711975 20.4565462131
1616 1 26.2445670753 39.4393749272 48.6932793486
1617 1 27.2207659753 54.1850638442 37.1962417915
1618 1 27.9757532068 41.5154288793 47.4017660386
1619 1 22.3041903394 11.4448627165 40.8570022968
1620 1 35.9806310038 33.3252716796 40.3793489534
1621 1 23.1133100559 6.9024391127 17.5210439638
1622 1 31.4017835527 5.1751797809 6.4364315687
1623 1 55.7060988906 44.8779632834 8.0048632634
1624 1 19.8071904794 13.7548860472 10.7613888869
1625 1 25.3323908117 38.6775991894 17.5057698248
1626 1 30.1373657461 59.1827504252 19.3171305557
1627 1 49.4051946785 29.3804473016 28.6627383328
1628 1 25.4872975012 43.1330245747 29.5239422781
1629 1 37.1954810106 42.2990916975 50.5587140429
1630 1 20.4580677749 19.869691554 31.9033137111
1631 1 13.3668292816 36.4665358936 49.5139278214
1632 1 60.2598990945 36.1831742801 4.1495944982
1633 1 8.4084458108 56.6573675866 8.5456204539
1634 1 28.3057565397 11.5780578905 41.0359028445
1635 1 6.1337987906 33.0715805201 54.891653708
1636 1 7.8830739503 59.2140594841 44.2949125286
1637 1 50.8140438073 4.8025141976 54.6464481813
1638 1 41.2802890688 56.8173656558 47.088616928
1639 1 3.6562544384 58.7072038596 59.6138790923
1640 1 40.6664559495 31.2646089096 55.6073729422
1641 1 53.5569514532 20.8403309015 21.6810522849
1642 1 14.0150145832 36.510368576 61.4170467984
1643 1 44.3714002669 5.0344821372 49.5857338312
1644 1 54.7812819601 40.9766204583 31.8120785283
1645 1 51.7994305993 57.3352233422 9.1128937839
1646 1 3.5034925657 31.1440544025 48.0830160473
1647 1 31.9612501005 41.7144608594 23.5184551302
1648 1 31.3164005304 21.8213285731 13.1006730202
1649 1 53.8164947732 15.6528587541 26.0263400087
1650 1 48.593851141 6.370132442 28.3200358114
1651 1 25.2789020643 6.9635649295 51.0920799546
1652 1 60.4005265123 54.460349476 18.8728345273
1653 1 17.9422824796 58.0919662218 31.0451528893
1654 1 20.4303285339 40.4907155685 21.3945890264
1655 1 20.3880759348 22.6451372125 46.3525321751
1656 1 36.0464678099 56.3390100531 58.3236532577
1657 1 39.2639271541 58.9522338215 30.2713217009
1658 1 31.9570365449 18.398575437 27.7393844425
1659 1 5.9566187781 56.011113498 18.2264633955
1660 1 25.5986055947 21.6984917233 3.3401786623
1661 1 28.5471581621 36.0824585972 59.2843439322
1662 1 5.7914239903 7.5007815629 44.2139186267
1663 1 3.9548872648 16.8038616894 30.8389812734
1664 1 35.0778767186 21.3271721369 12.6477743159
1665 1 57.7929208181 51.5050669241 37.9096201615
1666 1 57.880293575 17.2433004245 11.6889563327
1667 1 32.2225490687 38.3686636344 5.1991385262
1668 1 37.1514142418 43.5724047882 41.6052595437
1669 1 33.5011291039 51.3119456262 60.8230525034
1670 1 44.683437467 61.0763925333 55.4024888017
1671 1 28.3265902313 21.7712926004 61.1569182623
1672 1 34.0116715895 42.1022250169 41.0062323906
1673 1 41.554930963 36.8765967827 26.8744351144
1674 1 28.4264280901 50.9783139537 13.158843496
1675 1 23.0959291391 57.0818247907 29.4041485518
1676 1 24.417698119 48.6351673944 13.1230282735
1677 1 46.4880096916 60.8555319944 48.1253856896
1678 1 29.2936597608 45.2200220671 27.3520884578
1679 1 32.145534636 57.4467655221 18.3823064307
1680 1 44.7821634153 4.4113382306 46.7141956966
1681 1 40.4975040747 50.7196484578 4.163259293
1682 1 53.3084687166 45.1973156842 52.6264579271
1683 1 53.5298559499 36.4562946126 51.8282817508
1684 1 15.4422394962 11.5576923718 35.7601801162
1685 1 42.0121602661 37.7015758543 14.2001184212
1686 1 14.3443156569 33.4958621594 15.8675745243
1687 1 59.6834612811 37.0273484383 6.9286275311
1688 1 17.784566753 17.296613607 35.8637633578
1689 1 40.829087491 24.3533828747 38.7647378599
1690 1 45.0772293499 51.9770436718 33.9181540641
1691 1 17.3512142649 37.4101382593 16.0027009112
1692 1 12.1207287375 24.2098293766 18.6118281672
1693 1 45.7025912253 20.0473046264 21.6708695255
1694 1 29.5731004266 21.4874628142 57.219116477
1695 1 37.363906191 33.8445338844 57.279042601
1696 1 37.7425994997 45.3651556485 24.7770792979
1697 1 23.6326893039 34.0075750771 44.5437463949
1698 1 34.7067326971 14.1750711741 54.2094673536
1699 1 20.0522789629 46.7359657338 27.1707300027
1700 1 46.1882620287 56.7618871739 38.8068148942
1701 1 23.8569440959 4.3218938088 17.4195089784
1702 1 10.6087060183 46.1161048892 36.1196198167
1703 1 43.2679753968 32.1879042783 22.1858011316
1704 1 53.7656394981 15.2979252172 45.4095150254
1705 1 25.0537694483 31.0995779823 55.9656422106
1706 1 45.9076509307 59.091866372 27.3211305286
1707 1 13.5567904128 11.2370524957 20.9723556433
1708 1 3.8104436531 59.2785502933 27.0890923631
1709 1 17.7254599315 60.3481496755 29.2175816737
1710 1 55.3856931009 17.6998859899 20.2074197389
1711 1 44.6694508033 50.8576424033 10.8452503474
1712 1 12.4536581507 16.5180421685 52.1200119538
1713 1 31.6953279255 21.5622534259 55.2492792387
1714 1 44.0764513756 47.3176704916 7.2245771419
1715 1 44.2231650404 36.7982363531 61.5738847009
1716 1 35.3546253906 48.6485103204 11.2280986901
1717 1 24.3038150749 25.5988982028 37.9271181216
1718 1 29.69570319 12.5100144567 48.4791487944
1719 1 17.6027986466 22.6731105399 32.5018726914
1720 1 20.5858204395 23.0421477837 34.9957709062
1721 1 12.3628911407 12.8637775615 42.0742516895
1722 1 34.6571648973 48.5470923783 35.6519736678
1723 1 19.6777992098 54.3741471513 8.3162742823
1724 1 43.611438699 11.0792782475 17.2431833813
1725 1 45.0501338465 21.2306700096 4.8673795451
1726 1 14.0032517406 32.3969434528 30.2826163707
1727 1 13.2388425306 36.5287443601 10.4506976837
1728 1 22.6344277587 8.9629789873 42.0485607047
1729 1 45.787623118 4.2223134451 37.5586075723
1730 1 5.6368274653 22.9012862794 52.6464137945
1731 1 4.2549333879 61.850925981 33.4145756494
1732 1 61.1889295805 32.5922885717 35.0851333977
1733 1 15.0587474159 51.2694589407 57.9947618352
1734 1 18.4411791658 47.9680210926 44.4533305145
1735 1 27.2294856945 51.2737895395 28.5926294495
1736 1 53.3697993591 33.1350179404 19.224081203
1737 1 36.762655217 45.6912965555 13.402820069
1738 1 5.5516551208 12.769967428 53.3578609516
1739 1 49.8332802221 50.9189145242 13.1700796442
1740 1 14.6970838944 13.4803026745 22.3314028859
1741 1 31.2591664003 50.9429083824 30.021551489
1742 1 34.7620356142 57.894982498 60.1890294303
1743 1 47.8407366009 57.4813517909 49.4721433951
1744 1 34.0689642412 56.7082813833 37.0526297718
1745 1 46.2406388655 14.4222079137 29.8263234133
1746 1 57.5310951555 11.0685687937 43.5599396862
1747 1 39.2861068426 44.6807454731 38.4500671876
1748 1 7.6855459756 19.4280289979 42.1766644989
1749 1 54.6809174069 24.2753735746 19.1822967768
1750 1 40.4112432283 54.0698348031 17.0232591881
1751 1 19.6680846233 16.0689473686 56.8645340698
1752 1 53.0659551838 15.9991310933 5.2055583463
1753 1 6.7215956476 17.873695158 7.6568235716
1754 1 49.8228048547 45.2683609131 26.9778427912
1755 1 7.0200792439 7.4326565621 56.9368667741
1756 1 5.198840066 6.057299348 8.2718329751
1757 1 40.7840258548 55.1125727684 4.3912711721
1758 1 32.3218602331 35.4588523699 25.083322859
1759 1 23.5923093962 12.9701698401 26.3827951073
1760 1 47.6822600934 16.0425541245 12.0019884001
1761 1 24.71773839 50.8386814032 19.9090765945
1762 1 13.9265884375 51.6648894285 15.1177957157
1763 1 16.0193210472 47.8659008912 18.813259533
1764 1 48.2452964591 28.5777649617 16.1972267276
1765 1 17.9265401677 48.6142751813 26.4560056357
1766 1 9.4050336381 56.4674064554 48.280467944
1767 1 52.9436450284 30.6991146365 42.2105485085
1768 1 47.8425507706 29.225248004 38.830574666
1769 1 35.5187784938 31.4484252722 14.6423661933
1770 1 6.125974452 21.0659902119 17.1923281062
1771 1 52.1431279879 36.8764797395 4.6380333735
1772 1 10.3213649357 30.9285778513 49.4734308704
1773 1 56.583747407 43.9918876558 59.9158505763
1774 1 9.3135058472 45.5161413905 60.6507063755
1775 1 10.6923919141 52.9677559299 49.5367512475
1776 1 55.7580660762 22.9040367949 29.3299431561
1777 1 38.2134058153 15.1991992689 4.8359592951
1778 1 20.2473314738 50.544610336 10.4875077735
1779 1 14.0093379875 48.080089967 56.7474323374
1780 1 29.2878076002 32.1166834845 44.809200397
1781 1 58.6188362354 30.4698855081 56.0367459612
1782 1 56.674221809 22.7511198399 33.8663039217
1783 1 18.1857323581 39.0036230532 43.0510943271
1784 1 3.6703879913 24.5693275986 35.5003441881
1785 1 49.6306199026 12.0391496195 31.8835334085
1786 1 43.1774424732 16.8078411586 46.5834584301
1787 1 27.4806604249 39.9465816813 40.6623009156
1788 1 5.8486639726 45.3850529943 24.0978190238
1789 1 20.5971151093 58.0998666385 30.7758949828
1790 1 49.0452868052 52.7405750576 42.4833177113
1791 1 9.6732381557 4.5658703818 21.7589445417
1792 1 14.4672110283 35.7839984096 14.1596799918
1793 1 42.0333450873 7.0867880219 54.7591607933
1794 1 4.9970283097 28.6222999034 33.0781934615
1795 1 44.9287015153 16.8947457426 42.9135100328
1796 1 43.0551323179 33.4800613259 8.103928637
1797 1 28.3552658179 53.9662515615 7.6421287965
1798 1 7.3471096793 3.8703879187 20.0992132905
1799 1 47.9155272126 13.6346826696 17.8915442477
1800 1 29.1070928827 26.2726574459 56.0874841931
1801 1 27.5397087248 29.2447942203 25.7025984876
1802 1 8.5153238188 23.7540631136 42.689372284
1803 1 60.7375524379 20.9055824915 11.3420987774
1804 1 28.9648268599 36.5450133664 22.4094707075
1805 1 19.6243104625 5.7634214021 12.722506406
1806 1 58.5324583458 35.3368933442 16.9087909279
1807 1 48.4566179763 60.5988562331 16.8279725908
1808 1 50.7092901336 8.7442954521 8.0141564943
1809 1 20.5797341925 52.6543727329 59.4455709551
1810 1 42.6197315736 36.8240443811 55.3968707275
1811 1 28.0909822478 28.9400722208 37.5754617946
1812 1 53.0152754735 30.8609268755 10.5810838206
1813 1 36.1439062829 45.2352962061 6.0571296354
1814 1 34.3093124747 30.7372707232 45.0877632388
1815 1 50.5351298359 24.2424844324 3.3965238493
1816 1 54.8509811922 4.7074985191 44.5618880925
1817 1 51.4865155752 62.0616037605 4.1113915941
1818 1 34.3865024722 38.6526104639 17.5429895658
1819 1 48.6866078856 11.1949754614 19.1378788783
1820 1 16.9365886905 43.9961012114 48.237161956
1821 1 19.2230278141 19.5048678658 13.1914985518
1822 1 33.9724621139 26.0821110987 26.4383906325
1823 1 29.8009250365 51.2275574712 33.7610235535
1824 1 49.9199507197 37.7994239785 45.7068633025
1825 1 17.6818613355 17.2353414861 38.8360756969
1826 1 49.6271671278 6.2407938418 33.6903294542
1827 1 34.675306595 52.8088697712 29.2979903596
1828 1 42.4499018746 51.8290425317 57.2927366566
1829 1 49.5605695409 60.3373231785 42.7692542754
1830 1 46.1162219324 14.716864197 39.7666862663
1831 1 37.9864005079 8.5312768084 12.9047426853
1832 1 18.5715653026 16.7773514021 59.4129158993
1833 1 57.9804825635 24.2663027258 10.1292385051
1834 1 25.2070960545 10.8246507423 16.6806151884
1835 1 38.4120866657 56.1121217889 17.6396087364
1836 1 51.9532253784 3.5792341535 52.4960717902
1837 1 16.715377022 15.4150854712 52.4081138173
1838 1 47.8258721131 19.8286679086 16.5302146625
1839 1 59.1953325704 49.6767934492 32.5196047378
1840 1 17.5846569489 35.9010416204 49.676676406
1841 1 38.2488699082 8.5493307237 5.6535763487
1842 1 6.6771075232 51.3250544658 50.8080746036
1843 1 47.2202320186 56.497135431 16.5800750703
1844 1 26.3609080269 45.530011011 30.475971755
1845 1 58.778775783 44.0358373814 11.1795257576
1846 1 39.1996704314 44.8079714433 53.2486011143
1847 1 51.3039866879 47.7787622207 43.4698749355
1848 1 26.7994104163 56.2379432406 57.9941766192
1849 1 28.285391021 54.5653957578 39.9410221288
1850 1 25.3993395283 16.680966318 9.555726772
1851 1 34.0048830833 50.3550003344 9.4132851845
1852 1 58.8034719005 54.8759113961 8.590752316
1853 1 61.3418465355 60.3936209629 51.6253288232
1854 1 27.4631039433 13.3888334053 11.8550991705
1855 1 59.360304976 42.2025895701 53.904628311
1856 1 22.1028174951 36.2793837994 13.696481485
1857 1 54.0743994883 40.0867994479 9.9078512718
1858 1 44.6658809854 44.556035932 22.3933187444
1859 1 47.7476872483 20.4774384263 5.1973243564
1860 1 56.8242712053 39.6522180061 22.3102180647
1861 1 14.4793835222 23.9165776118 60.3252677278
1862 1 15.8055416226 8.9429119288 40.8860290131
1863 1 61.3982028415 17.8602937104 50.6309882256
1864 1 24.2254546452 42.7559113494 34.019162355
1865 1 45.6563591571 15.3346182638 18.2403915376
1866 1 42.2556101447 54.9204463378 58.370470542
1867 1 15.5150988949 56.2753385465 43.8373320959
1868 1 15.3178810846 61.2068957134 44.0863415269
1869 1 16.6535196851 38.689830205 28.0830818311
1870 1 10.87304811 19.5593514805 60.5512196463
1871 1 29.5472923987 10.02588935 52.1950366519
1872 1 5.0833418256 22.0915228253 48.1507840664
1873 1 38.4686770581 23.2047208035 22.952375641
1874 1 54.1315165752 55.4016694992 29.1496966114
1875 1 25.3326834197 13.3972019949 6.6599431363
1876 1 40.6129086806 59.8563341035 22.559051931
1877 1 48.2755521291 11.4800342014 23.6421112824
1878 1 16.0357070967 22.5410857981 29.9770165472
1879 1 24.4060523195 39.9148629712 7.665695447
1880 1 45.7523345899 5.9814729039 52.6145780412
1881 1 7.3145072929 46.0686438672 12.0088939495
1882 1 4.6872793044 14.7300900798 5.2924570782
1883 1 32.3301117795 60.3730213578 27.4985095146
1884 1 48.8573739302 12.8974860062 12.1396897376
1885 1 23.5416296859 3.3510695331 6.1882882574
1886 1 57.3737305585 29.451726617 5.5078692556
1887 1 5.1279235846 39.8269049982 59.925682206
1888 1 25.7689619881 31.9774020636 39.0567606709
1889 1 57.7169597743 57.305143237 12.0115859434
1890 1 18.5455231882 47.1622371077 17.9854714244
1891 1 41.9903902289 55.8220887125 52.3018385818
1892 1 56.4212329088 53.9306119038 29.3727224497
1893 1 18.7548549708 49.1794183248 22.5125272547
1894 1 35.6887837576 34.7193148422 9.6697268594
1895 1 8.9484071075 46.4239870553 56.5414362863
1896 1 54.0711222784 47.1972915493 40.7976613889
1897 1 14.6285550944 20.5015493277 50.5795477344
1898 1 22.3796832104 21.7331365137 33.318541695
1899 1 28.3012503761 48.6803460738 29.3993497802
1900 1 26.5156976732 55.4604837126 6.0692670163
1901 1 58.8549709132 19.4017527971 58.8244811568
1902 1 32.8081162525 24.8576635485 23.0103120303
1903 1 43.2023141555 36.2953016761 8.4174113208
1904 1 8.3816136547 12.2485984453 19.212962098
1905 1 54.9359545633 20.7672959379 27.6059551821
1906 1 34.5833691528 60.0424913304 12.3197607175
1907 1 15.3599581189 11.3515792775 3.2982145747
1908 1 43.7148463757 27.0703654494 30.2468596698
1909 1 15.464653271 24.0465540975 54.8632122077
1910 1 53.299222303 51.7003535213 20.1058847535
1911 1 4.6515108992 6.1369882181 33.6012595707
1912 1 9.3815664743 46.4512581234 18.2046933583
1913 1 35.272402535 38.3716482363 49.7230255175
1914 1 25.4781096092 42.7259482874 12.5670145004
1915 1 8.3217811653 19.4272682171 36.6076314842
1916 1 52.122352818 9.1512254354 14.2881349157
1917 1 36.9999018053 16.1871610115 25.2767367649
1918 1 57.1207416583 26.3023278999 37.8481724759
1919 1 52.7068080913 12.1567195248 34.5876997516
1920 1 56.6981571456 41.0831883017 26.4517920801
1921 1 55.1547668459 10.9151836659 20.9812509273
1922 1 17.893124331 33.0628608009 50.3758340259
1923 1 17.2049687729 48.5926221873 41.1308248885
1924 1 31.2963861414 50.4152190664 55.4697886479
1925 1 4.7394922808 27.6023268426 19.1253552547
1926 1 55.5047260463 50.1027136935 34.6397839805
1927 1 12.9039819044 39.8082951277 42.1399714524
1928 1 54.9554422579 23.9765622574 31.9816741408
1929 1 15.5212436635 25.7344342409 47.3166171027
1930 1 59.0537688069 61.0855804253 49.7161784897
1931 1 31.1116334331 39.1436067334 26.7568066875
1932 1 29.5307307843 24.2531353646 40.0562511699
1933 1 32.3836005268 27.8974512987 54.9907893075
1934 1 39.5417877366 40.3594516075 23.3159118538
1935 1 17.3294442277 7.0317952693 16.5393440329
1936 1 57.2246175079 7.4007330263 60.0136987005
1937 1 12.6131880471 8.1887557041 34.2931605116
1938 1 58.1104590491 19.0845656957 34.3085516938
1939 1 30.4210199675 20.9166430749 51.1671631744
1940 1 7.6581929772 29.0390907772 43.6362518597
1941 1 14.9448643717 20.3599270426 16.5474785361
1942 1 35.5084201697 9.9810032786 19.0815225722
1943 1 45.6101270888 20.2433520046 47.0333725325
1944 1 4.2377163316 20.3358746628 58.57781259
1945 1 49.7267123787 46.0155647711 54.34348183
1946 1 55.5754786673 47.7422447389 49.6677226004
1947 1 16.9753299933 14.6353436007 29.8335800924
1948 1 19.6576677776 27.551998262 46.9627369548
1949 1 59.7581348497 34.8018888275 47.1995738919
1950 1 37.5398221369 53.5928837189 29.5063857965
1951 1 16.6857065681 39.7926113375 46.6184543501
1952 1 16.3257401731 39.8270220414 37.3570006416
1953 1 40.1181670284 9.1065734505 42.4555199488
1954 1 13.3392070839 27.9108527464 11.8739431274
1955 1 38.5113978301 6.7890535022 49.167070266
1956 1 56.1059770204 20.3323633664 20.6953143632
1957 1 16.8109428037 41.7918849433 61.0532179775
1958 1 4.6926281792 29.073969654 46.6522213164
1959 1 39.0352247201 33.5540911568 14.7409750984
1960 1 22.8143816954 26.5797203095 14.0565649231
1961 1 6.5195088398 56.2284627405 48.5999959096
1962 1 56.7846520784 59.3992218436 47.1652802311
1963 1 47.0306220171 3.8773285811 18.2962796708
1964 1 11.3936563118 29.4947985186 53.0459993163
1965 1 29.7879917617 58.8152932648 56.4813931191
1966 1 11.3514622343 24.1853673455 42.9775326691
1967 1 6.8150487993 33.0504542205 6.8341853643
1968 1 47.2301806915 22.5986125362 37.1111513772
1969 1 15.9677635128 4.1034150993 59.8923248909
1970 1 18.7090910754 55.7900773943 15.6738680104
1971 1 34.7954514509 23.4571830093 4.2125930064
1972 1 34.3856831697 49.4917481329 49.875708386
1973 1 15.6187406581 6.9501108124 31.1256786184
1974 1 49.4091156261 57.7826795372 36.3056600003
1975 1 10.3000045497 57.0236543149 27.0604167764
1976 1 46.943132217 34.1834325014 12.5754416116
1977 1 44.5593131419 25.8443963375 24.9996954849
1978 1 47.206537963 38.2852118251 30.188103978
1979 1 3.5044101845 59.394423072 15.6841092913
1980 1 46.7019061594 50.7916300324 58.3980342181
1981 1 28.2791292093 50.0465914739 53.2017838299
1982 1 52.2707050877 59.7615291028 6.0028976636
1983 1 32.9327087504 4.8576942194 58.9726578617
1984 1 32.7085124801 5.4702574198 13.238491401
1985 1 33.2401227437 7.3659419319 6.9401855482
1986 1 51.5300556496 32.3854732182 39.5241727334
1987 1 53.6313324137 8.0578662814 25.5970255114
1988 1 40.7511367126 30.2604952039 29.0464059779
1989 1 27.3260463434 38.0823174191 13.4631558442
1990 1 47.6694438618 40.7636018145 55.9094614694
1991 1 36.4897689709 44.5638193055 46.7700838298
1992 1 45.6161548141 23.1066385928 47.9497038302
1993 1 9.4342359192 38.266543433 31.4748770379
1994 1 18.22371288 21.1803414289 34.8934751399
1995 1 44.1392450582 14.310197561 47.5859920525
1996 1 28.7188020308 49.2083279979 25.0046112997
1997 1 55.9914502386 7.2860306797 18.4855970643
1998 1 14.9792750757 10.7290849607 44.8249427089
1999 1 8.4137654247 14.7691825123 40.492412695
2000 1 42.8723693441 10.9541005335 48.9246152548
2001 1 55.6865526743 41.157452219 49.9816910135
2002 1 36.6109672157 17.7595780275 39.895609363
2003 1 34.2055536683 37.4920099853 26.0908308179
2004 1 49.9544784669 33.9110144282 14.7403898824
2005 1 35.8098064376 52.619493856 59.9437068604
2006 1 6.0992242262 57.8575286705 51.1013263683
2007 1 28.4448623958 33.0697078287 35.9828548248
2008 1 28.6795925551 5.0920030232 9.6502391648
2009 1 41.8074516904 44.8573051567 39.707696488
2010 1 46.1272825159 55.4080483542 12.1323160154
2011 1 36.5929425613 48.8576665382 33.4741506438
2012 1 34.7218312713 19.7853619206 39.3941377262
2013 1 60.2560951901 33.3139770097 15.7048844613
2014 1 17.2245149891 50.8466988631 31.3034672556
2015 1 36.306596346 37.0038227529 11.3435618175
2016 1 50.6669790129 55.5598533986 37.5484248129
2017 1 32.932182056 21.0553392798 10.8012421001
2018 1 54.2167825543 7.0330417795 31.1636006187
2019 1 58.5446308397 13.6889321979 36.8207671712
2020 1 44.6452228587 21.5858376329 27.3025206581
2021 1 12.8394325736 58.9136095619 4.8456270644
2022 1 20.4506940526 18.0564581318 11.1179025071
2023 1 56.6418008396 38.5324070864 60.1281669607
2024 1 55.8756359815 32.5551858739 46.3909223483
2025 1 42.3628802474 8.0490061103 4.4267586736
2026 1 38.4561534345 26.0733328579 22.6273466445
2027 1 51.4011325529 8.049942456 50.8419586131
2028 1 14.9994650296 14.1165495686 12.1951682196
2029 1 52.7403994928 59.9839112034 24.8564931164
2030 1 59.3473131796 26.9938777111 52.8730094507
2031 1 37.4220766668 33.9149353758 7.4522730042
2032 1 26.8067841386 40.976210807 8.5871239765
2033 1 54.8648508127 28.1035058714 58.0789159038
2034 1 29.0719799195 49.429890796 17.3338918697
2035 1 11.5866605665 39.6089705397 23.5190988678
2036 1 56.8167219182 48.2870808854 40.4515646145
2037 1 37.1703167203 27.0886241903 20.0758046483
2038 1 11.5950876776 5.5487934142 61.5374842624
2039 1 24.3860964521 28.803599837 12.7282415233
2040 1 16.6957137626 18.4228033817 6.3405088053
2041 1 50.9606404289 48.5472094215 46.2498267576
2042 1 20.6252640015 60.3774689998 32.562735161
2043 1 8.0929265752 49.8281303208 41.0148935882
2044 1 33.9013583633 8.0707410346 61.6537666923
2045 1 37.1282982076 3.8673506474 46.1040494385
2046 1 35.8593157158 5.7419849381 19.6869285803
2047 1 30.8299104246 12.1245911634 9.2206320594
2048 1 3.1444344261 44.6314117598 51.2035050914
2049 1 49.5969699794 60.6844148202 33.9649713484
2050 1 59.7102056548 59.2126549656 53.7111558835
2051 1 61.7842113508 33.8116447422 39.4678164274
2052 1 4.2811569193 39.4145617665 52.716054505
2053 1 19.9344749712 37.879598578 36.8141542297
2054 1 4.0243114453 20.4128890955 53.0662477918
2055 1 36.5543768233 10.3116503492 60.2567389278
2056 1 32.5730934852 58.3439602547 13.9000781502
2057 1 34.029403636 61.6622523251 7.9766324409
2058 1 26.4001175025 12.5228306883 26.8135726448
2059 1 36.3964270103 24.6806356922 25.7821293493
2060 1 24.0029555014 33.7269639792 51.1587945848
2061 1 61.5227368178 23.0683654629 22.0804622419
2062 1 37.6974793419 4.1549667815 10.2236338547
2063 1 6.0671251256 61.2356298216 9.8714508333
2064 1 20.1020808491 9.7954897894 26.1964037941
2065 1 53.0082528808 39.171989712 61.4861022928
2066 1 40.6312259431 34.76917525 61.4804256971
2067 1 54.2975423698 11.6719265455 27.7837438194
2068 1 13.8711684771 51.6981882219 51.2421293509
2069 1 43.7196451474 44.2030921297 61.1621852068
2070 1 15.4073020977 15.4954356355 42.2882066789
2071 1 7.5986413915 11.5482703933 9.2768713222
2072 1 49.5366927259 54.566098017 18.8627102896
2073 1 52.1276197625 49.4403661633 21.5336363608
2074 1 56.8784036903 9.183763448 14.3744542837
2075 1 40.4785430746 15.8150806443 44.0084492701
2076 1 20.8713473523 61.5438045958 6.8330324886
2077 1 40.2147861989 57.5395222667 32.3477853043
2078 1 37.112672939 6.7994644958 9.4391517341
2079 1 24.7819365911 58.2735587634 24.009685486
2080 1 10.5669801137 19.7720189946 12.1697113212
2081 1 46.280609122 52.9566953464 16.9671954901
2082 1 39.279962074 60.764530898 43.4908841918
2083 1 25.8150184916 38.1212342867 20.4759753861
2084 1 41.9517659693 45.5852554065 31.0963007724
2085 1 49.7065224248 6.4012542317 12.3953121101
2086 1 32.2396958991 61.5901537072 11.7142961879
2087 1 60.2247861313 58.5971247198 56.4064854642
2088 1 37.700580987 37.260088863 5.264635907
2089 1 58.5616606269 34.7002953205 58.9677420469
2090 1 8.9043637473 11.7684286729 14.8679084606
2091 1 47.4431408137 57.428974954 56.0992470358
2092 1 56.705062695 3.4209724203 48.3729906021
2093 1 45.7611713524 33.4640849276 4.4366020076
2094 1 39.2175780426 49.6662595603 53.489358999
2095 1 21.0531154588 30.6159554352 58.47428787
2096 1 23.2702650016 40.5000790253 35.684570202
2097 1 44.2305387627 53.7305265349 30.9739906171
2098 1 44.3769598194 38.9944351612 30.2497857501
2099 1 60.7857742408 3.6605066183 35.4548143791
2100 1 40.1967615445 25.476646569 5.8099636349
2101 1 15.5830424788 47.5288749656 21.7915410759
2102 1 28.2569495208 5.9643962994 20.4000728639
2103 1 12.3534691622 5.3694305458 31.895471816
2104 1 28.6484005394 12.8075382987 32.0345776721
2105 1 5.8540889254 33.1867510396 25.6083201812
2106 1 31.1039085811 60.6102679461 48.1564021405
2107 1 21.1227561692 13.9688995582 25.4817379487
2108 1 39.0976672731 57.2215743844 55.6661286341
2109 1 47.6145505959 17.7818162375 4.8565823089
2110 1 29.3749462707 36.8574602178 26.5728732817
2111 1 52.6004743343 11.3470731139 6.0613841561
2112 1 23.7336975949 22.1795978414 49.6632749584
2113 1 12.4268552554 5.3609098001 5.7551113341
2114 1 51.368477497 27.9770406821 34.4398741764
2115 1 34.6978959346 41.412840505 53.4112911773
2116 1 34.7814647872 47.8086667611 14.0655187287
2117 1 23.9292768002 18.5794071978 37.8409157968
2118 1 23.3283769558 51.3527351852 45.8306950196
2119 1 37.0839388307 8.6038670078 56.7083399049
2120 1 5.4194723706 36.8121059736 53.3113362753
2121 1 39.1584126995 20.2475655602 30.0939427149
2122 1 17.0342612499 14.0974130037 33.5024165792
2123 1 56.2029473206 59.7584274577 36.5871489223
2124 1 7.712717557 35.0818561878 31.832444047
2125 1 16.1588950761 14.0982908278 9.4417852063
2126 1 13.3140427936 50.9901938396 6.597670296
2127 1 29.5790696304 22.6289852494 18.850186666
2128 1 51.6715608915 46.3017354216 56.4993007304
2129 1 16.5656787554 58.0889816199 6.4738619876
2130 1 21.069091857 9.7852485085 32.7368369371
2131 1 52.3874556906 54.5941883876 35.312899486
2132 1 50.9193826971 22.2124284621 46.986438205
2133 1 54.1735350879 30.2991779851 51.3932906577
2134 1 9.8071941105 12.3150204675 41.0168248012
2135 1 38.5470960094 41.939651997 38.6690550351
2136 1 37.4169852871 12.9419039047 61.682442279
2137 1 34.4501739789 4.4341206915 31.7760292194
2138 1 56.8841973292 19.6309819255 12.9929932662
2139 1 18.2032303181 19.8442346556 43.6150085169
2140 1 13.9097342151 5.1349929945 41.4231403076
2141 1 31.8409296798 48.9888719775 10.8066260878
2142 1 48.864513566 56.0416032544 39.6698915309
2143 1 51.2273819064 31.1827371836 54.5349060013
2144 1 35.8893958209 38.9810922351 52.5231087719
2145 1 38.5326996944 58.835132089 16.6002650242
2146 1 46.9989033069 21.1811022098 44.7067875876
2147 1 41.8913131509 12.9576462166 26.6209195198
2148 1 42.464532276 42.7827142446 45.8468469827
2149 1 20.373504055 20.7236973419 41.8159958448
2150 1 34.1970680355 56.7092762506 48.0306392104
2151 1 10.922732953 11.4666327537 6.7094933796
2152 1 45.026491118 43.4703431083 50.6732993463
2153 1 37.6420593816 3.7395979828 28.3626395402
2154 1 46.709982141 12.1093170244 49.7752267895
2155 1 13.221286049 15.2796664763 61.6810377605
2156 1 32.5085441544 18.2505742969 20.8747416054
2157 1 56.7342064545 42.5598054496 5.0629353418
2158 1 33.7063643741 18.8064125052 44.8091418754
2159 1 12.3234475787 38.3635137332 19.2575555613
2160 1 50.9645613764 54.1607188563 10.3866165258
2161 1 43.5507517941 21.9473255895 35.8721904689
2162 1 59.0378509302 9.7356807087 55.775446993
2163 1 29.8795195526 43.1029444695 42.6984431328
2164 1 16.2967134569 10.505825036 38.5343382994
2165 1 26.5143516763 27.4673174989 28.0009760187
2166 1 31.1411283222 39.1243531252 56.9332384346
2167 1 34.8211424357 3.9356395088 10.4735211098
2168 1 17.000435762 44.3815245046 23.9162850038
2169 1 4.2649815476 5.5794704398 16.2120326938
2170 1 45.4030191272 45.9828511937 53.5786629688
2171 1 7.1366308732 39.0070758279 12.0841527341
2172 1 51.9554491994 29.4766568209 25.9444682827
2173 1 13.7261519389 49.4181279533 54.3138698977
2174 1 60.352070623 27.1064147583 16.4698203657
2175 1 19.6710692252 53.2242561264 12.808533166
2176 1 60.073390738 54.7080714318 54.4776133496
2177 1 40.2179463656 10.1908617556 49.356914354
2178 1 21.0555733662 26.4039214069 10.8157554583
2179 1 25.1764892549 53.7267226305 48.4092154759
2180 1 23.3791151877 54.1604262483 13.705376769
2181 1 34.7143990274 35.308744452 59.2679578827
2182 1 30.4491688597 57.288523101 16.0172142694
2183 1 55.9781073125 11.1479240906 12.3846026563
2184 1 25.5533098721 6.0021719957 34.5352058716
2185 1 53.9732156325 43.2055328438 38.0069415914
2186 1 7.9748767927 11.2395104031 12.1137061448
2187 1 18.1756081204 24.4710698232 29.3098702455
2188 1 57.1957078349 42.3120834939 55.7230701561
2189 1 34.4979276089 51.0908510009 17.7193151629
2190 1 37.527649643 18.1857323581 13.347048979
2191 1 36.3219875282 30.8936404529 37.7313633514
2192 1 40.3517852772 22.3769912165 20.928347396
2193 1 14.0915608431 14.4035980432 29.8111077959
2194 1 21.8072248662 41.9170626573 13.7114630159
2195 1 35.4829632713 37.4955798032 55.8208012372
2196 1 30.7998303194 17.6794034281 42.4813279767
2197 1 57.9631601683 25.706987608 29.7771652647
2198 1 4.0262836234 14.8692544575 15.7756370822
2199 1 53.2878691115 25.8631817728 25.3895664202
2200 1 57.6724833542 31.7157519658 34.3074397833
2201 1 23.9018886889 59.835500412 8.2426599548
2202 1 18.5832111021 39.266619148 4.6419016516
2203 1 22.0738493004 58.925313883 40.5036488433
2204 1 41.4387070546 21.8917300644 16.7595608341
2205 1 28.7843462288 11.6448310422 22.3613074263
2206 1 46.5632099546 26.6222069951 39.1237093875
2207 1 36.1365325606 11.3198605674 45.6369885057
2208 1 47.8618629004 60.3188888728 8.4778524348
2209 1 43.9180333897 7.4077088017 50.8004082732
2210 1 53.9374589316 56.1549596041 16.1346671315
2211 1 41.4257152582 22.704536642 41.2167931269
2212 1 26.3977766383 22.6856926851 52.6876130047
2213 1 51.6279037738 52.662799844 54.6128567798
2214 1 27.9391186818 35.4355022493 12.4421293944
2215 1 38.3125414148 51.940818798 15.5300219043
2216 1 50.2199324691 30.6742429542 13.0795467206
2217 1 3.3919954474 46.0294929132 25.8371396584
2218 1 50.2714900035 15.1079055644 16.6183482002
2219 1 35.099178583 43.7034931843 52.0515416755
2220 1 48.6613850736 22.7412882102 10.9567925273
2221 1 24.505656092 57.6325716193 59.4633030016
2222 1 43.6415773258 52.2757379458 25.1946894741
2223 1 29.7307576316 51.3550175278 46.9000603154
2224 1 18.4397746472 59.9197130022 54.7405509228
2225 1 16.5827670641 4.4645694828 4.1286145026
2226 1 8.5213515441 11.0585030776 47.1548048638
2227 1 18.6706423806 40.9861594799 53.7320480966
2228 1 50.6717777845 19.2397649933 49.46904175
2229 1 18.0803934684 57.1046482168 24.2463468583
2230 1 21.2787162476 14.7821743087 29.2653938254
2231 1 8.0737197843 44.6880606738 54.2925680333
2232 1 55.7705311781 39.4883575109 45.3221422685
2233 1 6.6929727304 9.9603451519 18.5022757218
2234 1 42.8130869579 35.1787094448 32.8912169322
2235 1 47.3589867451 10.4234266156 42.1211274954
2236 1 45.2052161009 46.8304196049 42.4403043314
2237 1 6.644183268 30.093474542 28.133527455
2238 1 5.7750028278 11.852348655 34.1700310538
2239 1 5.0695833961 41.0622960886 12.1570706545
2240 1 9.445237981 23.1872228435 33.2332757159
2241 1 56.1738035611 6.7757690977 51.6125125916
2242 1 25.6618674502 53.0342949952 4.7930454019
2243 1 38.2241152691 56.6639220064 11.8400005963
2244 1 31.2575277954 51.9838906996 49.3775139591
2245 1 57.3652449257 14.507298328 27.9219718514
2246 1 11.8862911862 21.1799902993 39.0900009428
2247 1 6.8744131158 41.967976454 5.4483644872
2248 1 60.3142656659 40.338910524 16.2156025117
2249 1 14.1009828216 28.7254734938 53.895733027
2250 1 48.7097239197 8.9894249007 27.1726612156
2251 1 25.6410922803 11.984197832 10.1151933198
2252 1 29.5251712318 30.8653159959 52.0336340642
2253 1 58.9332142997 46.6978681687 15.1236478763
2254 1 31.3302116293 12.2241364143 14.1256204175
2255 1 50.3724982944 16.985454231 4.5486650298
2256 1 34.1766439952 47.4756788263 41.9140195338
2257 1 43.0962144849 3.7150113007 40.084107454
2258 1 60.2134914614 28.2091373692 48.7386921144
2259 1 4.0098624609 32.2005449451 41.578807778
2260 1 27.9700180894 39.4630761774 59.3453819666
2261 1 28.125509995 37.0142395987 43.2394753749
2262 1 60.829197272 56.9869612683 14.5822059829
2263 1 44.0507018692 13.4302081803 8.2344727822
2264 1 8.9357079191 27.0934229619 7.9578001883
2265 1 16.4913563165 44.7653677146 21.139844478
2266 1 12.2314516149 5.9617394186 16.45138606
2267 1 45.6956856759 58.2430104854 19.2422229007
2268 1 20.6994108756 55.8998639261 49.8400687283
2269 1 50.398364844 49.4013907741 10.6277840617
2270 1 38.1262086232 11.1133378218 22.0697527881
2271 1 59.7800804517 32.3824886163 7.7762134988
2272 1 39.8291288192 36.4818685542 15.4794007156
2273 1 8.0101594687 31.5231573624 9.0898304192
2274 1 19.8604451403 36.7733061492 59.8534665449
2275 1 26.8133385584 12.4558819717 57.9677248535
2276 1 51.0029515496 19.0128767291 8.3465767696
2277 1 47.008383807 59.053008026 36.8995957737
2278 1 19.3548184695 10.9680286756 36.2007892834
2279 1 29.0214172524 13.2180088391 20.0561999105
2280 1 47.8434285947 28.8955372791 55.3317947023
2281 1 33.7461590657 29.9519693001 16.1329700049
2282 1 51.4358943865 21.4225038321 18.1356963855
2283 1 36.0770746095 18.983674448 5.1990156308
2284 1 42.3096255865 39.8490846867 36.0888374522
2285 1 56.2607666667 25.5575819493 40.3760132219
2286 1 39.5969736105 22.6568415336 12.5552516577
2287 1 29.7047740388 42.4604942852 49.4621947222
2288 1 32.1845100252 45.2100733941 23.7798711416
2289 1 16.4963306529 58.7377521376 41.2273855375
2290 1 15.4478575703 21.9054241201 58.5528823861
2291 1 25.7445584786 10.0473667792 12.2748746462
2292 1 11.9784041931 8.2079566428 47.2019732777
2293 1 35.209374766 35.7619357643 4.9677558027
2294 1 52.5376221301 25.7136005494 38.7718774958
2295 1 15.0749579006 8.9012445457 21.861825524
2296 1 32.6245339763 56.9973195925 58.3856861594
2297 1 32.6361212542 53.9344743298 52.3572000206
2298 1 59.6129427466 6.2812498277 13.073109344
2299 1 60.7990001236 42.9640726998 47.8139337056
2300 1 54.3493339906 38.8138960085 30.1318647152
2301 1 41.9012033022 16.2101600024 20.4525082224
2302 1 12.1793673861 27.2441160959 9.3558169679
2303 1 30.9192729161 14.8409300005 22.6903744135
2304 1 6.5624812546 17.0863454788 18.482670984
2305 1 38.9833160561 57.3832110586 40.9562549396
2306 1 4.9390685117 22.3460918088 31.7817643367
2307 1 19.0760800629 25.1994297242 12.5592311269
2308 1 20.3882514996 43.0335378455 26.7469165362
2309 1 39.3645843154 16.7904017202 19.3463328368
2310 1 44.4789044561 41.6850830134 31.4098010127
2311 1 55.691058838 56.979587546 39.7872858714
2312 1 54.8531464916 35.1897115066 34.6738435548
2313 1 39.9238167768 12.126580898 5.6846688777
2314 1 15.2561993125 16.9343648695 23.3019251901
2315 1 61.3852110451 41.1624850771 29.9009969818
2316 1 31.92514227 41.3362357235 19.3432897133
2317 1 57.6167122642 61.2280220129 34.5955416468
2318 1 44.8420895393 24.4806673664 36.7881706369
2319 1 52.3272369586 47.1130204375 13.3668292816
2320 1 32.4967227901 43.4691141546 16.4941068319
2321 1 18.1094201847 61.736282156 35.2655555072
2322 1 58.3073842514 57.500312791 34.7605140524
2323 1 50.8273282117 33.2943722719 12.1595285619
2324 1 11.3949437871 50.4112981188 14.5093465842
2325 1 16.6203964564 48.8532774178 57.1919039305
2326 1 21.2858558835 48.8491223838 25.6028191503
2327 1 40.5089157878 33.9126530332 34.0373625743
2328 1 6.4192788862 52.8601932191 11.3340813175
2329 1 56.425797594 36.9105393139 42.1970885392
2330 1 61.302461495 41.3954010666 60.5060409669
2331 1 41.8154106287 51.8837017111 13.7177248277
2332 1 52.0114543757 20.2885892056 52.7489436472
2333 1 22.0503821367 22.8781117237 20.7056141658
2334 1 38.5571617255 28.4671006059 24.4318018259
2335 1 23.5373576087 58.7299687641 14.9748274337
2336 1 47.9028865458 46.9614494795 15.8093455269
2337 1 14.6116423505 53.5986773579 59.6531470895
2338 1 33.5065130916 31.929589912 57.3139214778
2339 1 20.7747281818 21.0798598324 17.4526322071
2340 1 12.1854536331 23.0036405673 32.5881335377
2341 1 56.5156867799 39.7684419144 4.3178733745
2342 1 33.7936200877 58.2004652783 10.4031196185
2343 1 9.8764251697 27.3647291246 48.6076037183
2344 1 24.4611796718 35.2553142262 28.8524653775
2345 1 18.2390455407 49.4772347748 12.1916569233
2346 1 49.4957861237 22.8508991772 8.1656923394
2347 1 54.3404387065 20.3749085736 12.2039464604
2348 1 41.0431595236 18.7866322025 10.7252810563
2349 1 47.660958229 26.6761639153 9.1169317746
2350 1 28.3887401762 33.7442863744 6.5162140734
2351 1 40.7048461227 43.7261410456 22.8459833623
2352 1 56.694236198 28.1061978653 61.5755818275
2353 1 56.3374884914 26.4388588053 18.5579297686
2354 1 9.5428520189 46.7582624655 38.7901947583
2355 1 52.012449243 4.4624158878 57.3370960335
2356 1 59.8944316687 3.4239810161 38.8736465676
2357 1 39.774294075 35.5837374758 6.4150009568
2358 1 24.0860561811 51.4386449019 12.8661769473
2359 1 4.3684477459 22.0887723098 44.312059359
2360 1 43.8682315035 56.1878487464 44.3871425788
2361 1 23.3475135207 31.9615427085 58.0902105737
2362 1 15.2899077573 20.4416817254 60.876365686
2363 1 3.4924091589 52.8360237961 32.2906096958
2364 1 37.3679441818 26.0259303575 50.0354723688
2365 1 59.6502210093 60.9582959336 10.7176732476
2366 1 32.0971957899 38.0520032275 43.0655491636
2367 1 27.8275765019 31.9230354922 56.6151735091
2368 1 23.9003086055 51.9874019959 35.8909173827
2369 1 25.7116693364 15.4058975792 13.1281196531
2370 1 31.3333132744 40.2703817241 15.1467639104
2371 1 7.3353000193 31.8900293067 43.2431037145
2372 1 19.9019954802 49.7571436135 40.9949377208
2373 1 59.6481142315 53.6864012444 4.4938244334
2374 1 44.5083993452 38.7364134029 46.9017574419
2375 1 45.9607300268 47.4320217086 30.8340654586
2376 1 23.0152863668 54.3705188117 34.6983055859
2377 1 58.3333093226 4.5221313339 36.6084507867
2378 1 4.1232656279 36.1446670638 11.5971359338
2379 1 44.0353692086 3.539824534 21.704460927
2380 1 17.7038069375 6.8943865398 43.1738726553
2381 1 35.2714076677 23.2689190047 59.8581482733
2382 1 6.7563165161 25.098011782 54.2173677703
2383 1 38.1144457805 45.0809747326 56.9502097001
2384 1 10.542752169 6.1666645242 38.3551451436
2385 1 7.9091219169 19.445819566 5.5814952874
2386 1 42.2182733604 42.5457602643 19.4283216059
2387 1 52.912862664 12.3341570324 50.9794258642
2388 1 54.4290404171 9.6744671094 18.6513887724
2389 1 28.8634089177 20.0618179846 21.9186500029
2390 1 17.4824782258 12.8382621415 58.6270292601
2391 1 10.6714411793 48.7831685345 21.2727470439
2392 1 19.5307344154 13.1511186441 27.7076657324
2393 1 9.375831357 8.7582938202 48.6015174713
2394 1 7.8725166527 39.6659120617 33.587272907
2395 1 16.0867964582 13.1116165604 45.7447267812
2396 1 16.3288418182 5.2820636411 55.4395329779
2397 1 28.401966059 32.3142524244 38.6287921705
2398 1 59.2555513023 14.8864598095 55.1237503951
2399 1 5.8977928603 17.1563373188 48.0340334636
2400 1 36.7914478468 7.7017564603 26.96467543
2401 1 24.5780473179 38.335950057 50.6301689231
2402 1 37.4734586364 8.2652785553 20.1311075654
2403 1 58.8372973884 57.6499525361 27.5527005212
2404 1 52.2417954147 25.7195112315 42.9485059528
2405 1 36.2508837776 44.7568235602 22.2895014164
2406 1 46.4811626638 14.6650725762 42.5236390975
2407 1 38.9294176576 14.1340475287 20.4261734999
2408 1 4.3120270662 15.5097734288 55.9920939762
2409 1 20.5704292573 3.611641663 14.4138393242
2410 1 22.896019335 7.0597978575 60.3518365366
2411 1 34.1266080226 3.8812085636 36.6376530678
2412 1 52.4747114042 41.4959411847 44.9192795368
2413 1 24.9706687686 22.3872910191 43.6072251434
2414 1 3.4170075816 55.0212205424 21.1109348049
2415 1 43.009426944 20.161714365 40.9223124084
2416 1 57.7446990153 61.0602990918 42.7787932971
2417 1 48.6346992216 6.2623239405 53.5411506198
2418 1 9.0326255499 8.3722150849 32.1328939692
2419 1 34.9135480506 24.2387390496 12.4898830245
2420 1 27.7371020999 7.8650492959 40.535718683
2421 1 53.9584096664 59.1566497892 43.7537632433
2422 1 56.5567689469 61.3725118567 52.9854879763
2423 1 29.441192728 10.4310929459 25.7371847564
2424 1 40.0081464102 8.8869243089 37.4243590094
2425 1 39.9812264717 11.7848147224 55.1816282628
2426 1 42.2470074687 21.3495859118 5.2211192412
2427 1 52.1619134233 37.1984656125 33.5363591103
2428 1 8.357637353 57.1808433471 32.8327538484
2429 1 12.5420842965 47.2654692196 46.3887570489
2430 1 47.7869552455 44.6418286055 14.0561552718
2431 1 4.4925135494 4.8622647568 42.1037465786
2432 1 36.8363339182 29.7959507001 29.8222269009
2433 1 56.6438490958 33.4749114246 30.3094777876
2434 1 8.0284299139 38.1634868859 14.523918464
2435 1 20.5701366492 6.2524045283 5.3618754065
2436 1 37.7184300767 19.5447796007 51.8666719239
2437 1 32.7899745548 8.0304723179 14.6491546995
2438 1 16.5952906877 41.9951890005 52.0118055054
2439 1 56.5206611164 9.7118624153 41.1558721357
2440 1 53.9883142067 29.0196616042 60.6669753818
2441 1 17.7724527807 41.7100132173 13.7702772294
2442 1 16.2034885394 52.3460223939 41.4809596537
2443 1 61.4508137647 49.0236923328 50.7851926558
2444 1 45.9742485177 57.7025049378 42.938089107
2445 1 47.6499561672 60.8067834971 61.463981126
2446 1 33.6378355741 8.3814966115 48.2236434651
2447 1 30.7333497756 19.3981829792 34.1709088779
2448 1 37.2033229058 39.7386544173 57.897206319
2449 1 17.0822489664 17.2624369895 3.4249975364
2450 1 41.9052998146 9.9142301268 52.5575779975
2451 1 35.0099331347 10.4405149244 4.222348558
2452 1 31.8233731981 13.4443118872 20.4810082442
2453 1 33.7470368898 46.0645473548 7.1860465168
2454 1 51.2432412614 14.4892736735 44.5934897595
2455 1 31.4102106639 53.1364737183 22.8850172731
2456 1 55.9501925068 60.4798232877 59.6120064009
2457 1 35.5346963705 10.4765642333 48.3413304136
2458 1 15.1670123859 18.6899545104 48.503376739
2459 1 42.9105254309 12.802739527 30.7578118067
2460 1 57.0476481731 3.7175482123 8.2746537165
2461 1 4.1077105852 29.939387155 54.481124646
2462 1 35.0661138759 31.9963630638 60.9506296032
2463 1 5.6381559057 23.7983639689 42.4929152546
2464 1 57.415046812 26.8087153515 9.2123219915
2465 1 9.2601341431 16.2155439901 12.8290157279
2466 1 27.5092189684 39.238879907 37.6895789252
2467 1 58.4498258389 61.131168756 21.0883454652
2468 1 54.7230529628 61.0985722217 7.3829600148
2469 1 36.456236091 31.5754756776 5.0788473663
2470 1 11.9954339803 31.2667156874 56.2205623238
2471 1 45.9018572918 15.213420019 4.8626041821
2472 1 32.7670340855 44.3762575602 4.8891086172
2473 1 50.8162091067 31.7321965369 24.605318386
2474 1 39.3278912688 43.728306345 44.4027678474
2475 1 11.0384886885 57.2495477118 54.1464981062
2476 1 5.1001141177 60.3574546107 43.9428465504
2477 1 57.9001909209 54.3417261819 52.482904429
2478 1 39.2410452064 13.117761329 25.4280151149
2479 1 4.0025940775 41.4845879933 46.2996286438
2480 1 8.4147310312 13.8105400939 28.2383396503
2481 1 7.5797974346 34.6563455948 46.3690937894
2482 1 18.6930561555 50.121030956 53.0475208781
2483 1 49.101818676 6.1476157417 50.6721289142
2484 1 24.8198585914 55.6518493623 36.5245308045
2485 1 39.1138777578 55.1030922683 32.9427744666
2486 1 27.1991715029 48.5971868725 41.5437533364
2487 1 35.2656725504 46.1659067754 33.2073506447
2488 1 3.9566078 26.1417446146 12.9664244574
2489 1 61.2406626797 6.7754296724 7.1340149575
2490 1 7.7839500551 24.1164874159 30.0884416839
2491 1 52.1189585649 58.2195433216 40.9791368873
2492 1 5.1919579252 26.6322727112 36.7544036706
2493 1 24.9152488083 55.5365032781 25.0240404727
2494 1 47.5783257222 5.133407059 31.8792028097
2495 1 39.7092765713 8.8258160485 55.4181140703
2496 1 52.9311799265 5.3622031275 38.1058431045
2497 1 58.8682553177 49.9552977694 50.4316636375
2498 1 38.2155711147 60.3633067713 4.8110232391
2499 1 40.7500248021 54.0551458801 50.2008544257
2500 1 55.1583366639 22.3556308305 25.2274030516
2501 1 4.7354776986 57.9734599708 7.6483145302
2502 1 31.3371757003 33.6640532533 54.4327857999
2503 1 25.7017791851 13.3146280096 42.7619975963
2504 1 13.7258593309 16.6983472348 12.5510381021
2505 1 14.6024544584 29.916388164 56.5962710306
2506 1 6.2641556667 10.8329608103 15.8596741076
2507 1 19.6933659569 19.8485067328 8.9025846905
2508 1 22.8683971372 27.336638754 59.1197226562
2509 1 37.0377067624 29.8303614041 45.643016231
2510 1 6.6273114891 17.2579308258 60.8818081953
2511 1 8.3551384804 55.0656384409 39.1297371129
2512 1 11.7401042159 36.6515226883 23.790639117
2513 1 26.8255110523 57.6400038632 45.9993542864
2514 1 53.1104316039 53.268966633 57.0075023518
2515 1 23.32270036 31.7282755893 10.3597551089
2516 1 39.2444394595 56.2135397311 51.2523706319
2517 1 44.0267665326 48.9167148381 29.2353137202
2518 1 39.3004446359 50.3699233438 20.722643953
2519 1 57.3014563758 16.5822403697 32.9067251576
2520 1 21.7108983036 40.1962933716 33.3325868803
2521 1 43.8043259104 59.9106421534 17.9213317448
2522 1 60.3345141414 28.3112575706 55.1355132377
2523 1 52.8716634538 15.3526429183 54.6316422151
2524 1 10.5796207804 60.6936027122 40.1861691339
2525 1 49.0353966539 32.3095121744 40.9904315571
2526 1 57.3411925459 29.3400088723 10.1112723723
2527 1 51.9543372889 46.308055755 17.2777111285
2528 1 52.6591129829 28.7710618244 53.487720394
2529 1 5.7422599896 57.7755984229 23.8444204723
2530 1 27.5863504443 26.0946932438 49.2861617331
2531 1 43.4084857714 28.2035192951 35.9322921577
2532 1 23.7475672154 59.9149727522 51.4234292845
2533 1 33.1224943168 32.2780860722 17.8849313063
2534 1 3.378711043 6.2060085996 36.1911332185
2535 1 46.8559935465 33.3439400717 46.5225374388
2536 1 9.9419693678 34.4753967908 50.3296604793
2537 1 46.0448840954 32.9342888338 33.4781886345
2538 1 60.4005265123 33.8990174991 55.563949911
2539 1 25.0043772133 32.9739664823 6.2122821157
2540 1 45.5290746653 39.5462939003 27.4980998634
2541 1 60.6532228045 49.5771896768 26.1126593767
2542 1 6.9077879874 61.2590384638 7.2173263149
2543 1 34.3035188357 49.4053117217 20.0570192129
2544 1 35.7179275171 58.8989791605 23.5075701116
2545 1 40.7947938302 51.7031625584 40.2575069709
2546 1 19.7408855005 26.95191772 4.3849508387
2547 1 12.2794393314 48.3139423023 13.2280745552
2548 1 12.7801501873 27.3053882167 32.6100791398
2549 1 49.402444163 42.0160226921 40.3435337309
2550 1 36.5506899622 36.1789022029 34.5367859549
2551 1 25.6996138857 44.7997784186 47.7221133067
2552 1 9.445237981 51.8389912046 36.8331737515
2553 1 59.333911732 42.7938333497 19.7663423988
2554 1 31.6177282767 50.8126392888 17.0834193985
2555 1 11.2314344216 11.4394202072 27.4793729496
2556 1 32.5556540467 37.6156661375 50.3790527142
2557 1 14.8057585156 47.6799777508 35.6208401737
2558 1 16.6281798299 44.8313800855 7.4767760004
2559 1 31.8231976333 56.7922013655 49.5654853557
2560 1 3.9936578284 51.4360114297 50.1880967158
2561 1 51.4965812913 43.1378818679 58.9699658679
2562 1 51.49944885 45.2398608913 24.7431367667
2563 1 11.2828163911 46.4170229843 11.0005081666
2564 1 59.7766861986 18.4308793632 56.1019975512
2565 1 15.8256730549 33.8585205481 48.2919967002
2566 1 33.3322357506 31.5968945852 54.349860685
2567 1 59.7656256151 42.4458053623 14.3825302653
2568 1 6.79874468 54.6452192276 7.0283483467
2569 1 45.269414302 21.1518414071 42.380436729
2570 1 57.8330081178 39.3309343923 41.7049803593
2571 1 34.5205169486 37.8811201397 6.8144343224
2572 1 56.6925390715 32.6480011401 39.8796329647
2573 1 45.661860188 54.3986677039 57.8548951983
2574 1 12.385539002 25.796116013 60.4023992037
2575 1 3.6665132758 37.8977402757 58.5312293921
2576 1 10.50998007 58.2148615932 19.6199213421
2577 1 16.9420897214 4.0913537965 45.9518347428
2578 1 23.0111313328 50.8575838817 24.2596312628
2579 1 5.3648541563 21.2726885223 38.3629285171
2580 1 35.9400170096 20.9460794424 61.5855305004
2581 1 47.1927268641 14.0122640678 57.9486468101
2582 1 50.8281475142 9.5791939358 29.0235825518
2583 1 29.6736405448 46.1202599232 22.6101412925
2584 1 22.4992428502 42.9586301905 37.134911149
2585 1 17.8890278187 31.0470841023 12.3562781993
2586 1 45.132532267 51.4383522939 3.5218168508
2587 1 7.5846722843 27.3512691554 21.5155531848
2588 1 35.7552057797 45.7431466979 3.3612710194
2589 1 16.5427968076 9.1543270805 29.7053592549
2590 1 45.9328737427 3.883046142 13.9687239934
2591 1 42.2038185239 22.557705934 31.04445063
2592 1 27.8511607088 33.1773290611 18.776625008
2593 1 40.0728127842 18.1613288487 5.6925809988
2594 1 60.6461416903 16.8307816279 25.6152257307
2595 1 31.0044218519 28.3720029971 21.472656848
2596 1 14.3466565211 3.5937176657 26.770676308
2597 1 28.0403025376 36.9414972431 18.9305368303
2598 1 7.3145014407 47.7252734734 9.5954044205
2599 1 59.7701903004 17.2456998103 13.9727619841
2600 1 22.4540641708 60.4513817874 38.1352209504
2601 1 42.6779020493 24.1930336758 5.2623594165
2602 1 14.877037831 12.3826129217 7.5392009969
2603 1 53.7393632973 30.3674726986 18.7680808536
2604 1 49.943944578 46.5888424178 60.2123210293
2605 1 19.9763764407 33.6987565654 32.9398483863
2606 1 57.6367266533 25.0258546425 12.9812889452
2607 1 59.0518375939 34.4107889385 26.7541146937
2608 1 47.3914662361 18.6482871273 32.6105473126
2609 1 60.2271855171 39.8349224582 6.1835948247
2610 1 9.6643428717 37.734699083 61.6041403709
2611 1 61.1953084355 42.4863608348 11.9033209734
2612 1 15.252278365 22.963787354 52.0455139501
2613 1 48.685203367 36.2998663613 4.1461300191
2614 1 3.8790666728 9.3912225392 10.4543260232
2615 1 36.2608909721 51.8870959642 8.7055248885
2616 1 8.0449739717 45.3436782193 41.902432256
2617 1 13.7124578832 51.9639933538 55.6553021371
2618 1 48.6177864776 36.1642718016 43.5514540534
2619 1 48.6646037619 39.5052702549 22.8612575013
2620 1 37.495755368 52.0375550118 38.958561417
2621 1 43.5927117852 5.9691306973 20.0124842712
2622 1 16.3296025991 4.6475548387 23.0317309379
2623 1 60.4404382472 38.4816103329 51.423955979
2624 1 55.9842520811 31.7046913824 17.266357937
2625 1 57.8119403399 15.7419871591 43.1614075533
2626 1 11.1381509825 22.6979237006 58.9977636305
2627 1 26.4055600118 34.8868036769 44.1822584382
2628 1 32.7227917518 15.6621636893 9.3922174065
2629 1 21.2607501148 9.2093959112 17.5984095262
2630 1 16.8954480019 6.662810695 60.704019558
2631 1 55.8312766045 15.0844969222 5.5190293257
2632 1 53.4996588015 42.6801258704 12.3206970632
2633 1 49.0452282836 59.7746379424 19.7452160993
2634 1 61.2360979945 7.7697644179 50.4666010359
2635 1 23.7263823942 60.3784638671 58.7015857854
2636 1 39.5392713076 50.0059774797 13.6920923645
2637 1 42.0593872017 17.4305695618 16.0657872019
2638 1 24.9518248117 21.5438776418 39.919486178
2639 1 21.6503869636 16.417560572 27.0209732144
2640 1 61.312995384 47.0589464741 13.2837286019
2641 1 10.6579812101 10.2444090246 50.754176205
2642 1 8.1454555682 25.9300134462 51.744010639
2643 1 48.6620873329 28.9213453071 33.5830008298
2644 1 58.180333846 5.0684597813 52.9132137936
2645 1 19.7886976521 7.5062123679 19.4094191274
2646 1 35.289022671 17.201106347 7.2252618446
2647 1 51.8756842512 8.698361844 48.1193579643
2648 1 26.0824622283 32.0825653885 50.3561122449
2649 1 18.6563045873 6.1009915786 56.6172217653
2650 1 45.3523979385 46.1001284909 59.4438738286
2651 1 35.1207145338 47.8560692615 58.9813775809
2652 1 49.7110285884 5.1871708579 59.0701548564
2653 1 5.9978179883 25.1564748658 31.9710232086
2654 1 38.5886463492 56.4527760541 14.764032611
2655 1 37.5670346834 23.3736141568 42.3803782074
2656 1 28.0064770496 32.4718511078 15.0534804714
2657 1 14.7873827315 39.4154395905 18.217334025
2658 1 54.191618264 13.9597701877 58.5176523796
2659 1 44.2744299667 4.2298100627 17.6414814277
2660 1 40.0224842035 51.9871679095 26.2147210566
2661 1 8.1768055922 51.0345532165 57.6227399896
2662 1 45.6121168234 27.0766857828 60.2477851222
2663 1 13.4082625783 6.8797502863 27.7563557081
2664 1 54.5627037639 58.1189446819 34.7045673977
2665 1 9.0415910598 9.5361220342 44.6280175067
2666 1 33.8094209212 29.1368218583 42.6208434841
2667 1 22.041428331 19.8901155943 59.6099581447
2668 1 41.2502674852 11.4006789044 32.9789993403
2669 1 60.5714096001 18.12346537 33.5082102181
2670 1 16.6389478053 24.344136461 3.5634918417
2671 1 31.8264163216 53.5856270399 60.3710901448
2672 1 57.8667750842 33.1915498112 56.536578993
2673 1 54.7098270799 19.4406111431 49.5218867597
2674 1 4.1232246628 31.1299506956 19.0256344391
2675 1 50.3041450593 33.8578182889 37.4753898494
2676 1 52.6753234676 22.5627387921 61.4093219465
2677 1 34.7983190095 35.6477015906 41.4480705115
2678 1 8.3002686232 30.1734735766 33.89176082
2679 1 50.6974687693 4.4038942823 49.1273926176
2680 1 14.8759844421 55.8526369905 46.5159244974
2681 1 3.3690807276 9.2943107606 14.1551153066
2682 1 55.4783328023 45.6633817497 21.5954351762
2683 1 6.3095216152 20.9346092078 11.0819117197
2684 1 24.2796456518 48.913905801 10.1765824839
2685 1 45.1457581498 54.6513054745 47.5315669594
2686 1 16.5368861255 39.5619776905 50.1479508944
2687 1 27.4134776219 60.8818081953 39.3352649911
2688 1 57.0954603248 52.3004340633 58.4656266724
2689 1 31.4304006178 46.0623820554 30.3885404765
2690 1 33.6489546791 4.3169311767 27.5392990736
2691 1 38.7063918193 53.7072934575 48.1884719803
2692 1 27.5603083299 43.2119702204 17.8101406946
2693 1 18.1791779383 8.1686944977 23.0238890428
2694 1 58.6157931119 43.4144549751 58.0055883322
2695 1 50.9660244166 37.6093458042 51.037303732
2696 1 32.2325562632 9.8668861481 12.8537703669
2697 1 59.4937342364 18.1794120247 23.2456274057
2698 1 41.9750575683 49.8418243765 25.6390440241
2699 1 52.5960852139 17.4400500619 61.1846575033
2700 1 59.3486006549 34.9359033039 44.403118977
2701 1 61.3079040043 47.9277582281 29.5439566671
2702 1 59.585144984 7.8530114016 3.1775482913
2703 1 41.317333245 16.1698971379 48.5955482675
2704 1 4.3576622141 50.7226915812 45.668531651
2705 1 34.8718806675 54.0754528772 31.903781884
2706 1 24.8883288698 21.2921176953 57.7167256879
2707 1 18.9017442004 5.1749222859 18.0258513321
2708 1 18.1483370523 10.8953448417 60.6714815454
2709 1 55.5302414663 3.9253748192 26.3433515453
2710 1 60.3698611911 38.4425764221 27.6614336641
2711 1 38.3392272669 45.4101002415 17.0831853121
2712 1 19.5866810702 45.5157317392 60.1925407267
2713 1 57.8333007259 15.8115108263 23.2714939553
2714 1 30.2775835127 56.5735061261 34.98096494
2715 1 61.0434448694 60.8215309417 21.6396775099
2716 1 36.5254671502 29.1595282412 52.3560881101
2717 1 27.2661202195 9.0716009391 50.633446133
2718 1 58.5338043427 60.5661426556 14.489800368
2719 1 56.0144492295 5.7889777872 11.6262796933
2720 1 47.7768310078 45.1884789217 39.4885915973
2721 1 32.6569549457 61.0507015485 30.6221587254
2722 1 20.3376888325 49.503159846 3.2974193832
2723 1 14.8344926239 23.1365431332 14.2593422859
2724 1 17.3307902246 24.1228662709 48.8965248842
2725 1 56.5995482405 55.4431613174 19.579599956
2726 1 26.748730706 26.563041652 43.1259434604
2727 1 22.6448446045 15.9568784942 6.6060739985
2728 1 29.1390456793 28.4456816983 34.3253473946
2729 1 26.9320788958 31.2601612676 32.8407127867
2730 1 15.1993163121 11.2025832701 11.6557745824
2731 1 57.0156953766 39.2576068207 53.8287843104
2732 1 42.0542373004 36.3280152535 37.3966197685
2733 1 61.0526912831 9.4160356999 7.9911575034
2734 1 32.0018640947 41.9151314443 37.0969891487
2735 1 43.2323942607 55.6237004701 27.4233092516
2736 1 15.6432612108 60.9778421498 36.2943653304
2737 1 22.0403749421 26.6967049988 21.3825920973
2738 1 37.8414424912 27.1305256597 58.4104407985
2739 1 29.0796462498 56.2693108211 12.6811901526
2740 1 33.2466186419 53.1202632336 35.9421237874
2741 1 41.3443702267 3.9838144943 27.1090482305
2742 1 11.9507234738 7.6532361972 24.6113461113
2743 1 55.45820137 21.4772215332 3.5574237364
2744 1 57.3871320062 21.9410052561 37.6610789033
2745 1 41.5903950559 44.3718099182 12.85242437
2746 1 8.0510192536 49.6171599333 7.3859621731
2747 1 35.3543913042 59.9535384901 34.3139942031
2748 1 9.749725894 20.7958544813 22.8048426737
2749 1 21.2688846179 38.536620642 15.3749396499
2750 1 42.6186781847 23.4194950954 22.1896635576
2751 1 4.6504341016 61.0006070543 61.0877457247
2752 1 43.6051183656 36.4847946345 17.3828744534
2753 1 56.8197650416 11.3250104686 18.5491515278
2754 1 57.1751667513 59.5665936351 23.3775351043
2755 1 26.5463629945 34.8914268838 4.5236236349
2756 1 48.4982268377 18.8036619897 45.912800832
2757 1 58.0136643138 53.9262227834 48.2079596749
2758 1 58.705506733 22.5208373226 7.8981959332
2759 1 9.7806838233 17.8961089329 38.5017417652
2760 1 41.287077575 33.014053782 42.0311797879
2761 1 61.390419468 43.5344827878 42.1805269249
2762 1 29.4847328025 29.6336702883 47.9797839353
2763 1 20.8415013336 17.3498097463 30.5566730489
2764 1 35.8333321229 26.8729720743 11.9156105105
2765 1 7.0744048502 19.0116477754 30.514537493
2766 1 57.7001055519 53.502701925 11.1387361986
2767 1 22.8027944175 23.6406482423 42.5946843264
2768 1 61.639136291 58.3149335385 22.5069091805
2769 1 60.9154581184 24.6562907043 9.6679126896
2770 1 54.8094308524 29.8758326915 29.017613348
2771 1 8.4320475743 31.7898403182 21.1428290799
2772 1 15.040781283 34.5933178258 31.6873689872
2773 1 52.820457049 26.1742241056 58.4647488483
2774 1 16.585459058 58.3816481686 26.2137261893
2775 1 19.4979623164 39.9868445458 35.1380954506
2776 1 22.7565038276 41.0995158296 47.3210062232
2777 1 27.8094348042 58.6543003283 12.6985710694
2778 1 29.8188326478 26.7525346103 47.6613093587
2779 1 42.9946794995 29.2987511404 26.1672600346
2780 1 51.234404499 55.5146747192 57.458645408
2781 1 54.3529623301 18.7796096099 55.308854233
2782 1 54.2505495206 11.4022589878 40.3190131782
2783 1 28.8869931247 25.7859917753 24.622523738
2784 1 6.8257641053 21.4213334 7.2754909386
2785 1 22.9386815853 11.5114603035 49.3475508972
2786 1 48.3357708611 46.9857944673 37.2951433047
2787 1 60.7820873796 48.5293603318 5.63153126
2788 1 26.2857662855 47.1609496323 28.1346393655
2789 1 51.1579167607 26.6769832178 60.6350811068
2790 1 11.1447639239 50.698112507 4.3831717819
2791 1 11.2706438972 15.4917487743 36.3620163063
2792 1 50.7945561127 54.378185142 21.8386509683
2793 1 55.5918061952 23.4719304539 49.1335373861
2794 1 13.8885493939 43.5566039547 22.2338473697
2795 1 28.8464961738 3.9451492696 26.078658324
2796 1 46.6982778199 39.5928770982 34.3745640647
2797 1 4.1300424298 34.5009707324 8.9324424136
2798 1 16.1465470174 30.6023199011 40.8269807132
2799 1 52.5409578616 31.7760292194 22.3290035001
2800 1 27.3088409914 13.887203397 35.2159291858
2801 1 37.6951384777 29.712908542 13.8587618968
2802 1 5.2020997194 39.8524789398 55.3776171194
2803 1 26.5069194324 18.0599694281 4.8797217517
2804 1 6.557717596 37.1450939084 33.4244072792
2805 1 7.996500526 51.4440288896 34.3953392346
2806 1 39.3953081583 61.0202703137 34.2052025386
2807 1 15.4980691077 57.5581906588 56.255675287
2808 1 45.473947313 29.6554403255 15.7007879489
2809 1 42.5655990886 47.0072133749 48.7049251481
2810 1 18.0047250326 10.3436616674 42.1005278903
2811 1 38.2221840561 22.222962351 4.2145417759
2812 1 3.9968414037 27.1911540429 3.2703140482
2813 1 39.5560084868 34.9427503317 26.0210145426
2814 1 6.1952932936 44.4487073077 6.6261995786
2815 1 9.0924697436 5.9744795721 45.5037933317
2816 1 55.6059684237 52.3540983755 26.9890204178
2817 1 6.0286296135 52.8803246514 45.0186492228
2818 1 23.0461272528 8.3595510095 31.4965885535
2819 1 53.0499787855 33.3722060071 58.3110125909
2820 1 39.632496225 57.7129217835 24.2086589445
2821 1 20.6339251991 46.3822026291 45.6985532346
2822 1 6.8350222232 6.3394729729 59.7767447202
2823 1 31.2793563542 54.8994370815 19.1101396373
2824 1 31.5681019553 50.7435837944 36.1878560086
2825 1 52.775219848 8.5412254813 5.8032160938
2826 1 17.3139945238 53.2934871856 60.6006704028
2827 1 51.0862277941 59.6384581666 14.0458554693
2828 1 27.2773563677 59.742509581 55.6328883622
2829 1 47.7185434888 42.9871302124 49.8659352779
2830 1 26.4763126328 10.1916225365 25.1603958134
2831 1 25.634011166 33.1686093419 16.8072559425
2832 1 54.1063522849 54.2448729249 19.1038778255
2833 1 23.8129358486 47.5635782776 41.4776239222
2834 1 55.3790801595 58.2623811368 6.8376264347
2835 1 32.2177502971 25.2190929836 40.2064176094
2836 1 23.962224464 39.5836892061 15.0867207432
2837 1 17.6786426472 28.0027316669 5.9048505659
2838 1 52.7223748384 42.8101608776 27.8166914833
2839 1 60.0289728395 39.398760933 54.2571039404
2840 1 24.6277321609 45.3886813339 43.1388767352
2841 1 3.3726101656 45.35099342 6.6526454921
2842 1 29.0438310272 17.9275935566 16.8286163285
2843 1 56.2544463333 15.5286759074 13.3698724051
2844 1 38.6560632386 29.665740128 5.3857639259
2845 1 21.7443141403 6.6144250316 25.8127946706
2846 1 5.5140783979 59.7136584295 57.603252295
2847 1 18.2743340687 56.1516238726 45.8283541554
2848 1 59.1885440641 52.5574609543 56.3727184979
2849 1 26.6842398968 45.0913915784 26.2909161868
2850 1 7.0814391472 22.3793906023 50.1883308022
2851 1 55.7014171621 38.6569410627 33.3630181151
2852 1 60.0334204815 27.1142566534 8.3368738874
2853 1 30.659436988 10.5002654835 31.5716717732
2854 1 41.1216369965 11.9156105105 45.5358046499
2855 1 20.8399212502 43.6066399273 23.8736812751
2856 1 45.8058233373 17.612220625 45.6455911817
2857 1 35.0693325642 58.7184400078 42.6138208914
2858 1 38.3121902852 49.9124014326 8.0472036449
2859 1 23.6264860138 60.4418427657 42.54669661
2860 1 33.7291878002 28.1658899028 18.5822747564
2861 1 22.3144316203 27.8846350671 56.3253159975
2862 1 44.7892445296 57.1490661153 25.6419701043
2863 1 5.703524539 12.8170187987 12.7519427735
2864 1 47.1332103914 17.4435028366 49.0704510955
2865 1 34.9219751618 41.2551247784 49.2295713406
2866 1 15.5777755343 15.4167240762 36.5092566655
2867 1 44.5559774104 4.8309791065 9.2268938712
2868 1 51.899736631 20.7379766136 39.7136656917
2869 1 36.883385289 36.7381931859 7.9345788153
2870 1 58.9431629726 53.2713660188 14.9967145141
2871 1 32.9153278336 29.5634443617 58.7910067985
2872 1 6.4639016103 6.6230218554 52.9525403125
2873 1 52.6427269334 24.4192196808 15.0723829499
2874 1 46.4688731267 35.7392293814 47.8924111785
2875 1 14.811786241 11.2808851781 48.4905019858
2876 1 45.7817709575 9.4046825085 40.0354174783
2877 1 33.4584668535 12.5543738336 24.5681571665
2878 1 22.4772387266 52.8006767464 57.4271022627
2879 1 59.4504282484 42.6496361139 24.3564259981
2880 1 25.5483940573 46.0824549661 36.6156489442
2881 1 23.276292727 35.538032102 33.7902843562
2882 1 56.2841753089 29.7435153416 12.7878165176
2883 1 20.8752097783 19.9326022798 57.1464326431
2884 1 45.1550630851 16.7059550435 51.138897239
2885 1 31.335595617 60.8936880812 50.7980088874
2886 1 11.6894245056 61.02378161 34.4913146675
2887 1 3.583376898 48.7806521055 11.0426437225
2888 1 26.2881656714 50.6702562228 51.3319600152
2889 1 30.0572496683 48.6011663417 21.2457685838
2890 1 38.3862786377 39.2564949102 35.706223196
2891 1 52.8202814842 5.5765092466 50.3665290907
2892 1 7.8283855101 7.1524141502 23.1747577416
2893 1 11.9968384988 21.638916729 5.1775850189
2894 1 8.7863081127 6.0986741231 54.6671648296
2895 1 40.2356784121 13.0257068437 42.9078919586
2896 1 8.7087377247 47.0695388847 34.3641472189
2897 1 9.9982671522 14.6911146906 17.0673844786
2898 1 55.7622796318 56.6810688368 56.5500974839
2899 1 3.682944387 23.9443168528 7.0475961028
2900 1 21.9826726392 12.2820728036 32.9370393492
2901 1 24.7969766437 25.3268312592 28.8795023592
2902 1 5.9660524609 41.4596577894 57.7015685921
2903 1 41.3489934335 41.8891478515 51.1929126808
2904 1 55.3070985848 21.2829298032 6.5011915773
2905 1 48.4714824641 53.7093417137 7.4513073977
2906 1 52.0907511511 47.915176083 58.9716629944
2907 1 41.045324823 24.425715579 56.2351927251
2908 1 3.65174886 14.1612015536 8.0586446187
2909 1 52.4878202438 15.1120020768 7.8502199211
2910 1 37.8699425131 57.5459596433 4.6709166635
2911 1 58.2347004174 31.3694796265 23.6658125326
2912 1 41.4184585792 7.9861363496 8.6312902321
2913 1 28.9870065484 8.6437845948 20.3008787427
2914 1 14.0617148244 41.1905754477 38.9268427069
2915 1 41.944099639 12.2581959886 9.7077659029
2916 1 25.8177104854 25.2034677149 6.2238810979
2917 1 28.6102444527 41.8628131291 30.4547284123
2918 1 12.0962667064 19.6859922346 26.0793020616
2919 1 25.1236442452 60.029499534 16.8887180173
2920 1 23.4789530465 48.3966918523 54.5002612109
2921 1 11.7550857468 30.0003081462 8.4427043586
2922 1 6.1306912934 60.3865398486 38.4946021293
2923 1 27.3482845535 38.8165880023 22.8953170757
2924 1 22.9473427829 22.3462088521 6.0475847615
2925 1 29.6570204088 30.1779212186 27.3613348715
2926 1 14.9177103468 16.6416983208 50.5355394871
2927 1 31.8406370717 40.9971030202 42.5835066998
2928 1 31.3167516601 47.6541697228 58.3750937488
2929 1 55.8610641017 30.5598917372 20.6503112487
2930 1 5.5145407186 22.4463978405 28.8048287907
2931 1 37.052161599 36.7095761209 58.2310135563
2932 1 31.6097108168 44.8341306009 51.2673521629
2933 1 4.1057793722 41.4579021412 22.412806439
2934 1 15.4451655764 12.2608294609 24.7130566616
2935 1 17.4162317685 25.9574015575 35.1498582933
2936 1 31.1037330163 20.8424962009 7.4722522803
2937 1 43.9968619922 14.7224237495 14.9841908906
2938 1 48.4773346246 55.0724269471 55.1644229108
2939 1 6.6657426274 16.2389526323 15.7644594556
2940 1 36.6470750463 50.0924138909 14.1320577941
2941 1 52.1047378148 35.8031934962 14.2973813294
2942 1 6.6588838952 42.4431133684 60.2866434682
2943 1 41.9277721111 53.5159278078 34.3559541942
2944 1 3.2611699889 23.4792456545 12.0476937739
2945 1 21.9584446946 16.3530697629 24.1484987341
2946 1 12.3473829153 41.5328683178 14.1621964209
2947 1 38.4144860515 26.9698838529 52.6427269334
2948 1 4.8030994137 44.248738982 45.6182030703
2949 1 7.4738499201 49.6316147698 55.129251426
2950 1 28.8769274086 42.6290950304 38.835022308
2951 1 38.8522861816 7.3697107233 39.5553062275
2952 1 6.3697754602 53.3944954766 47.7418350877
2953 1 6.428419961 30.7945048533 3.5336077839
2954 1 55.9083495589 57.1373032726 43.4281490308
2955 1 41.7474085232 46.7079338848 57.9088521185
2956 1 41.0104459462 9.2157162446 14.1715598777
2957 1 27.8372910884 25.0310045438 27.1139055238
2958 1 16.0279822448 48.9408257395 52.5320040559
2959 1 40.7347506631 10.4869810791 11.5926297702
2960 1 7.4049816949 42.4632448007 10.9449126414
2961 1 13.2645335154 36.1755664714 39.6354808269
2962 1 37.1226216119 35.6550167912 28.554883014
2963 1 58.0305185361 9.9575361148 26.8143334257
2964 1 43.7564552372 57.9255892976 21.3981003227
2965 1 14.1362713497 44.033086866 28.3052298453
2966 1 8.6285865339 22.183811397 40.2560439308
2967 1 8.2670459078 56.2782061051 19.7524727784
2968 1 47.0374105233 39.7482519606 47.8915333544
2969 1 7.5887336837 35.4920341202 27.8422654248
2970 1 58.1075329689 9.2867614735 51.8983321125
2971 1 4.4319378357 58.9505366949 34.2180187702
2972 1 16.4906540572 39.4561121063 6.4385793117
2973 1 10.0830064369 53.042780628 25.9664724064
2974 1 28.6457085456 59.4767629708 44.8965146323
2975 1 14.7297974718 37.7981950248 26.152219982
2976 1 58.8353076538 60.0015847282 18.3478957267
2977 1 20.3348797955 33.714381834 42.2034088726
2978 1 10.6959032104 26.7549339962 43.6873412212
2979 1 13.0410980259 31.5930906808 46.6820673352
2980 1 43.3867742558 22.5783055391 43.8992479544
2981 1 22.58380657 31.3887332347 54.4179213121
2982 1 60.6443275205 39.5551306627 21.0559244958
2983 1 20.3408489992 42.9327636409 20.0121916632
2984 1 30.335227294 30.680797374 41.3391618038
2985 1 28.7979232413 26.6866392826 45.0615455596
2986 1 6.0806436164 50.164336944 11.0158408272
2987 1 24.8950003328 38.3701266746 43.3647701321
2988 1 25.4246208618 61.2327037414 10.3510939113
2989 1 37.4234811853 20.7928698795 45.7333735898
2990 1 21.0620692644 16.1727646966 13.3783580379
2991 1 11.1136304299 5.2729284185 57.2314645358
2992 1 15.7680292735 15.771365005 5.7988796428
2993 1 42.1873154311 16.3399609233 13.4877349184
2994 1 22.6397532248 46.3034325482 35.9969585317
2995 1 19.8644246095 28.5569897918 53.4136905632
2996 1 42.537801326 60.3205859993 3.7412992058
2997 1 37.1238505656 43.1803100319 58.8563754318
2998 1 21.9635945958 43.596457168 32.4681642466
2999 1 17.2889472767 45.377094056 56.8259683318
3000 1 26.5682500749 27.4519848383 23.7126298169
3001 1 16.8907077518 17.6681672798 18.9729064726
3002 1 61.2474511859 51.3432546851 4.9139451865
3003 1 54.0187454416 61.54614546 54.5314532266
3004 1 57.7791682409 20.292685718 40.8939879514
3005 1 17.0076924411 14.5914523966 24.0140746064
3006 1 58.2227620099 41.9886345807 51.326810114
3007 1 19.2790915121 54.432025019 55.1666467318
3008 1 34.3071471753 43.0400922653 9.2212172755
3009 1 21.7399835415 26.1960526644 6.3246962675
3010 1 55.7777293356 33.6434536482 10.1072929031
3011 1 38.5766494201 33.941445663 41.412255289
3012 1 17.5164792786 24.797678903 51.7383925649
3013 1 57.245217113 56.9887754381 37.3477542279
3014 1 50.6069943673 15.7329748319 35.6361728343
3015 1 39.8824420018 34.485462507 28.9896985422
3016 1 60.4878992692 11.972786119 9.0190777982
3017 1 15.5857344726 6.5036319282 51.9484266067
3018 1 24.2251620372 29.6706559429 38.3153504519
3019 1 32.3764608909 29.6237801369 61.5460284168
3020 1 45.336011889 17.1008588369 22.5973835825
3021 1 51.0544505624 47.1875769628 22.8508991772
3022 1 24.9577940154 46.401631802 57.9688952856
3023 1 42.6692408517 44.8355936411 7.92738651
3024 1 55.4507106045 31.1766509367 9.0708928276
3025 1 22.9350532458 36.3409485283 6.435565449
3026 1 57.2757068695 51.6766522712 31.8645138868
3027 1 34.1521234425 50.2043072005 30.536190487
3028 1 35.9045529167 19.1765616594 11.2862106442
3029 1 43.8481000713 33.5032358817 10.8166332824
3030 1 17.5031948741 46.6566104369 48.8674396463
3031 1 35.5796409635 11.6881370302 50.8261577796
3032 1 26.0748544196 29.1450734046 18.5043824996
3033 1 42.6058619531 39.3470278338 17.7924671697
3034 1 33.5474196937 37.1008515747 12.1258786388
3035 1 4.8379373254 54.7266227807 4.9181294813
3036 1 20.3696416291 54.4714100595 36.136181431
3037 1 30.3913495136 7.6188489019 26.106982781
3038 1 51.7690578861 44.7269190198 14.8491230253
3039 1 22.3134952746 51.3996109911 18.4816175951
3040 1 11.517019856 7.2585430816 7.5610588165
3041 1 26.6984606469 58.2623226152 30.7558805937
3042 1 16.9301513139 58.8289873204 44.0410458043
3043 1 9.3644781655 23.1437412907 16.0717564056
3044 1 33.8998368016 9.8725627438 21.5794002563
3045 1 49.2171647603 35.5104099043 11.1287875257
3046 1 32.2775008562 56.4360388749 29.3367316624
3047 1 17.927535035 34.7311947281 22.3985856889
3048 1 20.6978307923 12.4096499034 45.3384112748
3049 1 41.9724826176 10.1411769126 26.8524895124
3050 1 42.4925056034 15.3781583382 6.5575654398
3051 1 61.0300434218 20.9867519582 4.4388609416
3052 1 48.6684661879 43.3665257803 54.8155756209
3053 1 34.5316945753 49.1036913674 27.8814749005
3054 1 6.968176432 47.2559887195 40.0805376361
3055 1 56.7670955968 24.147328302 26.8123436911
3056 1 16.4718686219 54.6743044654 10.9285851135
3057 1 11.3578410893 23.5247754636 55.2627977295
3058 1 50.1655658977 58.1060699287 56.839135693
3059 1 48.0354379821 43.4162106233 37.4021207994
3060 1 55.3265862794 8.5889088854 4.7144742945
3061 1 21.4444494342 6.7980775337 53.723094291
3062 1 12.3778726717 52.9459858927 34.8730510997
3063 1 40.3282595918 26.7013282056 27.2728502041
3064 1 13.4726948658 58.727159727 15.7722428291
3065 1 13.5123725143 35.7199757733 27.8780806473
3066 1 4.2199901373 19.3668153987 16.1229628104
3067 1 44.3660748008 8.6076943208 59.5194252212
3068 1 25.7959989698 51.4626387601 23.4194365738
3069 1 26.116170673 47.2677515622 8.6734550488
3070 1 24.9973546207 43.8320651514 59.0490285568
3071 1 37.8769651057 32.9083637626 53.6590131331
3072 1 38.0866480179 16.784783646 7.3254215723
3073 1 44.9938360621 27.2227557099 45.733490633
3074 1 18.614227553 50.8412563538 19.381153192
3075 1 32.641037069 48.219956604 39.6365927374
3076 1 29.0310733173 60.3017420424 33.3823302449
3077 1 23.6298802669 3.6291121178 40.1760448962
3078 1 42.0265565811 56.3170644511 16.8912344463
3079 1 6.2191057349 33.4153364303 10.4774420574
3080 1 36.8401378225 47.6995824886 7.1179390725
3081 1 56.8953749558 41.4679093357 47.4162793968
3082 1 41.6005778152 23.9729339178 34.7824011329
3083 1 40.2211065323 44.1106279932 29.274640239
3084 1 33.115647289 51.8683690505 21.1433557743
3085 1 30.3462293558 20.5262454452 47.6224510127
3086 1 31.0154824354 41.9175308302 11.1476900042
3087 1 10.173597882 59.9222294312 47.6798607076
3088 1 14.1427672479 24.1675182559 9.2439236584
3089 1 57.8960358869 39.9093619403 17.6060758565
3090 1 19.1159332762 6.8258343312 32.8127979809
3091 1 18.0011552146 54.5751103443 22.8101681398
3092 1 16.7326408956 24.9393011881 44.8211973262
3093 1 4.7796790672 46.1342465869 10.5925540552
3094 1 12.001403184 11.0528850034 23.3233440977
3095 1 42.5157386807 11.5512549952 23.3395545824
3096 1 16.0429637758 51.8707684363 35.3563225172
3097 1 59.653673784 59.7844695721 47.1308695272
3098 1 48.4730040258 26.5831145627 59.6186778639
3099 1 6.6801506467 32.8717877592 28.3607668488
3100 1 22.4103485316 53.5351228944 49.2491175568
3101 1 24.9470845616 16.9010075544 58.8178096938
3102 1 30.3171441179 9.1394040711 39.6910763521
3103 1 3.8950547754 34.2793494127 21.2214235959
3104 1 5.2817066593 11.2306151191 45.0657591152
3105 1 22.0213554204 15.8389574593 45.9929754314
3106 1 42.8129699146 24.1833190893 47.423360511
3107 1 31.2524949373 5.0286358288 54.1965926004
3108 1 40.8019334661 35.4480258729 17.9669200755
3109 1 60.306540814 33.221981046 4.2227757657
3110 1 52.6905976066 33.3963169086 55.3616407211
3111 1 36.0806444274 31.3626911203 58.3382251374
3112 1 30.9526302311 17.1812675227 56.4833828537
3113 1 46.9896568933 41.1559891789 29.635777066
3114 1 60.4458807565 41.8155276719 32.4995318271
3115 1 59.9994779504 17.4207964537 43.8394973953
3116 1 7.8449237158 30.7860777421 12.6551480382
3117 1 9.3241567794 40.1342019483 21.8610647431
3118 1 14.207258057 19.938512962 6.175150157
3119 1 51.2641334746 55.588119334 54.762028352
3120 1 6.3691902441 34.499098041 43.8100025061
3121 1 17.065394744 10.7063200562 22.6798990461
3122 1 26.5783743126 47.8558351751 38.8485407989
3123 1 9.600671365 19.8979574894 55.0908027312
3124 1 38.2214232752 15.0331149527 37.8546683741
3125 1 4.4474811741 18.9434701051 12.1235377745
3126 1 33.7501970565 50.5418012989 43.8961463093
3127 1 30.9823592067 34.6434708416 27.3969745292
3128 1 62.0077638835 12.387762823 21.9214005183
3129 1 31.5294191741 21.9565720032 44.1277748236
3130 1 20.5607731924 52.0408907433 52.1207142131
3131 1 44.7361654335 31.8946525135 6.4524840451
3132 1 33.5529792463 19.5990291289 60.8526644358
3133 1 50.6020200309 25.3603641391 33.9138234653
3134 1 16.1483611871 58.9989925842 58.5591441979
3135 1 30.9023601721 38.7973929157 7.8175239001
3136 1 55.3923060423 50.2670423615 11.4654623216
3137 1 37.4978621458 21.656122081 20.8177415618
3138 1 28.1131034147 17.0251318795 43.529566973
3139 1 8.731385586 36.7837815165 51.6083575576
3140 1 24.7350022636 23.1111447565 34.4484183307
3141 1 56.7960052699 57.6201065173 21.379666017
3142 1 45.1705713105 36.7819673468 19.8650098256
3143 1 15.0674671351 16.0082019421 20.6851316039
3144 1 32.400337706 13.0161093004 17.7835133641
3145 1 16.8645485942 28.5170195353 18.8793889471
3146 1 36.8461070263 29.5193190713 11.1531325135
3147 1 10.9433325581 50.5839953764 54.0181017039
3148 1 41.1197643051 57.7976025466 14.4807880408
3149 1 10.3410281951 33.6628828212 40.0959873399
3150 1 61.5205715184 34.8467748988 32.3261323103
3151 1 18.6692378621 22.1968031934 24.0717183878
3152 1 15.2121910653 59.8402406621 28.1763067485
3153 1 21.3367111586 7.6951318145 45.819517393
3154 1 45.1521370048 56.3172985375 7.9757780255
3155 1 28.4807946615 59.4763533196 23.1805513805
3156 1 26.033713731 31.8811925443 41.8882700275
3157 1 6.3605524552 24.8708894314 14.2383915511
3158 1 35.1603921823 29.0738526108 61.440104311
3159 1 13.9310946011 40.1875151308 24.8006049833
3160 1 17.1681001615 41.286784967 29.3572142243
3161 1 21.4619473942 22.2086830793 61.2278464481
3162 1 31.2653111689 21.4062348258 41.2917593034
3163 1 50.7057788373 7.2516784973 38.1007517248
3164 1 38.4800302496 54.7306022499 5.9694993834
3165 1 55.6843288533 6.6235134369 14.2258679276
3166 1 10.7904741247 54.2607908016 32.9154448768
3167 1 45.5996517214 59.0812154398 49.8895194849
3168 1 33.9594117959 27.3986716558 9.8133388791
3169 1 57.7233386293 36.587500052 10.9851169844
3170 1 25.3360191512 43.1451970686 36.7686244207
3171 1 10.117241576 37.0766821516 48.9825516442
3172 1 34.647859962 56.2511691234 14.4460847287
3173 1 24.7273359333 45.7047565247 33.9136479004
3174 1 25.372536633 50.8826311289 47.6683904729
3175 1 33.072926517 38.316520884 53.2485425927
3176 1 58.530351568 33.16562474 52.2055705409
3177 1 17.5468519918 52.8643482531 33.2919728861
3178 1 41.079442919 30.0038779641 53.1766195396
3179 1 39.0510255536 38.9594392411 38.6222962723
3180 1 31.0804414174 39.8449881743 45.0947858315
3181 1 41.8470122956 51.2700441567 23.0012411815
3182 1 39.4199457542 34.1667538439 9.6154773312
3183 1 15.7304584028 55.9875878126 38.372584582
3184 1 38.3093812482 38.3947642705 24.983953173
3185 1 51.2670595548 19.4115844268 25.800856263
3186 1 17.802064713 42.6945221853 55.7345403908
3187 1 42.9585131473 34.5266031956 40.411594358
3188 1 27.7781842669 27.6858956951 30.713862081
3189 1 56.9653667959 15.3951296038 35.4529416877
3190 1 53.0519685201 12.6224929823 23.6531718658
3191 1 35.3657444957 20.8654951918 49.2473619087
3192 1 59.2831149785 7.2701186552 37.147668859
3193 1 25.3067583485 15.2012475251 61.0861656414
3194 1 6.6044119849 27.219771108 27.8000713473
3195 1 22.4211750286 43.4395022222 21.6278561456
3196 1 54.4463042907 9.2963004952 38.456680129
3197 1 37.3562398607 51.2549455825 45.6314289532
3198 1 50.8526095453 4.8629201988 6.6724199426
3199 1 56.201250194 17.7808798918 9.3517789772
3200 1 50.0052752204 41.2555929513 60.5645625723
3201 1 5.8125854028 35.9330529386 29.8967249046
3202 1 26.9866795536 44.5696714661 52.2597615475
3203 1 6.5218789648 9.0153441198 54.6026154988
3204 1 61.1612488611 39.9993681694 56.6972793215
3205 1 33.7479147139 52.0977152221 40.7059580332
3206 1 54.7277932128 29.5588211549 33.8485133536
3207 1 17.2070170291 18.7531578442 23.8114728085
3208 1 13.3275612844 55.5649447783 12.9747930469
3209 1 13.4906609987 22.3127344938 48.4284105625
3210 1 12.6824191063 56.3206927907 35.8651678763
3211 1 34.2378575945 27.1723686076 44.7709857887
3212 1 14.1278442385 28.1708057176 18.1707508271
3213 1 6.1347878058 21.3874493905 41.1789881698
3214 1 8.0877883782 40.3711559286 16.190496743
3215 1 14.7845151729 9.1610570651 27.3527907171
3216 1 8.0154030045 50.3281389175 26.446759222
3217 1 53.5884945985 11.1601551062 53.4627316685
3218 1 19.8589235786 41.8797258731 32.0310078542
3219 1 15.6083823339 31.6843258637 34.6390817212
3220 1 44.8546131628 39.6858094076 19.7573885932
3221 1 12.4118152028 51.1642370941 18.8371948696
3222 1 22.1505126035 12.9829860717 43.1246559851
3223 1 11.4853596675 32.5236427286 60.5774373255
3224 1 46.9647266894 24.147035694 8.0603534496
3225 1 25.5051465909 8.0320641056 32.597438473
3226 1 48.5015625692 55.812374126 60.2325109832
3227 1 28.9935609682 29.1526812133 58.7091350725
3228 1 26.2087518528 37.4709422073 41.0235547858
3229 1 39.7339141672 33.3667049762 21.8010800976
3230 1 10.4185108007 24.1041393572 20.837287778
3231 1 11.9420622761 41.9697321022 28.2326630546
3232 1 61.4943538392 58.2478677786 36.6137177312
3233 1 44.5604250524 44.5487792529 40.9041707108
3234 1 38.0443954188 3.2836612463 13.9251839189
3235 1 49.8236241572 44.7771305573 8.2702704483
3236 1 3.3782130241 59.5218831286 4.9220328724
3237 1 18.1322436108 20.2210552729 18.2594110593
3238 1 48.216386786 57.0979767538 19.3417096299
3239 1 14.4435682997 61.2717961738 14.8099720712
3240 1 19.9084328568 19.6859922346 24.7792445973
3241 1 9.127114534 61.2279049697 35.8476699163
3242 1 59.0779967515 57.0058637469 18.9244505833
3243 1 10.7158005562 28.8981707514 4.539559068
3244 1 37.9848204245 15.9077788673 10.1620106042
3245 1 43.5233636828 4.7501198043 54.0653286395
3246 1 59.8733638907 12.0272697336 13.5511138171
3247 1 20.0479483641 4.5418999322 54.6775231537
3248 1 8.5192155055 43.1843480226 43.7784008392
3249 1 46.6158793995 32.5966191705 10.2346359165
3250 1 25.4338672755 37.7994825002 57.0415034046
3251 1 36.4286138933 54.1560371279 18.0871819746
3252 1 13.0986832856 9.993702467 36.4588695633
3253 1 38.2778966244 30.8713437212 49.1993156706
3254 1 14.351572336 24.4910842122 16.8131081031
3255 1 36.2363118979 46.6641012023 39.8591504028
3256 1 60.9712292083 16.606819444 36.1046382857
3257 1 34.3953977562 11.4015567285 58.6421278343
3258 1 40.2927369774 42.1936942861 33.3959072573
3259 1 17.926949819 3.2787954089 15.9346988057
3260 1 17.6470409803 42.6453640367 33.4269237082
3261 1 58.9669227444 34.2498545236 33.856472292
3262 1 34.0006110061 54.4717026675 58.789309672
3263 1 33.8083675323 28.9707960637 32.7802014467
3264 1 44.955738497 12.0434802183 42.4638885383
3265 1 35.9755396241 34.4122519786 37.7873685278
3266 1 4.9753987244 26.189147115 21.6338838709
3267 1 50.3095875686 48.9988206505 19.1201468318
3268 1 27.771044631 26.0413215397 18.4631832894
3269 1 57.7268499256 43.7463895211 26.4915867718
3270 1 57.9023562203 29.4417779441 35.7838813664
3271 1 14.2749090329 38.2660752601 57.726791404
3272 1 50.2213369876 25.7466067348 8.6109305655
3273 1 26.199973612 8.5306857402 57.476435976
3274 1 18.9773541146 29.7439249929 37.3586392465
3275 1 19.5120660233 46.8062501819 6.8103963317
3276 1 16.1824792831 61.8357103636 8.0039503263
3277 1 18.8945460429 33.6484279847 17.8307988213
3278 1 46.4603289723 36.8349879213 27.8368814371
3279 1 10.6851937566 28.7463657069 17.1950786216
3280 1 37.8249393985 29.1520959973 61.3819338352
3281 1 46.7976475059 14.6797029776 52.6695298287
3282 1 22.1683031716 39.8597356189 49.804370549
3283 1 16.3853151675 10.7340007755 14.2013473749
3284 1 23.1773326922 58.9309904787 18.7474227269
3285 1 12.8782909196 27.278058627 56.2286383053
3286 1 53.511304601 5.5344614731 10.2839111083
3287 1 59.3525216025 55.3104343163 57.3667664875
3288 1 5.4679107034 56.185976055 29.7145471469
3289 1 19.1331971498 44.2201804385 46.3351512583
3290 1 21.2243496762 58.7378106592 52.2550212975
3291 1 40.1687882171 28.7989766302 38.1008102464
3292 1 31.8304543124 45.5415982888 13.7228162074
3293 1 49.0311830983 57.0066245277 51.9096853039
3294 1 59.5387958725 26.133083417 5.6535002707
3295 1 12.2718900443 56.0787644739 50.8987830919
3296 1 34.7428405276 34.4975179577 56.3765809238
3297 1 12.5280391112 26.1954089268 28.0242090961
3298 1 6.6619621317 58.0556243049 59.5885977588
3299 1 46.1100771639 7.9723545116 14.4275333798
3300 1 58.8225499438 49.2803095725 43.8311288057
3301 1 40.0907789171 6.9470384282 61.0061080852
3302 1 48.9490187643 22.0329426983 32.8524171078
3303 1 34.1737179149 59.5374498756 37.0058124875
3304 1 52.9540033526 44.121922663 55.1842032134
3305 1 18.8177656966 34.1119190996 35.6133494082
3306 1 40.2786917921 60.2893939836 50.8145119801
3307 1 5.10938394 23.9358897416 26.2926133134
3308 1 59.2930051298 46.910652726 11.4985270287
3309 1 27.4601193414 61.3158629427 8.4161706627
3310 1 26.8361619845 60.6802012646 18.9554085126
3311 1 45.0366153557 39.0396723622 6.3959638786
3312 1 10.2550599568 16.6639365309 53.8334075172
3313 1 50.279565985 4.9380970531 14.9065912418
3314 1 26.7402450732 33.9727547219 58.3173914459
3315 1 44.6319384542 12.5951633926 59.9966103917
3316 1 4.411537204 47.3095359885 41.4280561224
3317 1 32.3882822552 4.2010466936 46.7880499626
3318 1 18.1274448391 15.0740800765 18.3057016492
3319 1 23.6934347304 29.1906617352 61.2476267507
3320 1 51.3900134478 7.172165192 57.6281239773
3321 1 48.7159857315 16.1102051004 51.0284669696
3322 1 6.5196434395 9.1412767625 10.6288374506
3323 1 16.4753799182 37.8352392011 61.9182258272
3324 1 9.2647573499 29.9417280192 7.0371265875
3325 1 13.4199668994 21.8519353727 27.3952774026
3326 1 23.5057559418 19.5224828691 50.5042304282
3327 1 59.6046326786 23.1291694109 13.8791274155
3328 1 8.3571048064 52.2214884176 54.1821377639
3329 1 8.0098024869 11.1413111492 28.85802493
3330 1 55.1984824852 51.4725289115 24.1801589226
3331 1 21.5224587342 44.0102634399 58.7552500976
3332 1 51.3058008576 37.8519178586 16.1398755543
3333 1 25.2252377522 7.8144164029 19.1744548816
3334 1 44.4446107953 33.1236062273 49.2709461157
3335 1 32.2025932013 32.7116726468 47.7684038966
3336 1 34.8622831243 23.6388925941 28.064998655
3337 1 14.9816159399 39.450669597 54.3622087438
3338 1 15.0365092058 45.22523049 54.0419785189
3339 1 37.1168864946 8.3365578707 47.0599413414
3340 1 24.0469637487 44.7148050475 25.8755883532
3341 1 6.6049386794 3.560377907 27.3429590874
3342 1 21.4386557952 10.8175111065 11.9587409337
3343 1 42.4501359611 14.0491912008 52.2609319796
3344 1 14.969736054 18.6279216087 14.273563036
3345 1 26.7324031781 47.2441673552 60.0975601611
3346 1 39.9126391502 17.7959199444 42.1363431128
3347 1 49.6945840173 39.0740245445 56.4035593839
3348 1 11.0011519042 43.6103267885 25.9808687213
3349 1 41.6816887603 5.4818095847 17.0737633336
3350 1 14.7286855613 17.7560082095 60.5281621337
3351 1 56.456345872 23.8742079695 6.8860062459
3352 1 28.4885195134 55.3736961718 16.5931839099
3353 1 29.9231766702 12.7456809617 51.2562915794
3354 1 10.2623166359 57.1143628033 60.9328975568
3355 1 30.1983452589 61.5509442316 35.6722806648
3356 1 58.8231936815 10.5824298175 33.4714001283
3357 1 7.6455289018 29.0888341418 53.738661038
3358 1 45.4380150472 41.8214383541 16.236026552
3359 1 53.5183271936 17.7922330833 8.506873299
3360 1 12.2595419855 15.4642436198 58.9377204633
3361 1 9.0181297482 58.646926606 14.3759758455
3362 1 53.9112412524 8.049977569 56.9588708977
3363 1 13.1189317611 26.5149368924 20.0777358613
3364 1 52.5829178526 18.6551926768 20.349042024
3365 1 9.9793061521 3.5009656028 9.254516069
3366 1 46.8229288394 47.4145237486 51.3675411513
3367 1 58.9803827137 32.1427841205 41.3866228258
3368 1 3.1523137751 27.951700827 25.8354425319
3369 1 52.7324990761 33.2973568738 61.2015702473
3370 1 27.6765907599 7.0386422971 52.7631058757
3371 1 49.2988609214 17.7980267222 13.6985882627
3372 1 9.5268756206 3.6041596757 51.1016189763
3373 1 24.4549763817 4.5314187127 56.648998997
3374 1 18.1364571664 44.6620185594 26.5963989671
3375 1 30.8000644058 23.1836530256 46.5055076517
3376 1 14.4118495896 35.5541255435 20.6317598997
3377 1 41.4943611014 40.3957935245 21.2234718521
3378 1 24.4994528018 3.3203298894 60.9664304367
3379 1 41.1058946846 45.1881863137 36.2536342931
3380 1 46.8191249351 40.0165735214 4.3818023763
3381 1 7.5388323108 53.5947564103 56.5650790149
3382 1 10.1652292925 8.8717321001 9.5374680312
3383 1 57.9718798875 13.2438168671 20.3477545487
3384 1 41.8649784285 40.4825225437 25.1787715975
3385 1 32.8823801698 23.6587314184 14.4250754724
3386 1 5.8996714038 36.2328006015 3.9225131127
3387 1 57.8060296577 30.525949206 46.386357663
3388 1 58.7165673164 45.8883388009 23.110618062
3389 1 41.574652744 35.1153890677 43.9635046772
3390 1 30.5353126629 60.2950120578 42.8304093531
3391 1 34.8887934115 10.501377394 56.0768332609
3392 1 9.6257186121 42.6350642342 17.3606362433
3393 1 53.7606066401 27.1848922312 40.7908143611
3394 1 22.0114067475 52.9116337103 7.6174560877
3395 1 22.1419684491 4.0540228644 58.0411109467
3396 1 8.4548300353 50.7176002016 3.3820631606
3397 1 24.3564845197 23.9985078594 17.0577284137
3398 1 54.5227335074 46.6951761748 55.3237772424
3399 1 6.1895347676 35.0624855364 22.6618158701
3400 1 22.0009899017 55.579516658 42.8557492082
3401 1 14.8069289477 45.2364081166 15.8646484441
3402 1 5.6183229336 51.8479450102 26.17001055
3403 1 48.0322778154 53.4914072551 13.4684813102
3404 1 5.8724881181 46.0127557341 37.7979024168
3405 1 16.9455424961 28.025555093 47.7840291652
3406 1 28.3226107621 11.0978295964 28.243723638
3407 1 41.4181659711 20.040106469 25.0204706548
3408 1 18.4654071104 7.018077805 48.0737696336
3409 1 9.1450221452 31.8252458895 18.3529871064
3410 1 15.0785862401 8.2939424376 15.1952783213
3411 1 18.1188421631 20.9470157881 5.7852733696
3412 1 35.4077044867 46.9373970996 29.7123818475
3413 1 8.5183376815 28.9879428941 24.6402557844
3414 1 24.3607565969 4.6931256128 45.8199855658
3415 1 21.6533130439 61.1817899446 9.3870675052
3416 1 22.8834371898 48.3326106944 7.755695824
3417 1 46.1132958522 33.9970997098 19.9685345456
3418 1 56.5633818883 6.2007299508 3.9345861199
3419 1 49.1987304546 6.7008029212 16.7589170964
3420 1 58.4441492432 25.5462287579 35.3471346251
3421 1 49.3854143759 40.9509294735 50.2947230808
3422 1 9.6424557913 43.0904208459 52.3800234467
3423 1 26.8880706485 5.2015964336 54.9724135234
3424 1 9.5555512072 16.8500937577 15.4627220581
3425 1 48.0707850318 43.6429233227 17.962238347
3426 1 34.362216006 48.888097773 7.1028931677
3427 1 9.9700597384 23.6487827454 52.6549579489
3428 1 46.5068536486 38.0469703695 13.1728886813
3429 1 40.8502137906 40.1695489979 13.545495743
3430 1 61.0028308753 22.0526644793 46.7839534502
3431 1 31.5022651492 25.7452607379 59.8697940728
3432 1 10.5958897867 40.5508172572 45.1015743377
3433 1 46.3214572026 30.442907048 53.6217348704
3434 1 39.7312221734 4.2942540546 5.2267548718
3435 1 3.7114245115 57.0476481731 45.8470225475
3436 1 22.2648638205 48.5954897459 37.5112635935
3437 1 54.893877529 46.4995384479 16.2951333735
3438 1 30.0035853561 58.0500062307 48.0632942663
3439 1 54.9655664956 61.2502017014 23.6933762088
3440 1 42.9878324716 49.9214722815 49.3181145296
3441 1 17.1535868034 22.8849002299 41.0604819188
3442 1 18.2141738584 34.2285526592 28.2021147765
3443 1 61.5045951201 21.0275415172 39.7028977164
3444 1 40.4825225437 50.3714449055 16.7473298186
3445 1 17.6646559835 27.3122937662 8.6814725087
3446 1 39.0380337572 48.5729589278 42.1307835603
3447 1 14.9947833011 20.9365404208 46.3374336009
3448 1 50.116875922 59.2289824935 48.5344517115
3449 1 57.2460364155 35.6044541242 22.7939576551
3450 1 30.7195971984 46.7177655145 41.2294337937
3451 1 25.9059025448 30.5787356941 14.3283392586
3452 1 4.8668704071 44.7145709611 27.9541002128
3453 1 17.7080204931 30.8379864061 24.0634668414
3454 1 23.9593569054 20.5784467172 8.0190547527
3455 1 19.1705339341 50.2388349477 59.4248543068
3456 1 40.7035001258 32.2501712665 46.7356146042
3457 1 11.5754829398 38.086940626 7.1125141196
3458 1 14.9451569797 49.3598989559 13.7040892937
3459 1 47.4440771593 54.6348023818 52.7192146717
3460 1 47.0854567614 25.3105622529 61.8111312893
3461 1 50.5978064753 34.3154572432 4.1857784068
3462 1 57.4798887508 39.6493504474 56.8030863841
3463 1 21.0483166871 52.9088831948 46.638936912
3464 1 45.0968340877 48.1390212237 14.0533462348
3465 1 11.2357650204 52.2206105935 46.2247209889
3466 1 56.9591635058 8.649039835 37.6284238475
3467 1 39.5375156594 25.2034091933 11.7416257776
3468 1 58.1638307533 23.2196438129 40.2929125422
3469 1 58.627790041 39.4454611741 48.2495685363
3470 1 24.3226590318 57.0832878308 31.9784554525
3471 1 27.5883401789 16.8395013471 35.4112743047
3472 1 52.5829178526 45.5314155295 21.0968896196
3473 1 54.609111397 58.2396747539 9.6300492109
3474 1 22.5690591255 38.5158454721 37.6240932487
3475 1 11.5702159953 36.1400438569 20.8731030005
3476 1 3.6616893399 24.517360413 51.4698954392
3477 1 27.7228228282 49.9607988003 35.1922864572
3478 1 30.188689194 17.1809163931 4.1794463691
3479 1 4.3849215779 5.0867302265 10.654879565
3480 1 6.6445343976 37.8293285189 37.4164585927
3481 1 47.392812233 20.0128939225 13.6087575984
3482 1 27.8121853196 48.3661435743 10.8015932298
3483 1 27.9367778176 29.9059127967 16.4017597386
3484 1 4.713034663 40.4073808024 48.8707753778
3485 1 39.3761715933 31.5353883779 19.3346285157
3486 1 21.6774239453 59.8662242549 28.7817127566
3487 1 48.4687904702 11.5997694061 26.4093639162
3488 1 41.3250580969 37.5851178595 19.9863251136
3489 1 3.3271289296 33.3197121271 57.7916918644
3490 1 54.3063206106 17.8828245285 27.87234553
3491 1 53.6814269079 49.4403661633 55.3188614275
3492 1 53.9692361634 23.5226686858 37.9155308437
3493 1 19.3161356884 18.2742755471 55.2485769794
3494 1 17.1771710104 35.3774488167 58.0182875206
3495 1 21.9844282874 31.0632360654 39.5288544618
3496 1 6.5742382452 35.657123569 7.7393800004
3497 1 6.6909654393 19.3747158154 52.4980030032
3498 1 20.0791403798 12.1805378182 3.9844406755
3499 1 53.482980144 43.5277528032 25.2226628015
3500 1 50.7367952882 26.4551863332 23.9197963001
3501 1 52.3428622272 10.7153323834 59.6965115991
3502 1 30.4700025513 19.7786904576 4.9387056778
3503 1 10.5035426934 9.7529445823 12.0650746907
3504 1 45.5093528843 8.797257505 43.7189428881
3505 1 6.7595527609 9.9307917412 42.8602553718
3506 1 7.8383634438 32.8374940984 51.3050400768
3507 1 17.6448171592 24.2838592074 8.5242659201
3508 1 27.3292650317 14.4393547441 46.4754275465
3509 1 42.2764438362 25.7795543987 36.8430053812
3510 1 61.0960557927 36.6446171388 16.8705763196
3511 1 54.9461958442 21.5677544568 45.0865342851
3512 1 55.6809346002 58.6894132915 49.7532226659
3513 1 53.6086260308 48.7911859944 15.2604713897
3514 1 10.0444406989 7.9711021492 3.9399701076
3515 1 21.9331048394 13.6573890525 12.6061069328
3516 1 14.1330526614 6.9999595159 48.380130238
3517 1 58.2828051771 54.2889982154 37.4593549295
3518 1 11.2420268321 57.2167170912 24.2326528027
3519 1 10.1257857304 54.3590485771 53.8300717857
3520 1 7.4896917187 38.1807507594 55.1471005156
3521 1 43.607868881 10.44145127 6.1161428223
3522 1 52.2796003718 36.1951126876 9.7625421256
3523 1 10.3602818033 44.7994272889 14.7063888296
3524 1 4.1408864833 52.2388108128 20.6805669187
3525 1 4.2438084307 13.7410749483 46.9658971215
3526 1 61.2409552877 5.2421519062 30.826282085
3527 1 10.9586652187 14.4227346082 27.0247771187
3528 1 26.7170119959 29.5429032782 47.2547597658
3529 1 14.6547727737 31.5997621439 53.027799097
3530 1 5.1858599739 31.0828993248 57.0104284321
3531 1 47.478838993 5.018107792 4.1358536252
3532 1 56.3109782042 19.6377704317 43.1602371212
3533 1 4.5140612045 43.7543484594 38.0822003759
3534 1 55.4538122496 16.9509850054 43.7655846076
3535 1 32.5567074356 14.8370675745 13.5537472893
3536 1 47.6929695472 46.1389283153 34.5763465602
3537 1 60.344813944 51.8131831766 22.196861715
3538 1 56.9303708759 12.5457711576 5.2370312657
3539 1 33.846231011 9.8193666045 35.4402424994
3540 1 59.1731528819 53.9276273019 59.9859009379
3541 1 28.3129546972 15.9582830127 22.6635129966
3542 1 35.2644435967 47.7681698101 25.4420017786
3543 1 61.445429777 24.5070020889 61.9229075556
3544 1 48.8964663626 24.249214417 30.0596490541
3545 1 28.1744340572 39.368797871 45.0851297666
3546 1 30.4704707241 26.068709651 18.0698595794
3547 1 21.4974114871 36.615531901 53.3535303528
3548 1 35.6800640384 32.1549566144 43.0897185867
3549 1 24.7673061898 29.5821127539 32.8122712865
3550 1 6.8738220476 8.2170626046 36.0272727233
3551 1 51.5218041032 12.1025285182 42.9570501072
3552 1 30.5595991292 19.6114942309 59.0884135973
3553 1 29.3506012828 61.1084038514 17.3358816043
3554 1 17.1605508744 14.2802930206 3.5865996828
3555 1 61.4804842187 14.5535889179 23.7730826353
3556 1 35.3945371255 18.6000068029 16.5394025545
3557 1 11.7307992806 3.8518307176 47.7978987857
3558 1 12.1230110801 45.1321226157 59.6089047558
3559 1 17.9382444888 54.6464481813 41.82056053
3560 1 42.1784786687 34.2904685177 5.3545309451
3561 1 18.8631199408 59.548217851 58.6160271983
3562 1 30.5477777649 11.000157037 58.376849397
3563 1 43.1977494703 20.2358027175 45.4484904146
3564 1 25.2508116937 58.6788208809 28.3743438613
3565 1 35.49858854 12.5583533028 32.9808720317
3566 1 4.2240222759 41.9218029074 4.4034144052
3567 1 49.6810655264 32.8215177001 26.7966599008
3568 1 18.761058261 42.127564872 23.0623377375
3569 1 3.3145994538 31.7973896053 9.6051775286
3570 1 28.5641879492 28.6114734064 19.7888732169
3571 1 55.8791472778 36.9940496448 38.2678894299
3572 1 27.8031144708 17.3822307157 12.5776654326
3573 1 59.2061005458 37.9058162572 44.0817183201
3574 1 10.8918920669 12.8943843611 46.7744144286
3575 1 10.4003105814 7.3442245641 29.676859233
3576 1 18.8692647094 46.2612384707 34.8424443
3577 1 18.3825990387 55.0930850738 31.590691295
3578 1 3.5934765566 31.517129637 25.0906965813
3579 1 12.1406260833 49.3181145296 51.8135928278
3580 1 4.077337872 8.1028986568 48.1249760384
3581 1 22.883846841 18.0960772586 55.9090518181
3582 1 29.0285568882 44.6425308648 30.0310905106
3583 1 58.8955263858 12.722799014 26.4597510184
3584 1 57.3488003546 47.129699095 47.4105442794
3585 1 12.8667036417 28.4748254578 59.8185291464
3586 1 57.8303746456 11.1464025289 38.9669300066
3587 1 7.0949342294 53.2518783242 31.0420512442
3588 1 38.9037851944 42.6582973115 25.0196513523
3589 1 37.8622176612 33.6140172807 44.2155572317
3590 1 48.337409466 47.8777807771 23.4491070277
3591 1 24.7804150294 55.229498936 8.2988172874
3592 1 10.9236692987 18.0011552146 4.2927793101
3593 1 36.6967013677 53.9419650953 3.9018023165
3594 1 25.026966553 26.1271727349 8.83389203
3595 1 9.9233009757 13.1189902827 9.8372742157
3596 1 8.0491231535 31.1446396185 36.6743461144
3597 1 30.5268270301 32.3223284059 16.2744752468
3598 1 36.3655861242 18.5174913392 33.9507505983
3599 1 53.727249325 42.9988930551 40.6607793538
3600 1 60.7125637124 39.6983330311 41.412255289
3601 1 36.9278617091 59.4816202641 59.5097106347
3602 1 15.2860453313 21.1048485579 54.2240392334
3603 1 37.9139507604 41.8272905146 18.1112343544
3604 1 14.4357264046 21.727752526 43.6978165886
3605 1 6.1524496263 17.2379164368 24.5936140649
3606 1 11.6141071994 15.2804272572 7.3535236472
3607 1 12.5942855685 28.6318974467 35.8352633359
3608 1 41.1466842436 16.4170338776 39.7555086396
3609 1 12.9990209916 43.857639093 37.938471313
3610 1 4.676037304 8.406485337 37.6630101163
3611 1 51.7555979169 41.1098741538 6.9919713168
3612 1 9.7309989803 21.148447154 50.9128282772
3613 1 5.3120208509 50.0008861 37.9078059918
3614 1 55.5255597378 59.360012368 12.0146875885
3615 1 18.7364791867 39.2289312341 38.9211075896
3616 1 24.715221961 12.8493227249 59.7947693746
3617 1 37.3481053576 6.4985873659 44.7438317638
3618 1 9.810529842 58.7094862022 42.2768534874
3619 1 21.1549430522 22.5502736901 28.1242810413
3620 1 45.9784620733 58.4384141259 30.738792285
3621 1 31.3995012101 5.8970613402 15.8700909534
3622 1 57.6996373791 57.0044592283 45.8030143002
3623 1 32.478347006 30.7803426248 7.10246596
3624 1 13.1392972798 9.2724236802 9.2030755778
3625 1 11.2049826559 42.4954316837 10.5587870889
3626 1 58.4036522923 3.6228549878 28.4002104109
3627 1 27.0566128721 49.0411902928 15.6087334636
3628 1 57.2002725201 37.748334617 16.0221886058
3629 1 58.8059883295 47.0714700977 28.7114283085
3630 1 53.27979313 29.9929929455 5.5269180381
3631 1 18.2168658522 7.6099653222 36.3462739944
3632 1 23.0151693236 38.0463851534 4.3190847718
3633 1 21.668879791 56.9004078139 17.6060758565
3634 1 52.2714658686 59.9552356167 45.8800872546
3635 1 50.6543383461 41.9277721111 47.1792668948
3636 1 18.1724479537 52.8450946449 50.6605416363
3637 1 32.0253312584 55.8550363763 23.2122700906
3638 1 12.7305238659 45.0755322233 3.8065946871
3639 1 7.3171700259 21.0717838509 27.094886002
3640 1 14.144230288 59.7544479885 46.1282188615
3641 1 52.801027876 5.1772807066 25.9234005048
3642 1 17.8120133859 24.2387390496 17.0291698703
3643 1 15.4782302835 38.655712109 10.2953813429
3644 1 35.9911063712 53.7036065964 45.3390550125
3645 1 34.7390366233 52.1713354017 15.1843347811
3646 1 43.0687093303 42.1873154311 23.0691262438
3647 1 37.4393405404 27.0568469585 32.2663817512
3648 1 6.6260825354 51.2183695791 16.728134732
3649 1 46.055183898 18.7968734835 53.1205558416
3650 1 17.4223180155 26.1651532568 54.3219458792
3651 1 13.0330220443 44.50857491 19.7513608679
3652 1 29.3189410943 40.9639797915 36.5268716687
3653 1 29.3396577426 4.7692505171 13.9896162065
3654 1 40.1795561925 58.7802973447 6.036336909
3655 1 55.9424091332 4.9267263051 29.0486297989
3656 1 13.8382208133 53.4915242984 3.8822853611
3657 1 29.8739600001 43.7953135832 4.9341878098
3658 1 59.9469840703 46.068526824 52.8939016638
3659 1 48.4931354581 19.6481872775 26.5933558436
3660 1 14.1347497879 42.3470208923 45.889509233
3661 1 19.4505012944 34.7431916572 25.6510994748
3662 1 31.8807243715 10.6954935592 48.4714239424
3663 1 30.9288119377 16.9225435052 29.8870688397
3664 1 40.5665595691 58.2611521831 59.5362794435
3665 1 56.1505704837 31.4699027014 32.2155849977
3666 1 54.3290855151 32.448383944 38.5315877839
3667 1 16.5040555049 53.0524366929 55.1168448456
3668 1 18.2341297258 34.3517991602 11.3150032741
3669 1 51.6528339778 48.272450484 39.636358651
3670 1 58.5704973893 13.1510601225 7.3928969834
3671 1 13.9725864193 57.4077901329 25.4293611119
3672 1 58.038243388 21.7724630325 11.7100241107
3673 1 53.4349339059 43.4029847405 35.0417688881
3674 1 40.7121028018 47.3126961552 52.5693408402
3675 1 49.924515405 25.1534317423 48.8328533775
3676 1 3.8293759776 43.5519222263 15.7670929278
3677 1 10.1045423877 13.3976116461 12.5878481919
3678 1 4.1067274222 14.4951843557 51.3479949351
3679 1 21.8390606195 29.1853362691 45.8876365417
3680 1 8.7652930042 9.8738502191 7.2549966724
3681 1 50.1885648886 59.8611913968 37.8637977445
3682 1 8.4840849858 45.8225019948 7.8236335557
3683 1 6.6742282602 27.1999322838 4.1358594774
3684 1 48.7110699166 12.1003632188 40.3986610832
3685 1 43.5453678064 17.1571566213 53.6669720714
3686 1 23.4464735555 42.6065056907 24.3535584395
3687 1 4.9005612954 56.417194918 13.6730728428
3688 1 51.5292363471 13.3741444823 57.3310683082
3689 1 13.8003573346 40.1879247821 11.9865972179
3690 1 35.0164290329 54.6393085454 12.050502811
3691 1 15.3943688229 57.4357634603 22.013396482
3692 1 32.9894747077 31.8221442444 41.9403542563
3693 1 58.583898837 9.6462596956 47.9814225403
3694 1 28.0143189447 46.9296722477 5.4189807891
3695 1 39.4181315844 25.2486463943 43.3767670612
3696 1 59.1599855207 38.7249431682 39.1355307518
3697 1 33.5702431199 23.6379562484 47.3012259205
3698 1 20.4679579262 12.007782039 18.1417241108
3699 1 15.0179578569 27.3021695284 36.0884863226
3700 1 32.2916630847 10.4502295109 53.1908402897
3701 1 55.2048028186 9.0805840055 34.1994674213
3702 1 30.3755486801 4.1744544761 44.722295813
3703 1 40.4472340157 19.2060565486 39.5718093202
3704 1 54.3365762806 41.5345069227 60.5279280473
3705 1 13.1013167579 25.3717758521 54.2992394963
3706 1 25.4310582384 43.680845323 40.9378791555
3707 1 9.5557852937 32.5744980037 5.940794536
3708 1 7.3303725001 38.4913249194 7.4177159962
3709 1 50.275410951 43.4163276665 23.0015923111
3710 1 43.5890249241 58.8688990553 13.425058279
3711 1 61.5627655959 47.1754044689 35.356498082
3712 1 54.0754528772 52.7577804096 11.9583898041
3713 1 4.9257138814 52.5774168217 56.6272874814
3714 1 23.5352508309 57.6364340452 43.5108985809
3715 1 32.6322003066 57.5291054209 5.923735488
3716 1 21.7896098629 18.6936413715 7.2461365013
3717 1 22.442476893 10.5595478698 46.6175180044
3718 1 33.0116543961 49.8848377565 58.6220549237
3719 1 9.1745170344 13.4364114705 44.3766086898
3720 1 17.287425715 11.3569047436 9.8666520616
3721 1 16.8273873748 57.4522080314 10.0638113503
3722 1 34.5706699645 16.458057523 38.3749839678
3723 1 61.3946330235 42.4335158251 8.8802294372
3724 1 48.2218292953 9.2468497387 15.7104440138
3725 1 57.026170744 33.0162190814 21.5547626604
3726 1 39.9362818788 43.639470548 8.3967473419
3727 1 43.8987797816 23.8503311545 55.8951236761
3728 1 17.4560264602 43.4936347073 17.7885462222
3729 1 47.8795949469 15.7686730112 26.074210682
3730 1 6.6780906861 47.9873332224 25.3632316977
3731 1 49.6999094834 51.8310322662 29.3614277798
3732 1 43.1539167878 42.0520134794 10.7087779636
3733 1 37.4962235409 3.6646950096 41.6638981923
3734 1 42.5521976409 26.2113268034 21.2995499392
3735 1 8.9941885594 16.7766491429 33.5474196937
3736 1 19.4658924766 58.876506864 41.3357675507
3737 1 51.6272015146 39.3354405559 31.4731213897
3738 1 11.7231329503 37.9739354059 44.0525745606
3739 1 12.2158263463 39.020418754 49.4263794996
3740 1 54.620230502 45.9680452275 38.4771626909
3741 1 6.1180681831 25.4537646213 24.169566512
3742 1 40.7009836967 26.9986764827 49.2825919151
3743 1 42.0445227139 33.8648994031 20.1366085963
3744 1 25.1074922821 35.0380235053 56.3788047448
3745 1 7.3923819932 17.452339599 40.1442676644
3746 1 55.6739120076 6.7757983586 35.709032233
3747 1 41.2234645899 56.5330091751 39.3546356425
3748 1 4.2889695536 37.462690661 31.8892685258
3749 1 10.8924187614 58.7366987487 35.9435868276
3750 1 36.9966245954 22.338952173 18.0647096781
3751 1 14.4732387537 25.6412093235 12.9890137971
3752 1 47.9189214657 26.9973304858 49.2068649577
3753 1 28.5658265542 8.2799440696 36.5814723266
3754 1 25.0995918653 12.3722545976 36.3001589694
3755 1 24.5774621018 37.2195919121 53.148821777
3756 1 10.9881601078 15.2789056954 39.2605914226
3757 1 33.5080931749 18.1644890154 53.5682461231
3758 1 11.7239522528 47.2294199107 49.1217160218
3759 1 27.0159403563 47.3009918341 53.0021081123
3760 1 22.0574632509 26.6123753654 53.8080091405
3761 1 29.2542161987 34.7749103674 32.9654223279
3762 1 43.7534121137 9.5550245128 37.7199516384
3763 1 48.3686600033 22.7082820248 13.9004292798
3764 1 28.7950556826 24.342205248 59.9625508174
3765 1 47.3895935447 39.6725835247 25.4384904823
3766 1 58.0849436292 36.3153745868 39.7960055906
3767 1 54.0233101268 10.9849999412 43.2460297947
3768 1 12.7055351404 61.3009399333 6.637441579
3769 1 21.8883943329 56.9059673664 22.164089616
3770 1 40.4254639784 19.5176255758 48.0057090065
3771 1 27.494003351 3.845756175 12.1106044998
3772 1 30.359396717 23.931676186 37.273139181
3773 1 32.9164982657 16.4635585539 23.2977701561
3774 1 53.1971606231 36.5402731164 28.5428860849
3775 1 31.806636019 24.4938347277 6.7245392844
3776 1 10.3107140035 50.3777652389 48.3592380249
3777 1 59.230094404 9.4177328265 5.9011754091
3778 1 20.9526338623 23.9073311982 58.9053580155
3779 1 28.9712642365 46.3070608877 38.8702523145
3780 1 23.2484364428 41.7538458998 58.3051019087
3781 1 7.9195387627 21.0017334892 14.918119998
3782 1 47.3658922945 37.998690045 7.7527755959
3783 1 34.0789714357 9.7572751811 31.0383058615
3784 1 40.0071515429 18.3476031187 28.1651876435
3785 1 12.5337742285 50.7803353626 59.1665984621
3786 1 53.7504824023 59.4252054364 58.2171439358
3787 1 7.5680931135 5.2082327837 49.5131085189
3788 1 38.1267938393 25.5995419404 39.2148860488
3789 1 30.7254493589 20.4153470029 37.7682904845
3790 1 32.8987662193 19.4000556705 48.1538271898
3791 1 14.8628170809 31.9256689644 27.6350989416
3792 1 15.8610786261 50.3695722142 27.6303586916
3793 1 58.9680931765 46.1448975191 56.8356829183
3794 1 30.6354431298 8.7005329956 49.9615010596
3795 1 24.8281101378 40.8986696798 51.856138035
3796 1 37.7625553671 6.2824378162 3.9856052555
3797 1 51.4944159919 57.9632186899 11.8668034916
3798 1 35.5308924662 14.4262459045 50.0595247487
3799 1 52.4542288423 37.0541513336 18.6418497507
3800 1 8.4266284736 57.4266926114 35.7261790634
3801 1 39.835683239 27.7737366249 17.5205172693
3802 1 6.1728502579 21.0123844214 45.9583891626
3803 1 31.9302921712 44.1301156878 40.6354394987
3804 1 43.7810928331 24.7717538318 51.9576730204
3805 1 19.3408318058 18.9370912501 4.1381944894
3806 1 28.5547074492 47.8767273882 58.0536345703
3807 1 3.9570993815 35.1032750954 46.3554582554
3808 1 22.0977261155 44.9612980495 5.3064612984
3809 1 24.5246170921 45.715700065 55.062946447
3810 1 5.0772146135 13.4652041003 40.4786015962
3811 1 59.8811472642 46.9018744852 48.5731344927
3812 1 16.3318264201 44.0794944991 45.4722501864
3813 1 60.2237327424 6.0947648798 56.1677173141
3814 1 14.7081444778 33.9345401136 36.3286589912
3815 1 47.7935096653 55.918122667 34.7820500032
3816 1 29.4863128858 12.0347019775 4.8556693718
3817 1 4.4130880266 11.0611365498 19.6575507344
3818 1 22.4547079085 32.9957365195 37.4248271823
3819 1 29.7529373201 15.7524625265 14.0736532319
3820 1 45.2073228787 55.4105647832 18.4870601044
3821 1 7.0028563354 6.3891753724 41.71703581
3822 1 9.0768912922 47.1562093823 43.9899564428
3823 1 11.8397665099 50.5777335646 36.0585232606
3824 1 50.2216881173 57.657677388 61.4275221658
3825 1 51.8612294146 60.4056764136 56.1574760331
3826 1 37.6421764248 47.2607289696 22.4971360724
3827 1 21.2856217971 32.2115470069 21.7116590845
3828 1 28.2443673756 44.4440255792 40.840206596
3829 1 14.877037831 51.882823887 18.999241195
3830 1 17.7853860555 11.3385289595 26.1580136209
3831 1 9.4362841754 46.297814474 47.5373605984
3832 1 57.1657447729 41.2837418435 60.6125502887
3833 1 61.850925981 12.0162676718 11.4723093495
3834 1 33.7453982849 25.2993846262 42.7312737535
3835 1 20.2852534741 33.3614380317 48.965229249
3836 1 52.8213348731 44.9779767071 47.4795997738
3837 1 48.6229363789 34.2592179804 60.5566621556
3838 1 19.9440139929 23.2403019396 51.9332109893
3839 1 14.3941760647 17.6332298814 34.9882801407
3840 1 4.5484309434 48.2595757308 27.2727916825
3841 1 4.833583318 43.2310482638 49.3711351041
3842 1 25.8220996058 8.6203408397 54.5017242511
3843 1 22.446924535 44.781168548 13.2017398328
3844 1 29.9862044393 47.2466837843 9.5164002532
3845 1 36.2758725031 9.9663728773 25.343919568
3846 1 55.8729439876 20.6247373071 35.5547692812
3847 1 3.9512179601 4.6695706666 26.6406413008
3848 1 59.0690429459 54.3822816544 45.6935203765
3849 1 19.2093337585 43.5101378 15.4259704899
3850 1 61.5906218801 53.3524769639 15.750004619
3851 1 31.3554344412 61.0498237244 59.3513511704
3852 1 38.3774418753 10.831965943 58.2101213432
3853 1 8.5343023754 33.9078542615 3.5315156365
3854 1 9.7302381994 5.5938726069 32.6731654304
3855 1 43.3031468816 46.2654520262 28.6015247335
3856 1 23.758452234 10.7508549979 44.015881514
3857 1 12.1445470309 26.2085177664 49.9835051832
3858 1 26.0953955031 16.2963038056 25.5508519647
3859 1 11.9109287821 50.9968653026 26.9963356185
3860 1 61.6324063064 44.2946784422 35.5830352166
3861 1 47.8633259406 16.8106501956 54.5608310725
3862 1 18.3952397055 39.3437506239 60.2513549401
3863 1 52.8968862657 54.7000539718 8.2971786824
3864 1 15.014680647 33.8641971439 61.1514172314
3865 1 24.3149341799 47.4214292981 31.5558709398
3866 1 11.7232499935 15.8438732741 33.5513991629
3867 1 8.7702205233 23.4090782496 23.2153717357
3868 1 15.9152696327 22.3216882994 18.2424983154
3869 1 25.3293476882 60.3056044683 4.6811579445
3870 1 59.6995547226 49.8007422095 19.8123403807
3871 1 4.2022932038 48.0787439701 31.8564964268
3872 1 32.3796795792 46.9326568496 25.9174898226
3873 1 53.0323637823 10.9426888204 57.0720516826
3874 1 13.9350740702 36.592240302 33.4657235326
3875 1 29.995743461 54.2448729249 42.1864961287
3876 1 51.6353945393 14.9864732332 27.6982437539
3877 1 17.5384248806 26.165562908 57.1037118711
3878 1 18.9410707192 7.1034315665 26.5013598799
3879 1 15.1371663671 41.1170723113 21.2974431614
3880 1 22.5640262674 15.6903125815 54.2712661689
3881 1 52.1268589816 54.4463628123 39.9081915082
3882 1 22.2675558144 22.2935394072 40.2679238167
3883 1 23.7204131905 4.8996483583 31.2049753937
3884 1 38.8771578639 30.7476290474 59.4109261647
3885 1 4.4005351422 10.3482848742 5.9747136585
3886 1 59.731975692 53.1907232465 42.0272588403
3887 1 55.4377773297 46.7940191664 5.851156993
3888 1 42.1361090264 28.1652461651 57.4471166517
3889 1 7.2368140095 12.7386583691 42.205574172
3890 1 60.783667463 11.4575033833 4.3877306149
3891 1 54.6006842858 59.6337179165 40.3990707344
3892 1 51.4600052879 55.0796836262 15.3773390358
3893 1 49.6659084306 51.3414990369 16.1286394061
3894 1 19.6199798637 42.3978761674 36.6079826139
3895 1 4.1278127566 21.2856217971 19.0632053097
3896 1 27.8474153261 57.7872442224 5.3600729411
3897 1 29.3362634895 20.0646855433 10.002012535
3898 1 31.904074492 5.8649797962 37.0764480652
3899 1 49.2855179954 49.8218099875 39.3462085313
3900 1 52.420754484 7.2507245952 61.8766754874
3901 1 15.3799139864 33.8326539985 23.6822571037
3902 1 21.3921311189 37.5810798687 42.1379817178
3903 1 49.8421755061 42.8417625445 20.0109627095
3904 1 11.1282023096 25.9720319589 46.3074705389
3905 1 37.0995055778 17.9773369212 46.2964684771
3906 1 45.0462714206 10.6536506113 8.7582587072
3907 1 17.6476847179 17.0454388766 16.1724720886
3908 1 12.8335218915 58.2458780441 27.9213281137
3909 1 36.6160000738 32.2844649272 23.6604870665
3910 1 15.2382917013 9.5137082594 7.4767291831
3911 1 40.9584787606 16.8211840846 30.4475887764
3912 1 24.646400553 54.0758625284 32.1599894725
3913 1 30.4227756157 49.2306832511 49.8935574757
3914 1 47.4418533383 49.4959031669 16.7325238524
3915 1 18.7059309087 58.820150558 8.354395256
3916 1 17.1396001397 18.3675589862 9.147128923
3917 1 38.1661203581 23.335165462 53.6114350679
3918 1 3.4397122088 37.0864552597 20.770397583
3919 1 46.8626064879 15.4908124287 47.0167523966
3920 1 61.2973701153 22.0872507481 60.2929638016
3921 1 36.0379236555 27.5447415829 47.1237298913
3922 1 17.602740125 40.7731993578 40.8558903863
3923 1 19.0337104206 10.4033537049 6.232343322
3924 1 21.228387667 47.8117098846 33.9027043602
3925 1 26.0495730861 35.389270181 46.9009381395
3926 1 38.6599256646 13.5390583664 47.7034449146
3927 1 13.5157082458 49.9393213711 11.1391458498
3928 1 46.771078697 6.1294857483 12.2892709611
3929 1 23.4718719323 47.4536747026 28.8436286151
3930 1 28.3820101916 56.3506558526 55.8682037376
3931 1 32.9538935716 18.3951811839 31.3398676942
3932 1 56.9695218299 43.6261861435 23.132563664
3933 1 47.3136910225 49.4380838207 3.5623050235
3934 1 46.738306598 6.0022831868 56.8951408694
3935 1 29.8036170304 48.8441480474 42.8433426279
3936 1 21.9241510338 38.2331275963 11.5993012332
3937 1 14.5795725107 18.953418778 21.2809400686
3938 1 34.1703821834 36.4060245536 38.7736331439
3939 1 56.7766931401 7.0386422971 39.951673061
3940 1 34.3997868766 48.2673005828 16.9757396445
3941 1 50.093291715 50.2166552592 43.0572390957
3942 1 12.5962167815 15.0878326538 47.7562314026
3943 1 34.4600056086 3.9359087081 51.499741458
3944 1 44.2752492692 48.2808190736 57.864726828
3945 1 24.3986785973 9.5868602661 9.1408671112
3946 1 4.4819738083 55.5176593211 51.623573175
3947 1 37.8284506948 3.7002691231 7.3914222389
3948 1 44.4098489617 58.2107650808 36.7472640348
3949 1 40.5270574854 36.7249673031 23.9849893686
3950 1 37.3252819315 33.4695274369 49.9863727419
3951 1 52.3859926504 43.852138062 18.7886219371
3952 1 31.1710913842 10.5661022896 20.9386471986
3953 1 6.0839149742 23.1114958861 22.3570353491
3954 1 50.7360930289 20.2229864859 45.1777109464
3955 1 35.8773403702 42.5415467087 5.3571761216
3956 1 3.5096279708 29.5129987379 50.331474649
3957 1 14.5059523311 39.8610230942 4.285265136
3958 1 7.0353007135 13.5223797088 46.1989129609
3959 1 43.1219639913 22.3009131295 38.7141751928
3960 1 21.4652246041 6.8075814425 22.9545409404
3961 1 13.0872715726 57.4543733308 40.4680677072
3962 1 58.2068441333 20.8426132441 3.6507896909
3963 1 23.9381720842 22.438614467 10.1345639712
3964 1 57.1760445754 47.1696108299 44.5689692068
3965 1 29.4092399315 23.2745956004 42.695751139
3966 1 47.1260122339 11.7716473612 30.5129574096
3967 1 19.3648841857 39.6125988792 49.5883673034
3968 1 22.2333206752 34.4701298464 16.0272799855
3969 1 20.2662924739 26.854479247 25.2739277279
3970 1 28.4645256552 15.1266909997 50.8743795825
3971 1 7.4198110697 7.9826192011 46.6742839617
3972 1 36.6167023331 14.5772901681 12.4388521845
3973 1 33.1160569402 18.3688464615 50.7662316557
3974 1 18.3184008376 59.7992170167 23.2878214832
3975 1 3.9086083792 61.1766400434 19.1586540482
3976 1 13.1409944063 54.7317141604 56.1210755946
3977 1 6.2161445416 37.539061356 21.4393580545
3978 1 15.363059764 29.7088120296 11.4546943462
3979 1 17.0714224694 29.0482201477 54.2394304156
3980 1 46.8806311424 37.6208745604 45.6939300277
3981 1 58.6262684793 18.255899763 16.4496304118
3982 1 6.090908306 45.2932325954 48.0715458126
3983 1 27.8564276533 17.8693645592 27.1611324594
3984 1 50.0742136716 5.3512595873 26.1873329452
3985 1 8.8718959606 61.3760816746 59.4624836991
3986 1 27.85484757 21.9399518672 11.9012727172
3987 1 60.1364770287 35.7332016561 52.2237707602
3988 1 59.5770104809 33.6937822289 20.2964896223
3989 1 27.3483430751 10.0674396898 5.6968998932
3990 1 3.4221077395 55.7834644529 16.9757981661
3991 1 55.1579855342 51.3604600371 29.7641149467
3992 1 57.8385676704 5.8441051395 47.4801264683
3993 1 20.2084146062 47.5410474595 48.2403806443
3994 1 42.1318369492 7.6281011677 34.8953478313
3995 1 31.9697942549 43.5813000722 21.3275817882
3996 1 57.6175900883 20.3853839409 9.3460438598
3997 1 57.9581273102 52.1184903921 7.9486122962
3998 1 44.7602178133 55.1951467537 53.3898722697
3999 1 19.1325534122 43.9451288931 39.1399198722
4000 1 8.1748217098 24.785213801 11.8249605437
4001 1 39.541143999 57.9844035111 49.1663094852
4002 1 42.0577485967 29.3227449987 11.1033306273
4003 1 40.9103740009 30.7054349699 40.1259504019
4004 1 35.38230611 40.5924261187 23.5693104053
4005 1 31.3513379289 10.6820921115 6.7257623859
4006 1 58.0687916661 10.6947327783 29.5262246207
4007 1 42.7897953589 60.9380474581 11.2853328202
4008 1 14.1168421767 50.6123198334 3.8287615008
4009 1 33.5532133327 55.3831766719 20.8921225223
4010 1 8.6095787165 46.9293796397 27.1466191012
4011 1 56.6199722808 37.1414655688 35.604337081
4012 1 37.045782744 56.4710933166 24.1870644721
4013 1 29.8746037378 23.1855842386 23.9486474516
4014 1 10.2207077744 44.1338025489 45.9455144094
4015 1 54.3653103888 24.5502495553 60.2220356158
4016 1 10.2039705953 42.3095085432 37.4162830279
4017 1 16.3771806643 60.9212517573 56.3520018495
4018 1 7.181786144 52.5272052843 42.2535033669
4019 1 28.6618605087 21.2747367785 31.9363784182
4020 1 35.4491377834 28.3706570001 58.6079512168
4021 1 31.817169908 49.9035061486 27.5161245178
4022 1 38.7743939248 10.3913567758 3.5820285602
4023 1 18.2021769292 19.5968053079 48.1211136124
4024 1 5.9348428887 46.428785827 34.8423272568
4025 1 10.0818360047 30.5834174226 10.9209187832
4026 1 60.53969089 8.5874575496 46.2633452484
4027 1 47.4012393442 50.9391629997 35.2120082382
4028 1 15.2588327848 39.0464608684 40.6010873163
4029 1 16.1057574584 60.9165115073 24.6998893003
4030 1 51.769526059 41.6332913926 17.0291113487
4031 1 61.5127881449 37.1026072228 42.3876934081
4032 1 13.9861049102 11.596667761 15.5482221236
4033 1 38.3282252051 59.0889402917 20.8663144943
4034 1 42.6008876166 8.3585736987 17.2583989987
4035 1 47.0695388847 44.1933190216 43.8550641423
4036 1 36.6000236755 14.904777072 56.6274630462
4037 1 14.8193355281 33.5078590885 58.1943790313
4038 1 45.072606143 12.3579168042 32.4978347006
4039 1 11.8153044788 53.0452385354 16.8726245758
4040 1 6.3742816238 7.0570239334 5.1383696911
4041 1 5.4995240746 17.0105014781 58.1577445063
4042 1 12.742228187 24.5245585705 24.4279979216
4043 1 52.4754136635 13.0510466988 29.59691872
4044 1 57.966320335 8.4188451001 16.8634366837
4045 1 34.736403151 42.6465344688 36.5681294006
4046 1 4.859356233 18.5663568798 33.8983737614
4047 1 52.9507846643 56.9358133852 6.4488908185
4048 1 48.5068880353 24.4186929863 38.9815018864
4049 1 34.8711784083 55.9927962355 3.4667339749
4050 1 32.474777188 47.2130338612 20.505353232
4051 1 47.8935816106 30.4314368133 43.8008731357
4052 1 38.1898216083 13.3812841182 35.6363483991
4053 1 31.9228014058 59.591523839 32.9487436703
4054 1 43.95121514 6.123095189 56.6481796946
4055 1 21.5108714563 59.2216087712 60.3117492369
4056 1 35.5178421481 30.2024417713 49.8522997439
4057 1 11.7482972406 61.1621266852 13.6816755188
4058 1 24.4427453661 56.4672894122 4.2323674569
4059 1 22.892742125 27.5096286196 28.8024294049
4060 1 16.3779999668 24.7554263039 10.9649270305
4061 1 61.4154081935 57.9204979179 48.4043581826
4062 1 6.0425987208 52.949497189 36.145076715
4063 1 10.4021832728 23.3502640362 47.1140153048
4064 1 25.0062499047 14.9313458809 55.2028716056
4065 1 12.588726016 29.0337653111 41.7832822673
4066 1 14.5601433377 44.6558737908 49.5813447108
4067 1 30.8102471652 10.6672861453 42.1721583353
4068 1 32.9736738742 25.756672451 34.7645520432
4069 1 8.1923372263 25.7668552103 33.7878264488
4070 1 17.1638866059 5.3757157662 14.0888688493
4071 1 7.2201938736 19.6813105062 23.4378123579
4072 1 44.1730705462 14.6794688911 21.8482485116
4073 1 17.6322350141 16.8648412022 33.0498104829
4074 1 21.7787248443 5.8806928472 32.8313493299
4075 1 21.6805255904 36.5866807495 21.2289143614
4076 1 12.6203276829 17.8242444015 7.2366325926
4077 1 60.1722337296 46.9188457507 32.8426439997
4078 1 26.854771855 55.5363277132 22.8184196862
4079 1 14.3803064443 14.5749493039 18.308101035
4080 1 23.5311543185 22.775581871 29.8343408732
4081 1 29.9306089141 45.8042432539 7.0560817355
4082 1 11.2715802429 47.6637672661 26.1444951301
4083 1 40.7240997309 48.7245884075 37.4069780926
4084 1 35.8881668672 21.4743539745 7.8792758981
4085 1 49.6863324709 12.2810779363 28.8945424118
4086 1 59.1170891839 9.7287751593 19.253751657
4087 1 37.0949408925 50.1304529344 59.6283924504
4088 1 8.3852829594 32.5222967316 30.8231219184
4089 1 56.0297818901 37.616778048 24.3587083408
4090 1 31.9544615943 24.350222708 25.6440183605
4091 1 23.7281380424 14.7976240125 35.4738924225
4092 1 31.7185024812 43.319708496 47.3951530972
4093 1 20.5147166889 41.1868300649 16.2782206295
4094 1 20.302166218 60.9341265105 56.6087361325
4095 1 43.0414382622 51.2320051132 35.6112426304
4096 1 15.1558932809 27.4874489312 4.5982913512
4097 1 37.7523726078 43.0300265491 13.9611161847
4098 1 9.0917674843 60.6579630545 27.7878403318
4099 1 10.508048857 43.4705771947 20.8629202411
4100 1 16.8283237205 40.2149032421 34.599813724
4101 1 46.0825720093 11.1679970013 20.4412135525
4102 1 10.6408929013 56.196509944 13.8777228969
4103 1 15.1865000805 26.2485465445 38.7341310603
4104 1 26.1415690498 9.0076894938 27.8797192523
4105 1 25.7296354693 45.6101270888 5.1273032556
4106 1 28.1623200848 19.9795366074 54.2269653136
4107 1 20.0089729749 16.2524711232 53.2854697257
4108 1 9.729711505 42.2898452838 58.4292262338
4109 1 19.5688905022 12.2385912508 8.3013805337
4110 1 54.9862246223 43.9691227513 17.5267790811
4111 1 31.6241656533 48.2598098173 47.4388687365
4112 1 56.1802994593 50.506629814 56.4578674337
4113 1 41.9000328701 39.792084643 29.2409903159
4114 1 42.4808012823 39.7953033313 52.7749857616
4115 1 26.3136225697 20.2070100876 37.8373459789
4116 1 12.8162580179 28.5132156309 15.4326419529
4117 1 49.838196037 53.9719866788 34.5027849022
4118 1 28.4511827292 37.8303819078 56.981518759
4119 1 4.1726168977 49.6626897423 42.8356762976
4120 1 26.7455705393 7.6533356839 3.3211409989
4121 1 56.2576650216 41.3607562762 40.2713180698
4122 1 48.4676200381 15.254209578 21.6771898589
4123 1 46.2061111184 23.866717204 10.8592955327
4124 1 50.950984364 4.5381428452 9.4417852063
4125 1 58.8611742034 13.2061289532 23.7843773052
4126 1 16.9955784688 34.0220884353 14.7559566294
4127 1 40.6449785204 16.0698251927 56.5842155798
4128 1 47.8287981934 26.6028948653 46.3040762858
4129 1 32.3306969955 14.9448643717 48.8950618441
4130 1 50.257620383 29.9541345995 42.4085270996
4131 1 26.239417174 31.2565914497 4.2304245396
4132 1 60.5148777293 19.2813738547 47.0546158753
4133 1 42.743797377 15.1101293854 17.7458839718
4134 1 36.5501047461 58.1957250282 13.6757648366
4135 1 37.0859285653 17.0281164814 54.7610334847
4136 1 27.0133068841 43.2079907512 4.2194049213
4137 1 39.2102043203 39.752641081 19.6252468082
4138 1 30.4768495791 55.9357961918 7.0499428191
4139 1 31.1611427112 39.8389604489 49.0276718019
4140 1 40.163755359 59.9737869656 40.9649746588
4141 1 56.6755092843 25.7172288889 47.928519009
4142 1 52.0012716164 32.0649503853 51.8516318714
4143 1 56.7412290472 55.6453534641 6.766481719
4144 1 44.9838288676 7.0858575284 36.9172692985
4145 1 41.8529229778 10.2042632033 35.6588792172
4146 1 48.0247285283 24.534273157 54.4015352626
4147 1 15.7609481593 34.3357642403 26.4433649689
4148 1 21.0072345201 13.8244097144 55.559794877
4149 1 31.7102509349 55.590050547 13.9397557987
4150 1 18.4081729803 41.1190620458 25.7555020189
4151 1 29.7182925297 60.0213065092 5.8306217616
4152 1 46.0365740275 43.4586387872 28.0944350226
4153 1 3.5866564487 40.3595686507 27.2287834352
4154 1 40.4490481854 53.1550250672 7.5484532627
4155 1 45.3985129636 51.2246899125 43.402750654
4156 1 18.7327923256 42.5371575883 49.9527813404
4157 1 44.5633511327 15.4063072304 10.0127805104
4158 1 58.4285824962 48.6916992652 4.0285074444
4159 1 12.5197875648 13.6869424633 13.9684313853
4160 1 42.1714560761 54.2461604002 47.8299101039
4161 1 34.550421489 55.0302913912 24.5815000926
4162 1 50.4302005974 18.1268011015 52.0266699932
4163 1 33.2057120397 12.1513355371 41.9741797442
4164 1 22.6769144443 15.9146258951 3.7252069348
4165 1 56.5967392034 10.1376070947 6.5488749814
4166 1 56.5000029896 21.2304944448 52.0719071941
4167 1 13.1511771657 41.1390179133 7.7508970523
4168 1 14.5516577049 45.5342830882 33.6294669845
4169 1 14.9507750539 29.1955190285 27.0494732362
4170 1 56.2282871757 9.063068489 9.1501135249
4171 1 37.7810481944 31.1845513534 55.8122570828
4172 1 20.6050155261 6.2539319422 49.8135584411
4173 1 47.1392381167 11.3366562681 60.3515439286
4174 1 25.7702494634 34.6757162462 41.3660232207
4175 1 10.6117491418 27.0556180048 34.5038968127
4176 1 55.5695094635 36.2816661421 26.9800080906
4177 1 51.1570974583 24.6715063217 21.8088634711
4178 1 47.6182374571 41.4678508141 21.1619071232
4179 1 19.4958555386 56.707286516 43.1762135195
4180 1 28.5817444309 44.5741776297 11.9044914055
4181 1 56.1919452587 41.2252787597 43.2083418808
4182 1 27.9998641082 44.9981666609 9.1927172536
4183 1 22.763116769 19.3940279452 12.3583264555
4184 1 28.8951861495 36.4873695851 34.9886312704
4185 1 17.6273191992 13.2739554938 36.1398097705
4186 1 5.981584095 55.7228360697 11.1822177514
4187 1 60.2069370416 49.7884526724 37.9738183627
4188 1 40.1429216675 46.0911746853 21.3965202393
4189 1 27.6771759759 19.262939549 59.6062712836
4190 1 20.8946389513 22.6319698513 49.3170026191
4191 1 30.9547955305 8.5432386246 8.3528034684
4192 1 34.9333868748 56.3784536152 30.0647989554
4193 1 44.2067204693 49.5502697383 5.5736124271
4194 1 61.818739098 55.2346488373 42.4042550224
4195 1 25.7797299635 29.7374290947 10.2123977064
4196 1 11.0795708555 5.9872548385 41.1100497186
4197 1 52.3511722952 52.5572268679 16.3456960406
4198 1 8.726428806 55.6807590354 11.8961228159
4199 1 16.4649045508 57.1945374027 49.5440079265
4200 1 8.3059920362 19.2312208389 45.8528747081
4201 1 57.2788670361 43.1657381521 13.6142001077
4202 1 26.5825293466 11.3212065643 30.6769934696
4203 1 45.1382673843 22.8078857972 20.7970834351
4204 1 27.0937740915 22.7923775718 23.2556346002
4205 1 14.4706052814 48.6424240735 7.7130686866
4206 1 56.970399654 61.7119371681 11.1938050293
4207 1 26.5568383618 39.1749157923 32.5685873215
4208 1 16.1931887369 60.0769020344 61.2717961738
4209 1 54.6025569772 23.1330318369 40.6294117733
4210 1 9.9223061084 39.0021014915 35.5861953833
4211 1 48.2067307211 56.4377360015 43.9053342014
4212 1 40.3252164684 48.9352076654 58.774035533
4213 1 30.3319500841 57.3467520984 45.4632378592
4214 1 11.2587054897 49.7887452804 24.2802308679
4215 1 55.8179336785 36.7335699791 53.5931178054
4216 1 29.8078891076 42.5173187641 45.6767246757
4217 1 38.085009413 54.1049477663 52.6196694208
4218 1 20.2023868808 32.6766182051 12.9850343279
4219 1 8.0209274441 48.1171341433 15.4848432249
4220 1 43.2285903563 18.2509839482 29.5283313985
4221 1 55.1923377166 25.8477905906 28.7377045093
4222 1 6.9617156468 23.8193732252 19.6634028949
4223 1 44.2205315681 53.5450715673 45.0283638093
4224 1 60.805905673 13.8016448099 35.0636559685
4225 1 3.7166030884 32.999364859 60.6882187246
4226 1 20.2683407301 44.6918645782 17.8330226423
4227 1 11.6214224001 50.5042304282 8.8239258006
4228 1 17.8121304291 20.2092924302 29.5711692137
4229 1 18.1029242865 7.2741332373 40.308362246
4230 1 4.4242656532 10.1117405451 53.1264665238
4231 1 46.1014744879 50.5983916913 27.7569409241
4232 1 26.0239406229 45.6758468517 21.7145266432
4233 1 7.968614981 3.4317989174 45.1974327274
4234 1 17.7997238488 56.3204587042 18.3439747792
4235 1 46.2597754305 3.6590693276 42.8133795659
4236 1 3.6167365539 32.1217748642 51.6995927405
4237 1 38.3943546192 46.3202867705 60.9525608162
4238 1 61.7203642793 48.1558169244 16.0366434424
4239 1 4.595950487 37.4461290466 35.3435062856
4240 1 12.2685543128 16.1722965237 20.8282754507
4241 1 39.6030598575 51.9352592455 57.1795558718
4242 1 52.785168521 45.6729207714 44.6146745806
4243 1 54.0940627477 61.1410589073 10.218542475
4244 1 15.3375443441 18.537096077 52.7323235113
4245 1 36.5100174464 51.0982247232 20.8787210746
4246 1 47.2438747472 20.7918750122 34.6308301748
4247 1 22.3017324319 21.9885833213 53.1738105025
4248 1 9.5582432011 58.5294737439 50.2160115215
4249 1 28.5057248654 59.3906191676 15.2341366673
4250 1 7.1118645298 17.1659933837 44.0123702177
4251 1 13.4759720757 41.7509198195 18.9264988395
4252 1 22.7913241829 25.8733645322 44.2752492692
4253 1 54.5182858654 39.1303223289 39.1859178541
4254 1 29.498895031 18.6403867106 49.7975235212
4255 1 61.3551894615 34.3780168394 28.4014393646
4256 1 56.3937277542 3.4277948691 40.4838685406
4257 1 51.0020737255 27.9220888946 16.891878184
4258 1 26.1611737876 51.8268772323 14.7155767217
4259 1 33.4403836774 35.6918268811 52.3773899744
4260 1 12.7465002642 31.0899804391 36.9933473855
4261 1 37.1792120043 57.0265803952 43.0504505894
4262 1 40.6309333351 39.6855167995 10.7618570597
4263 1 51.3719302717 30.9206774346 17.2288455879
4264 1 60.2870531194 27.3342978898 41.5579740865
4265 1 48.4188715408 20.2766507981 7.9476057246
4266 1 57.4654339142 41.3269893099 29.1542612967
4267 1 17.0266534412 46.2866368474 36.7255525191
4268 1 46.0024559315 4.4649089082 59.1544259682
4269 1 23.4789530465 38.0616592924 40.2263734768
4270 1 52.0799831757 8.3206341419 19.6732345246
4271 1 56.4578674337 6.817260916 54.3959171885
4272 1 34.0756942258 23.1546848309 44.4231918877
4273 1 30.8135243751 17.6057247268 38.5440528859
4274 1 14.3320261198 42.3351410064 57.4510961209
4275 1 9.5685430036 55.1570491885 51.0768643372
4276 1 37.9329702821 47.6228606639 26.5676648588
4277 1 50.0763204494 14.7533231572 48.8693708593
4278 1 58.2907055938 56.6694230373 16.1195100357
4279 1 50.5357735735 35.2103111117 18.5751936422
4280 1 20.3587566105 56.3032533522 28.3965820713
4281 1 51.186358261 44.8316141719 51.0490665747
4282 1 6.637915604 42.5531339866 30.4863300792
4283 1 43.1478890625 9.5432616701 55.0595521939
4284 1 21.7313223439 47.3921099737 60.6352566716
4285 1 39.3065308829 23.1212689942 36.3971877911
4286 1 14.3534450274 45.2531452957 56.8017989088
4287 1 20.3158602737 26.3439367613 19.3582127227
4288 1 34.7869658181 40.232869375 8.4646031434
4289 1 44.2169617502 24.9257241756 39.5560670084
4290 1 50.0737454988 40.1717142974 44.1350315026
4291 1 35.9673465994 17.5045993927 43.877360874
4292 1 57.3696925678 35.3816623723 7.228264003
4293 1 59.1331826254 46.2397610415 25.9380894278
4294 1 52.9585095162 56.9108246597 38.6636710474
4295 1 60.8229939818 23.8266299043 39.2428593762
4296 1 40.1866373067 38.2533175502 55.8378310244
4297 1 46.6155282699 25.4573344392 28.7535638644
4298 1 33.7331087477 43.8835641642 34.1628328963
4299 1 7.5347767635 34.297257024 20.3841549872
4300 1 43.4888944572 48.3732246886 54.9955880792
4301 1 35.4199355023 34.7853272131 26.6170570938
4302 1 39.3117978273 51.6912241509 51.3047474687
4303 1 4.1199240442 56.1092542303 25.5814587643
4304 1 41.4277635144 57.6585552121 44.4749249869
4305 1 34.488271544 39.9069040328 35.7050527639
4306 1 43.35084199 7.2836020331 28.8590197973
4307 1 33.4333610848 46.4466349166 10.2778248613
4308 1 36.0699934953 51.2513757646 27.0246600755
4309 1 46.5349440192 53.3232746828 27.1629466291
4310 1 49.4817409384 27.7907664121 26.327960363
4311 1 52.3073981343 61.5257214197 12.387762823
4312 1 13.4156948222 13.6300009412 36.2178190705
4313 1 22.3489008459 34.0748749234 54.3668319506
4314 1 56.2975182349 16.8120547142 51.9837736564
4315 1 11.1075441829 14.9257863284 50.304788797
4316 1 53.2408762624 6.3430779038 28.678422123
4317 1 54.6486134807 25.873247489 44.1807368765
4318 1 42.2375854902 41.1552869196 40.3372719191
4319 1 12.3769948476 57.5063405164 21.71914985
4320 1 9.719177616 50.1396408265 19.1797803477
4321 1 3.668902713 20.295787363 42.4633618439
4322 1 35.4923852498 41.1714974043 15.0484476133
4323 1 17.3065622799 48.5249126898 29.3235643011
4324 1 35.6189674823 44.7537219151 10.9720081448
4325 1 8.1289875885 39.4620227885 4.7917111093
4326 1 24.6881264576 41.9282988056 3.4553339662
4327 1 14.7190294964 4.6485848189 29.2649841741
4328 1 59.9404881721 54.8694154979 32.0451700827
4329 1 35.046977311 16.5120729648 11.0579178615
4330 1 48.0441577013 36.2862308273 58.756830181
4331 1 16.7067158244 33.0547262977 43.5631583745
4332 1 32.2640408869 26.1540926733 20.2972504032
4333 1 46.2798483412 48.5570410512 34.1475002357
4334 1 17.5398879207 34.1394242541 46.157362621
4335 1 12.1300921944 31.6648966907 24.4186929863
4336 1 7.7463674801 52.5062545496 8.6207504909
4337 1 23.4242938671 41.7442483565 9.717539011
4338 1 23.6762879 16.2869988704 41.3697100818
4339 1 6.3176268576 59.0094094299 5.4526424165
4340 1 46.1801860472 10.1719007555 17.7417289378
4341 1 56.8327568381 17.4818344882 46.3875866167
4342 1 25.2820037094 26.477014892 51.0322123523
4343 1 5.3171707522 42.920298539 40.7202958265
4344 1 51.5520012516 18.837428956 14.9575050385
4345 1 8.7507152722 33.4367553379 35.3136602668
4346 1 28.6774272557 18.8716640952 56.806070986
4347 1 3.7976203989 20.5296396983 50.1092095917
4348 1 44.3108889269 6.6838550643 31.3402773454
4349 1 28.434152942 57.2099871066 51.8642725381
4350 1 49.5918785998 22.5496299525 5.364151897
4351 1 21.198717213 43.019375617 11.0594394232
4352 1 16.2050686228 53.8128079121 20.5987537143
4353 1 40.2518888968 4.2104101505 40.6687968138
4354 1 59.4854241684 10.2178987373 60.0613352873
4355 1 56.9111757893 49.0812190709 28.9642416439
4356 1 44.7887763567 25.2868610027 19.4990157053
4357 1 40.0997912443 39.4103482109 27.0878048878
4358 1 26.0405607588 20.4881478801 21.8840052125
4359 1 15.0475112676 31.3950535681 7.2255251919
4360 1 27.223926142 52.5544178308 56.4136836217
4361 1 15.882907185 15.987309729 58.6606791833
4362 1 19.5288617241 27.6682221703 29.743749428
4363 1 40.4430204601 14.33822941 54.2286624402
4364 1 43.8670610714 48.3506938705 32.7409919711
4365 1 31.4534581303 14.1772364735 40.7064847277
4366 1 33.0169213406 40.7444652496 3.895405905
4367 1 58.7900704528 37.0775014541 57.2585600391
4368 1 25.8017340871 31.3005411754 26.4451791387
4369 1 34.4887397169 6.9343743528 23.484219991
4370 1 59.8724860666 40.0052203299 12.7609551008
4371 1 46.2501193656 45.0477929823 32.4154948018
4372 1 44.9425126142 28.8502415565 38.1214683732
4373 1 18.3457889489 39.6185095613 19.8013383189
4374 1 49.0379716045 17.3474103605 42.4472098808
4375 1 5.8455213624 23.6186441186 10.4206761001
4376 1 43.2068203191 36.1616383293 57.9334311927
4377 1 12.1399823457 51.1675728256 21.7686006066
4378 1 60.6013141405 42.7600663834 6.0718244105
4379 1 14.2214202855 4.0044140994 51.8066287568
4380 1 50.072223937 5.7220466271 61.8778459195
4381 1 53.2814902565 60.2668046439 33.5773827557
4382 1 24.0143672145 55.3228994183 55.4686767374
4383 1 37.065797133 35.8428711446 24.6156767101
4384 1 47.6188811947 45.0329284945 60.8193656423
4385 1 40.1408148897 60.2261906498 47.2999384452
4386 1 7.9186609386 35.9586854018 16.3810430903
4387 1 46.4834450064 18.5572275093 60.9653770478
4388 1 23.2129138283 49.5532543402 34.7387440152
4389 1 30.141228172 3.2318012723 56.8677527581
4390 1 4.5979109608 53.4360458164 29.7144301037
4391 1 36.4466385477 8.893964458 22.7917338341
4392 1 35.7085640602 61.3509759059 43.6628791901
4393 1 34.4444973832 56.1293856625 53.1241841812
4394 1 22.1201398903 22.1503370387 37.3922891697
4395 1 54.2329345174 49.0514900953 23.2284220537
4396 1 44.63761505 23.1202741269 7.0953087676
4397 1 6.1363444805 27.0693120605 7.756678987
4398 1 26.6471957206 25.724485568 57.3005785518
4399 1 12.8324685026 18.1393832466 28.1583991373
4400 1 13.0110764423 49.5647830965 30.3315989545
4401 1 14.239152332 28.6203686904 39.6432056788
4402 1 38.5156699073 24.55844258 16.8722734461
4403 1 23.3792907525 13.8801808044 47.6985290997
4404 1 16.2917391204 27.9356073855 60.6058788257
4405 1 5.39233005 9.0593582192 33.7736056987
4406 1 23.6956000298 14.4406422194 20.2229864859
4407 1 53.6134248024 51.2351067583 53.2062899936
4408 1 38.7368815757 53.5844566078 41.2802305472
4409 1 42.0216992878 28.857732322 50.8749062769
4410 1 51.7993135561 18.3286421186 36.1463641903
4411 1 58.3580639616 11.1104702632 16.0395695227
4412 1 43.445178818 43.5887323161 43.3313542954
4413 1 23.1869302355 53.5283929098 51.9301678658
4414 1 12.6828287575 45.3007233609 52.7150011161
4415 1 60.8404919418 10.5095118971 26.7088774927
4416 1 52.532589272 35.9043188303 40.427161105
4417 1 56.205405228 59.9751914841 19.6842365864
4418 1 12.5279805896 52.9398411241 29.0240507246
4419 1 47.5439150182 60.4644321054 22.8705624366
4420 1 8.402874554 47.9409841109 31.7784286052
4421 1 11.387687108 36.9432528913 52.8065874286
4422 1 42.4576267266 42.1324806869 16.5710042214
4423 1 25.128852668 20.8729274357 12.0881907249
4424 1 48.5202309614 20.5614754516 60.9791881467
4425 1 6.8990155988 58.2569386275 41.6296045315
4426 1 19.8466340415 36.1650911041 16.5311510082
4427 1 21.1299543267 41.7876128661 3.3565459849
4428 1 61.4668486846 56.8764139557 31.161025668
4429 1 42.8296485722 26.5867429022 11.9603795386
4430 1 33.1306873416 56.0188968715 55.6774233039
4431 1 14.4888640223 48.5844876841 41.8862802929
4432 1 53.9422577033 7.1480659949 40.1553282478
4433 1 8.9398512488 58.3696512395 11.6039829617
4434 1 59.8956606224 20.9871616094 35.555530062
4435 1 47.2472104787 27.7131082417 18.6929391123
4436 1 12.6795515476 12.7568000668 25.4032019542
4437 1 31.3887917563 24.3487011462 56.2676136945
4438 1 35.8191113728 3.3605699305 25.8805626896
4439 1 24.1620757465 20.0550294784 16.1187492548
4440 1 44.1201084933 13.8660770975 28.2889023174
4441 1 58.5320486946 53.8054927114 21.1149142741
4442 1 42.9369186749 34.2463432272 35.6137005378
4443 1 18.7739330142 42.2179807524 4.7217192692
4444 1 13.1826617894 31.143820316 58.8289873204
4445 1 35.0175409434 55.002142499 27.3237054792
4446 1 45.8068182046 17.5709628932 13.206597126
4447 1 53.5411506198 11.3481850244 8.666830403
4448 1 31.6864326415 46.7500109191 3.3425095779
4449 1 4.3265755373 17.4358950279 6.084892285
4450 1 25.553778045 20.3979660861 34.8400449142
4451 1 38.3024756987 12.2732945628 11.6869665981
4452 1 49.5630274483 29.0771298207 60.0630909355
4453 1 24.6424796054 34.5127335751 38.55441121
4454 1 44.7511469645 40.1770397634 12.3540543783
4455 1 60.7360308762 12.9450055498 40.4446005434
4456 1 37.1967099644 5.6207398759 12.7973555393
4457 1 17.752087262 12.2368356026 31.5157836401
4458 1 37.6234495111 15.4376162893 22.4330549145
4459 1 46.578425572 13.3021629077 22.2167005393
4460 1 52.174261482 45.5806907213 28.538262878
4461 1 59.9025661718 45.7865697291 42.7137757935
4462 1 8.5360521714 48.7637393615 23.1742310471
4463 1 5.8936729393 34.8681938064 57.1257745164
4464 1 17.9634673007 5.3713559066 30.6713753955
4465 1 40.5212638465 6.9950846662 6.1862400013
4466 1 33.8424271067 7.6957111784 40.2651147796
4467 1 45.5114011404 9.6652206958 33.2292962467
4468 1 24.7688862731 52.5014557779 41.0086317764
4469 1 9.3157881898 27.2232238827 61.2336986086
4470 1 60.0540200866 32.117502787 46.3339223046
4471 1 28.5871284186 28.8519386831 61.5960058678
4472 1 21.8429230455 29.5537297753 35.1290831234
4473 1 59.8390702299 23.3681716475 5.4019100368
4474 1 17.5687975938 43.9837531526 59.1860861567
4475 1 11.9537665972 55.2970913903 30.5840611602
4476 1 20.4829979788 3.982269524 25.5469895387
4477 1 23.0600553949 44.5258973052 17.7856786635
4478 1 4.2570694265 34.5030189886 16.229355089
4479 1 22.1719900327 42.8281855321 7.3700735572
4480 1 5.9857683897 3.6820080413 58.8964042099
4481 1 51.5570926313 9.5783161117 35.0788715859
4482 1 45.2973876294 44.0364811191 36.5620431536
4483 1 16.8557703534 10.3811740165 57.1653936432
4484 1 57.3646011881 21.4007337949 54.8500448465
4485 1 57.3499122651 20.6862435144 32.1079052437
4486 1 55.127905429 41.4384144466 24.1036126627
4487 1 36.346332516 19.6937756081 22.5558917643
4488 1 46.3588525085 9.5525666054 22.9292010852
4489 1 42.1783616255 14.8974033497 58.5515363892
4490 1 33.2957767904 56.4641292455 34.2729120361
4491 1 23.0136477618 24.363565634 8.1461285667
4492 1 4.9252398564 24.1044319652 38.1239262806
4493 1 23.9774400815 54.2699786936 10.8271086497
4494 1 51.848120575 48.8236654855 35.0422955825
4495 1 4.2021586042 16.0267532911 61.2449932785
4496 1 32.621607896 43.0107144194 28.0746547199
4497 1 29.971866646 5.2325016934 18.1885999168
4498 1 4.6265923996 26.3077118876 10.2760106915
4499 1 11.8725971305 27.9327398268 38.3245968656
4500 1 36.9086081009 34.5658711928 22.1353555077
4501 1 47.0254135942 43.1788469917 41.3912460326
4502 1 42.1304909523 52.4553992744 11.0589127288
4503 1 42.6196145304 29.47589604 47.092771962
4504 1 16.093350878 60.1115468248 10.2142118762
4505 1 46.9577626183 8.7469757417 53.277569309
4506 1 9.2182911952 32.5998963804 46.3517128726
4507 1 60.5539116401 58.1091715738 25.1449461095
4508 1 23.7747212403 31.9603137548 47.7560558378
4509 1 27.7299039424 8.7898135568 43.3575134531
4510 1 18.3357817544 8.2599940543 54.6538219035
4511 1 37.9147700628 40.0625129816 14.0102743332
4512 1 45.045920291 53.7280101058 60.4623253276
4513 1 28.7703595651 11.7745149198 17.4698960807
4514 1 44.7332978748 35.926322954 11.9801598413
4515 1 7.119671312 38.6042716179 29.8713265279
4516 1 36.2823684013 3.7877788205 56.9481029223
4517 1 47.0073304181 10.6056043732 35.3699580513
4518 1 28.8263062199 54.838106439 10.3132304326
4519 1 61.3489276497 49.3103311561 8.246932032
4520 1 11.2891952461 57.2935559591 17.1693876368
4521 1 10.0859910387 19.8702767701 40.6143131991
4522 1 39.2626396788 54.48200247 38.5215805894
4523 1 39.4416572698 23.8853855961 60.7638871604
4524 1 6.401447353 19.6732345246 49.4610242901
4525 1 30.8402687487 60.8045011545 14.0488400712
4526 1 21.2879626613 10.7289093958 23.7295425609
4527 1 36.9280372739 35.0476795702 13.4777277239
4528 1 24.4724743417 55.9208146608 46.7933754287
4529 1 52.7538009405 15.2755114423 31.3030576044
4530 1 11.207499085 54.235509468 37.248969758
4531 1 43.0832226885 33.0004767695 45.4454472911
4532 1 25.346728605 10.1683894592 34.5791555973
4533 1 40.9860424367 51.5887528198 37.413298426
4534 1 9.2521166831 19.7431678431 48.4493027756
4535 1 47.4645597212 10.2992437689 11.9595602362
4536 1 38.6918784612 39.401277362 52.3170541992
4537 1 24.3444875906 10.7238765378 22.0438862385
4538 1 9.7384897458 56.7292906397 56.6461314384
4539 1 31.152130384 34.9130213562 10.2550599568
4540 1 61.8234208264 54.0825339915 45.1679378382
4541 1 9.6932525448 48.8402856214 50.5421524285
4542 1 18.930127179 10.8602318784 20.409845972
4543 1 60.9645577453 56.8288944121 52.7580730177
4544 1 9.6411097944 23.2370832513 4.8959029756
4545 1 27.757994313 60.0970334666 59.9527191877
4546 1 60.1904339489 12.9800014698 52.2832872329
4547 1 10.5345591443 3.6477336927 42.4817961496
4548 1 3.2072670256 26.4830426174 46.6467202855
4549 1 55.3043480694 20.6503112487 39.4305966863
4550 1 5.6156133833 60.2686188137 25.239048851
4551 1 14.2464675327 56.0096504579 28.933225193
4552 1 12.5114774969 52.949204581 53.2799686948
4553 1 9.216535547 44.5518223764 10.2104079719
4554 1 49.5544832939 39.701317633 17.249152585
4555 1 19.415856504 11.6497468571 40.1500613033
4556 1 54.7188979288 54.9166424335 21.7973932365
4557 1 20.7027466071 44.4932422494 50.942674296
4558 1 11.3747538332 53.351716183 13.9727034625
4559 1 33.9358275889 40.5085061365 32.0075406904
4560 1 60.9025248436 3.4878918761 15.6248269051
4561 1 49.9571119392 60.9004765874 51.0687883557
4562 1 28.585431292 40.1565572015 52.1842686765
4563 1 31.2714559375 48.8756326711 23.8661905096
4564 1 34.4504080653 19.2988132932 8.8879308805
4565 1 26.6184030907 13.7000513029 38.4215086441
4566 1 21.29083022 3.8856971707 18.8068221564
4567 1 29.3021453936 19.7125025219 19.0050933556
4568 1 51.839225291 45.1498546622 10.4040559642
4569 1 57.1674418994 57.0308524724 9.2820797451
4570 1 33.2929092318 5.4104015218 61.7522000326
4571 1 18.2908371615 47.5442076262 3.2784491951
4572 1 60.5855718286 25.1261606742 23.5911974857
4573 1 41.1467427652 34.5225066832 48.5755338785
4574 1 49.6000131029 47.6140239015 8.5354728075
4575 1 5.6906029685 50.5849317221 13.8857988785
4576 1 29.6556158903 19.8016309269 28.4179424573
4577 1 54.0882691088 4.8475231644 3.7471238612
4578 1 13.0478865321 29.9522033865 20.2227523995
4579 1 52.6730996466 27.8004809986 50.8715120238
4580 1 18.1032754161 28.9444028196 56.9536039532
4581 1 33.6720707133 57.7404269381 24.8091491376
4582 1 46.3465044497 40.3121076287 41.4018384432
4583 1 39.3703779544 20.4202628178 35.4486696105
4584 1 40.4197288611 27.0305707577 13.5775655827
4585 1 44.7785350758 39.1104249831 36.3653520378
4586 1 32.6718779551 31.2136951129 22.7574986949
4587 1 41.6178416888 4.2896484043 34.9168837821
4588 1 41.6347544328 51.3134671879 53.1800723143
4589 1 29.9927003375 17.5868222483 47.127182666
4590 1 37.9119025042 39.5603976072 49.6539115015
4591 1 12.2680276183 5.2024157361 9.4136363141
4592 1 11.5381461556 26.2299951956 22.4549419949
4593 1 35.618265223 28.1022183961 38.0299991039
4594 1 6.0421598087 44.0251279277 56.1784852895
4595 1 45.9770575547 28.0640037877 34.4705394976
4596 1 16.2775183703 27.6161964631 43.6972898941
4597 1 52.0037295238 13.7280246303 38.9494905682
4598 1 26.0530258608 37.0119572561 35.4429344932
4599 1 23.7511370333 31.1269660937 44.9631707409
4600 1 41.3507490817 48.4823089611 31.1829712701
4601 1 52.0160775826 37.3551279502 43.8417797379
4602 1 15.5938104542 5.2931710418 36.9531430426
4603 1 49.3614205176 10.1352077089 48.1597963936
4604 1 33.7069495901 34.1316994022 11.7480631542
4605 1 3.4198277377 51.7522036637 36.7310535501
4606 1 43.4227650431 44.4788459345 24.9248463516
4607 1 33.0565989891 42.9253899187 30.7926906835
4608 1 21.5300665429 20.0867481885 14.9786898596
4609 1 9.0953958238 36.9067939311 18.7233703471
4610 1 32.4496128977 6.2651212732 44.6417700839
4611 1 14.8375357474 22.7396496053 33.371328183
4612 1 22.0562928188 16.488898409 37.4674894326
4613 1 15.3591973381 24.211994676 23.8060888208
4614 1 22.7320417966 9.2686782975 34.9528745694
4615 1 53.2837140775 39.9123465421 52.4158971908
4616 1 34.4405764356 12.8064263882 21.9659939817
4617 1 39.988307586 46.8365643735 55.4427516662
4618 1 39.6129500088 48.7910689512 33.6295840277
4619 1 33.8303716559 14.9776364708 16.1361886932
4620 1 45.625518271 31.2847988635 21.0140230263
4621 1 38.4323351411 34.9525819614 47.7831513411
4622 1 33.2318711973 8.219666816 56.7138409358
4623 1 12.6160556057 56.1228312427 43.106280201
4624 1 13.3396167351 13.7286683679 39.2776212098
4625 1 37.9394661803 28.4391858001 39.8594430108
4626 1 15.2643923373 57.5540941464 3.9862372888
4627 1 41.0269490389 37.373854864 32.6255873652
4628 1 18.3617068256 54.0928923156 58.0874600582
4629 1 52.9062497226 54.4684254576 25.2831156199
4630 1 47.6360280251 31.3338399688 30.1404673912
4631 1 10.1806204747 32.3680337798 43.6000855075
4632 1 36.1241845019 11.4941964299 35.367031971
4633 1 33.7809208994 50.0359405417 37.8517422938
4634 1 30.1907959718 56.6538562903 39.3922650348
4635 1 50.1982209535 59.4876479894 59.2899034847
4636 1 38.9995850624 51.1971262364 23.6438669306
4637 1 60.7517146664 11.9479144367 58.1167793825
4638 1 57.767873571 60.0076124535 38.9666959202
4639 1 20.5354918588 27.4145310108 36.808477634
4640 1 13.8621561499 19.8258003499 41.4931321477
4641 1 52.6736848626 24.4376539865 27.7765456619
4642 1 13.9302752986 58.0459097184 37.8097823027
4643 1 36.5418531997 43.4699334571 28.3944167719
4644 1 48.9597282181 46.4715651205 47.0221949059
4645 1 15.8405960642 3.5379734956 12.2792637666
4646 1 52.0740139719 13.068076486 10.0865177332
4647 1 53.8923387739 13.2295961169 12.2869300969
4648 1 34.276189246 10.4808948321 39.8922151099
4649 1 55.3484733599 44.7612712022 3.7780484332
4650 1 31.2093645141 27.8927110487 30.5883332374
4651 1 48.6555914347 24.4328552148 20.5620606677
4652 1 34.9209217729 59.305587275 26.8425993611
4653 1 5.2757374555 31.2046827857 11.7687798025
4654 1 50.1156469683 14.7438426571 19.6024819037
4655 1 36.049862063 24.7187332573 19.4239324855
4656 1 51.8901390877 49.3641125115 52.0085868171
4657 1 54.8604616923 23.3860792587 21.8957680552
4658 1 3.4678031647 4.839090201 3.6019294173
4659 1 45.9187700358 19.8162613283 58.4927221757
4660 1 3.8833914194 17.2836803322 9.6556816741
4661 1 54.7019266632 34.9362544335 45.8471395907
4662 1 56.6852823924 13.5026579278 48.1901105852
4663 1 48.1736660141 49.7074002489 25.9182506035
4664 1 31.6025126593 20.8319623119 31.8673814454
4665 1 7.3172929213 13.4625706281 16.7572784915
4666 1 28.6595781661 15.8445755334 38.0813810734
4667 1 20.212745205 12.4988368301 57.9355964921
4668 1 16.98797066 57.9980390451 34.7881362502
4669 1 40.8661901888 56.9973195925 36.4052052511
4670 1 51.4142413925 31.184609875 28.3532175617
4671 1 52.3840614374 6.2174905385 34.2277333567
4672 1 13.4749772085 13.9714159872 5.6376643242
4673 1 56.2951773707 49.8162504349 46.9032204821
4674 1 38.996834547 24.1075336103 27.1616591538
4675 1 6.9400450963 25.2543815117 46.7139616102
4676 1 44.5779230124 58.5160722963 40.4584701639
4677 1 5.7729194587 27.5119694838 30.5075149003
4678 1 58.5941401179 4.7195130047 59.6248811541
4679 1 21.3803097546 56.9830988424 37.2463948074
4680 1 26.4190199811 58.2092435191 61.5615951638
4681 1 39.1374034432 20.5954765044 17.6256220727
4682 1 46.3747703852 5.7239368749 16.2476138299
4683 1 29.0254552431 5.2401329108 48.9144324955
4684 1 12.9409090374 57.2547561347 59.675911994
4685 1 9.0254156881 40.8544858678 60.7482618917
4686 1 20.9922529891 51.6130978077 15.827136095
4687 1 8.623670719 39.3145483428 52.8817876915
4688 1 26.1365361917 19.104697128 14.2368699894
4689 1 8.7376708064 21.5867154569 9.5005994197
4690 1 18.9106394844 57.2297674092 11.968631085
4691 1 45.6786558887 8.505053277 55.7894921783
4692 1 49.6243580908 50.9650295493 4.078104505
4693 1 60.7191766538 30.1892158885 40.67558532
4694 1 20.0878015774 38.3822991685 29.2560303685
4695 1 42.2820033887 19.2051202029 7.1179390725
4696 1 40.2388385788 42.6230673051 11.0094619722
4697 1 40.6320452456 40.5089157878 45.9160780419
4698 1 58.9035438457 29.4095325395 28.9215208719
4699 1 3.6277234001 47.7705106744 37.8947556738
4700 1 25.8011488711 59.3564425501 53.2884543276
4701 1 6.8172901768 54.0938871829 50.6189327748
4702 1 14.9514187915 7.4078141406 43.0817011267
4703 1 47.8877879716 47.699231359 42.6035210889
4704 1 42.5682325608 38.4834245027 23.0606991326
4705 1 29.6380008871 50.6865252291 10.422022097
4706 1 45.2177982461 46.2353719211 49.5064370559
4707 1 59.2493480122 42.5830970486 3.5764619851
4708 1 4.5359365806 59.7209736302 49.4727871327
4709 1 52.5801088156 59.9095302429 16.4523809273
4710 1 19.6980476853 31.9309944305 25.7200964476
4711 1 33.8694640884 40.9309150844 11.2135268103
4712 1 27.2253891821 25.7067535215 38.6822223963
4713 1 5.0802694413 26.349613357 59.4333399396
4714 1 43.1621098126 42.7233733368 58.8237788976
4715 1 50.7452223993 10.2756010403 37.6767626936
4716 1 20.9048217106 35.2763234826 37.2019769088
4717 1 23.5834141122 17.4282872192 31.64482378
4718 1 29.2371278899 10.8121271188 44.4624598849
4719 1 39.8087047789 38.9927965562 16.9815332835
4720 1 30.7310089114 34.7831619137 57.8139885961
4721 1 54.6160169465 15.4331686473 48.1477994645
4722 1 37.8207258429 30.2315855308 42.8724278658
4723 1 38.7154626681 42.9077163938 4.3205829249
4724 1 46.848502781 54.4350681425 9.4933427407
4725 1 19.642335117 58.2702815535 19.2580237342
4726 1 35.475589549 14.5618404643 5.8910277627
4727 1 33.0598176774 40.1588395442 39.2364219996
4728 1 55.4593718021 12.2435655873 56.6113110832
4729 1 15.7768660359 37.2205282578 38.623525226
4730 1 46.3076461037 36.9500413975 25.0260302073
4731 1 29.989949822 60.0405601174 8.5807451215
4732 1 37.2151442701 18.4102797581 31.2266869093
4733 1 40.2893427242 37.4371167194 61.0158226717
4734 1 44.7615638102 23.6942540328 61.6541763436
4735 1 34.8967523499 10.7263929668 28.4742402417
4736 1 10.8512195512 61.2730836491 45.1298402731
4737 1 27.4075669398 51.5029016247 8.5648565056
4738 1 26.586333251 53.6940675747 11.5239254054
4739 1 42.7657429791 13.8399764614 41.6975481154
4740 1 40.8222404632 37.7004639438 52.0310591136
4741 1 26.4587561512 43.0999598676 15.1760247131
4742 1 16.3356303245 54.9437379368 4.3100022186
4743 1 50.482460391 41.4640469098 35.6279798095
4744 1 40.394974222 53.1606431413 45.8706067545
4745 1 42.3102108025 23.3167311563 50.1783821293
4746 1 17.8135934693 50.4960374035 49.302489261
4747 1 34.4930117941 15.0905831692 25.3510592038
4748 1 23.2605504151 9.6058212663 13.6680399847
4749 1 7.8328565607 8.2533811129 28.7797815436
4750 1 3.8759299148 12.0479278603 15.003561542
4751 1 24.5000965394 28.0034924477 41.9827824202
4752 1 5.4000783106 51.097815072 40.5859887421
4753 1 12.4494445951 50.1045278632 40.6496602488
4754 1 29.6507000754 24.9881667286 14.8196281361
4755 1 45.5315325727 25.4682779795 49.5269781394
4756 1 46.2627015108 9.7199383968 28.6741500458
4757 1 5.0949056948 42.7428610314 24.655588445
4758 1 24.8241306686 36.9200783355 14.3660856941
4759 1 9.7301796778 38.6142788124 9.1286360957
4760 1 46.4494439537 27.7506791123 30.9152934469
4761 1 16.2683889998 50.1924858362 20.8035208116
4762 1 41.6158519542 57.5917235387 3.6081982517
4763 1 48.1630736035 4.7720185891 22.0857291863
4764 1 52.8755258797 49.8442822839 28.8273596088
4765 1 47.5186922063 60.9616316651 52.2907779984
4766 1 34.3849223889 31.2701099405 35.7021266836
4767 1 57.8073756547 26.3688084436 42.5604491873
4768 1 55.3479466654 14.6414883692 8.4025995024
4769 1 19.6535712652 4.1659337304 38.4447417215
4770 1 15.406365752 8.1953276804 36.7923256709
4771 1 51.4679057046 31.7090805028 35.8191698944
4772 1 55.2874353254 44.6206437844 33.1967582341
4773 1 10.8601733568 31.7835199849 14.3156985919
4774 1 30.3835661401 38.7177450108 54.0604128246
4775 1 3.6127570848 42.8068836677 56.6094969134
4776 1 8.5197480521 15.8968938486 20.027641367
4777 1 22.1209006712 35.6066194236 39.9447089899
4778 1 21.6461734081 46.1854529916 31.7326647098
4779 1 41.8878603762 42.5510272088 36.5159866501
4780 1 26.3984788976 34.6212911532 8.2489393231
4781 1 44.5211570552 3.6638048959 31.4456747568
4782 1 29.8161406539 52.9868924948 36.8117548439
4783 1 30.8299104246 49.1680651333 52.6986735882
4784 1 15.5111194257 53.7498386647 16.8145126216
4785 1 11.2612804403 34.270102999 36.2973499323
4786 1 54.1526428748 57.4438394418 31.000266818
4787 1 19.7360867288 54.5745251282 26.1103770341
4788 1 8.463385894 26.7046639371 14.9315799673
4789 1 51.7127601017 60.2217430078 8.8122507403
4790 1 19.2355514377 30.8798878756 33.1886237309
4791 1 33.6501251113 36.0430735568 18.5295467899
4792 1 42.3367796114 52.7054035728 60.0666607534
4793 1 27.6515435128 16.7729037601 61.0600650054
4794 1 4.8763216464 57.3980170248 3.4972249018
4795 1 5.4403528794 22.201309357 13.6158972343
4796 1 54.0488255467 33.7856026278 6.508436552
4797 1 11.1829200107 40.9924212917 33.9309702956
4798 1 43.7940261079 46.5081411239 36.1018877702
4799 1 57.5032973929 33.440442199 48.4535163312
4800 1 61.2679922694 51.6822703453 40.1114955654
4801 1 45.6791240616 12.0540141073 26.9238273494
4802 1 44.463045101 44.2544740993 30.2409489877
4803 1 19.098025665 59.7464890502 61.5709000991
4804 1 58.4087436719 13.3941003498 41.8215553973
4805 1 32.0541238883 14.3948198024 30.4900754619
4806 1 52.603634501 37.9270010784 54.4391646549
4807 1 43.7651164348 16.0990274738 40.5826530106
4808 1 55.9616627414 41.6636641059 11.5748392022
4809 1 53.0145732142 27.4015392144 4.2098541953
4810 1 45.7480625127 30.0180401926 18.517081688
4811 1 31.8102058369 57.4532028987 26.9080850375
4812 1 17.0686719539 32.8390156602 32.569114016
4813 1 41.5731311823 25.1447120231 9.6235533127
4814 1 7.6097195314 43.1765061275 21.0517109402
4815 1 52.1750222629 54.8342440131 45.543646545
4816 1 48.9130279769 50.5154080549 46.8946178061
4817 1 42.7564380438 16.8575260016 34.3699408579
4818 1 43.9584718191 22.2094438602 11.6942232772
4819 1 26.3531246534 61.346060091 14.6547142521
4820 1 58.4428617679 59.6052178947 58.1846644448
4821 1 6.4661078748 31.1686334767 40.7085915054
4822 1 46.1918318466 54.7303096418 24.7861501467
4823 1 39.9410221288 17.3399781166 60.1937111588
4824 1 51.9938393725 50.8323610698 32.9789408187
4825 1 49.157589766 37.2288383257 33.9087320856
4826 1 21.2396238152 34.1231552478 19.4675896032
4827 1 19.1447844277 61.5827214634 42.4073566675
4828 1 12.0181403632 5.1482188773 53.3515406182
4829 1 31.7986770807 30.909499808 14.157573214
4830 1 9.7415328692 35.9545888894 29.7045399524
4831 1 30.1398236535 22.9059680079 53.1920107218
4832 1 17.6924537461 56.8722589217 52.8908585404
4833 1 40.1772738499 24.5589107529 19.0076683062
4834 1 38.7855130298 10.7893036926 46.8990654481
4835 1 10.5332716689 58.1507804353 7.9537329367
4836 1 21.1188352216 4.8003957155 43.5716440073
4837 1 30.4695929 55.3565493414 51.4605319823
4838 1 19.4523739858 47.3510278067 53.881044104
4839 1 25.1681206653 34.691458558 12.3980626256
4840 1 49.1475240498 30.3820445783 8.9281703364
4841 1 7.0400351113 4.4827931108 12.033882675
4842 1 14.636923684 54.0917804051 36.2610080153
4843 1 53.3908086154 53.0110619179 43.365238305
4844 1 38.105023802 56.428021415 47.2198223674
4845 1 33.6503006761 58.3066234705 20.6669313846
4846 1 46.5525005008 18.8249638541 41.769237082
4847 1 32.9739664823 6.4050815447 25.9016304676
4848 1 45.0196440901 57.4063856144 46.7670407063
4849 1 10.3705816059 53.9335965057 56.6741047658
4850 1 26.286000372 49.4630140246 26.5240077412
4851 1 15.0846724871 58.2239909636 53.2854697257
4852 1 31.8902048715 21.5826189446 29.2267110442
4853 1 31.076637513 43.5708247048 25.7852309944
4854 1 39.420706535 36.1952297308 53.91990245
4855 1 45.5622564155 41.2411966364 24.1988273148
4856 1 47.4782537769 35.0831436631 15.1002977557
4857 1 5.2772824259 61.3853866099 54.0982177817
4858 1 32.5282074138 30.3701646924 19.9506269343
4859 1 46.8276690895 37.0398720618 22.162158403
4860 1 37.2330518813 24.177291364 29.5726322538
4861 1 13.2668743796 12.7474366099 58.280288748
4862 1 44.411721653 14.5709698347 54.2750700733
4863 1 60.88052072 38.9467985744 3.6033128681
4864 1 29.7720738851 46.6230775569 52.8010863976
4865 1 8.6300437219 57.4917686367 52.6657844459
4866 1 45.5362143011 21.5519536233 16.9673125333
4867 1 42.1574108908 19.2098604529 50.1642784224
4868 1 61.3717510758 28.1778868319 37.5262451245
4869 1 28.2322534033 13.4342461711 44.0159400356
4870 1 27.6176595032 7.6420117533 16.3168448891
4871 1 43.7196451474 42.9626681813 34.5452130661
4872 1 6.4562235757 16.8719223165 32.2431486738
4873 1 12.3170687237 17.8680185623 48.2541332215
4874 1 34.556800344 43.907909152 20.1201055036
4875 1 11.0510123121 29.6025953158 47.1938972962
4876 1 6.4776132225 33.5086198694 33.7238038125
4877 1 24.1333416383 45.6911209907 7.3971046868
4878 1 61.0614695239 50.7294800875 30.460697616
4879 1 53.4986054126 20.4606427255 37.3428969347
4880 1 18.1380957713 3.741020643 58.2256295686
4881 1 25.6503386939 51.8535045627 38.2456512199
4882 1 22.8068909299 56.4387308688 26.6069328561
4883 1 41.7806487951 14.7378149318 35.803661669
4884 1 44.1537584164 54.9536280881 5.5004311595
4885 1 20.1171794233 16.207702095 49.5720397755
4886 1 53.9110656876 28.3442637561 48.2151578323
4887 1 7.9437725595 29.5508622166 30.4975662274
4888 1 52.0364431013 58.5534676021 28.3206795491
4889 1 37.078262235 33.4627974523 19.277628472
4890 1 34.8647410317 50.272601914 4.7248209143
4891 1 55.7635671071 22.3867643246 59.3788563249
4892 1 19.3610802813 35.3229066805 13.7909353561
4893 1 13.48305319 42.8112727881 16.3541231518
4894 1 30.2133267899 8.6082034587 16.1705408756
4895 1 20.6425863968 40.5519876894 55.8371287651
4896 1 35.1438890895 10.1095752457 53.1774388421
4897 1 32.3865851287 35.4645874872 44.4546179898
4898 1 5.0004459715 53.4665355728 13.8664867487
4899 1 49.7729444469 48.0175888924 13.921321493
4900 1 8.1132920939 42.4350373869 32.8271942959
4901 1 43.5599396862 27.6071256143 33.0459480569
4902 1 10.4697172055 11.7104337619 30.1503575425
4903 1 17.3066793231 19.8312428592 21.1653598979
4904 1 46.6794923846 9.3109308966 3.6620387139
4905 1 10.7276219205 60.7522998825 31.9986454064
4906 1 53.6092112469 20.0712399631 42.0287218805
4907 1 50.9110726291 18.4229789465 32.7426890977
4908 1 53.4860232674 34.6213496748 11.7619912963
4909 1 17.0842972226 30.6491371855 51.7711061423
4910 1 30.304679016 51.750096886 43.1692494484
4911 1 43.7253217431 42.7533363987 38.67069364
4912 1 29.6147678097 45.6611579287 34.3863269074
4913 1 6.051792465 39.0313622942 27.3317229392
4914 1 22.6200899654 27.2058429659 17.6171949615
4915 1 17.560019353 46.1199087936 15.4441707091
4916 1 35.00174011 55.3540329124 39.2298675798
4917 1 46.157070013 60.0634420651 44.6279589851
4918 1 27.8112489739 20.5940134643 5.1088689498
4919 1 45.7477699047 37.3625016725 15.7823085452
4920 1 50.920728694 48.8495905567 16.2747093332
4921 1 29.6650378688 6.7927813284 42.2516891971
4922 1 14.7906599414 13.4782544184 56.0008136954
4923 1 61.1860620218 47.7844388165 44.4689557831
4924 1 50.0503953782 57.4771382353 24.7383965167
4925 1 18.8587308204 9.2910335507 38.5191812036
4926 1 3.3225326427 4.4405463638 57.7797534569
4927 1 38.6595160134 45.9156683907 41.0354346717
4928 1 8.6384474244 60.0541956515 24.9429295276
4929 1 38.0542270485 4.225262934 59.0967236652
4930 1 9.9478800499 33.2232099997 23.0070348204
4931 1 8.4078781512 35.6220691274 55.9551083216
4932 1 45.4744740074 21.4432204805 52.0169554067
4933 1 55.8202745427 34.1638277636 42.0285463156
4934 1 43.0675388982 4.8750341711 25.1685888381
4935 1 50.6658671024 15.6298597631 58.5189398549
4936 1 6.3777226942 39.1042802145 23.8096586387
4937 1 24.1397790149 5.1118594039 25.1450631527
4938 1 8.0032890322 59.0176024547 56.2309206479
4939 1 59.7112005221 16.4695862793 46.7379554684
4940 1 43.0797699137 7.78558866 11.7001339594
4941 1 25.4252645995 24.8111388722 44.9943627566
4942 1 19.785888615 8.666391491 12.6395812911
4943 1 48.6167330887 32.8257312557 33.9323162926
4944 1 3.9498602589 16.3205902719 19.5592929589
4945 1 22.5364625913 12.945415201 22.4095292291
4946 1 13.8577670295 28.4866468221 49.7166466625
4947 1 46.8863662597 13.7828593746 7.2961139523
4948 1 49.4297152312 39.6940609539 28.8202784946
4949 1 41.010036295 29.0725066139 33.2889297626
4950 1 58.2162661117 30.5389995241 43.6320968257
4951 1 56.5484003573 36.5637402802 20.3179085299
4952 1 37.9494148532 60.0754975158 24.7854478875
4953 1 60.0945170376 12.4064897367 30.286127667
4954 1 10.6041998547 14.0299961142 55.2189065255
4955 1 26.4745569846 5.2187900813 60.5147606861
4956 1 42.7357213955 24.2699895869 13.4018252017
4957 1 35.3895627891 21.4326865915 42.4923885602
4958 1 38.1473934444 19.6554439566 6.981917305
4959 1 42.1523780327 23.2363809921 60.3777616078
4960 1 22.4273783188 27.6650620036 38.906652753
4961 1 38.9431117132 46.9992544366 35.8004429807
4962 1 35.9154379353 33.381862072 29.8612608117
4963 1 46.2893288413 42.2535033669 33.5124822953
4964 1 41.5572133056 13.2041392186 3.738848321
4965 1 31.9529985541 30.2208175554 49.0589223392
4966 1 3.5557078829 33.2680960711 6.4035482787
4967 1 59.7021296733 18.5674687903 9.8972003397
4968 1 25.7930728895 22.4527181739 19.9409123478
4969 1 27.3609252203 5.0719067039 39.9910581014
4970 1 54.6872962618 36.3082934725 15.6066266858
4971 1 43.2795626746 49.1193751576 42.7708928804
4972 1 35.8247879686 55.4736510738 35.1221775739
4973 1 42.2223698728 13.1488948231 39.0367462819
4974 1 60.7281304594 45.2718722095 9.3585089618
4975 1 22.4692797882 41.6162616055 18.2799521428
4976 1 56.5406755054 18.0043739029 58.0345565269
4977 1 36.0683548903 22.3141975339 24.2533109294
4978 1 5.5084369152 56.8325227516 32.6336633468
4979 1 37.6124474492 26.8785901484 14.1534181801
4980 1 26.4993116237 24.0228528473 10.2394932097
4981 1 22.3304665402 3.9691138671 23.0713500648
4982 1 52.8718390186 24.4253059277 9.2629431801
4983 1 35.5936861488 44.268168155 30.9192729161
4984 1 14.617787119 17.7330092186 56.7030144388
4985 1 13.0906073041 7.8099980216 30.4660230821
4986 1 26.2659859829 14.0477866823 29.2789708378
4987 1 31.1231621893 17.2357511374 60.1006618062
4988 1 24.7716953102 36.0771331311 23.8182027931
4989 1 18.3279983809 51.7434254229 39.7973515875
4990 1 60.7363234842 51.4418635902 34.2631974496
4991 1 47.2710872937 16.4197258714 59.4129744209
4992 1 28.105202998 24.1704443361 20.9192765472
4993 1 59.6989695066 35.7999748079 30.1912056231
4994 1 25.6805943639 26.9008868801 47.0714115761
4995 1 23.2210483314 46.0251037928 21.6053838491
4996 1 13.3024555157 29.6159967634 3.9425977276
4997 1 48.5997618231 58.0205698632 6.8770231794
4998 1 15.5567077564 55.5441696084 24.0171762515
4999 1 48.3545562964 34.4649214235 52.643370671
5000 1 50.2785711177 58.1425874105 44.7341171773
5001 1 61.4431474344 52.936739479 12.0979053114
5002 1 45.3610006145 5.0095870463 40.4381046452
5003 1 25.934636653 28.3389968116 4.3248374456
5004 1 17.7185543821 4.4865853108 20.5847670506
5005 1 32.1223600802 34.2510249557 38.7094934644
5006 1 25.4685120659 31.6902365458 19.3095812686
5007 1 26.363717064 56.726715689 53.9725133733
5008 1 37.3631454102 6.5962599253 41.8777361385
5009 1 51.4187475561 28.1912297579 44.33178114
5010 1 32.7841223943 40.479069769 51.2883028976
5011 1 28.2552523943 3.8838654444 29.6753961929
5012 1 17.7143408265 31.4570864698 27.9728271265
5013 1 51.1102801739 35.6682426741 54.7130457682
5014 1 29.2752254551 24.9770476236 4.1668115545
5015 1 52.9391388648 53.9895431605 48.1418302607
5016 1 39.3657547475 29.1343054292 57.0946995439
5017 1 23.3897075983 11.9073589641 18.6940510228
5018 1 12.1423232099 29.0871955369 23.0259958206
5019 1 23.7088259126 6.9463361689 55.2798275167
5020 1 33.4833970574 12.7062959213 6.689350243
5021 1 51.1105142603 50.0277475169 26.4809943612
5022 1 39.2641027189 3.6768856452 23.4283903794
5023 1 12.5647906794 5.3093932308 34.8360069234
5024 1 5.6528448287 41.6273221889 14.8168776207
5025 1 14.3686021232 53.6566137472 9.3681650267
5026 1 7.6408237647 57.7694536544 38.67069364
5027 1 55.7396317705 41.2345251733 7.4323288411
5028 1 25.9066633256 8.181136191 36.5266375823
5029 1 32.8182990118 32.0890612867 4.5458735492
5030 1 19.7959543312 11.5349274673 49.5019894138
5031 1 45.0160157506 7.97229599 26.6869318907
5032 1 49.6886733351 55.810735521 12.4263870826
5033 1 22.0967312482 30.3368658989 32.4178941876
5034 1 42.9318858169 40.9182158961 56.790796847
5035 1 60.5800122761 4.7559134433 9.1946484666
5036 1 17.3922379103 11.406531065 47.6289469109
5037 1 31.8969933778 52.0640067774 45.4827840754
5038 1 44.9728853274 12.1346568796 39.6483555801
5039 1 31.2831017369 52.0089379467 57.8288530839
5040 1 11.3605330831 60.1794904087 24.1914535925
5041 1 32.7804940547 17.123682263 5.713186456
5042 1 42.4203484639 58.4774480367 51.8090281426
5043 1 35.524689176 29.9236448431 54.840622868
5044 1 51.212166289 40.7468646354 22.8337523468
5045 1 56.8308841467 13.2297131601 58.938949417
5046 1 54.0957598743 61.0210310946 37.988156156
5047 1 43.4102999411 17.1978876587 24.7850967578
5048 1 48.0339164203 7.5722891126 58.9438067103
5049 1 17.931690069 8.7567020325 4.1614743841
5050 1 56.423866381 53.2797346084 13.738441476
5051 1 17.9802044799 15.5863782103 43.6732375143
5052 1 6.3182062215 53.2418711296 38.9506024787
5053 1 52.5792895131 41.2021042039 33.5512235981
5054 1 26.7625418049 49.6605829645 45.6314289532
5055 1 31.8006082936 34.3218360982 19.5590003508
5056 1 15.7739984773 48.8161161984 49.5388580253
5057 1 20.0121916632 48.8551501092 16.2233858853
5058 1 13.1837736999 48.5977720885 18.0851337184
5059 1 45.0316995408 59.5026295204 52.6520903903
5060 1 12.1663170681 21.99145088 11.3839417253
5061 1 20.3349383171 5.917210329 36.5376396441
5062 1 25.5304279244 43.6705455204 9.0989071202
5063 1 59.5538359251 31.5702672547 26.3078289308
5064 1 40.107691661 54.8274555068 29.3188825727
5065 1 22.9452945267 53.074674903 3.8607669668
5066 1 36.395432143 54.9720038722 49.2036462694
5067 1 37.545147603 48.3178047282 55.5405997904
5068 1 54.6749482031 26.6408168656 8.3492043896
5069 1 10.4756864092 27.3891326341 40.937352461
5070 1 36.3302390745 7.6209849405 60.2078733873
5071 1 33.4492204399 19.7822017539 5.0547364648
5072 1 59.6935269973 14.959202165 16.6174703761
5073 1 51.7096584566 28.6430165517 11.4734797816
5074 1 38.4657509778 37.3764883362 13.0871545293
5075 1 49.4659401049 17.4669700004 19.020308973
5076 1 30.774080813 56.0702203195 54.421198522
5077 1 48.779832803 17.9897435016 28.9212867855
5078 1 49.3687357183 15.3126141402 60.9956912394
5079 1 25.6154598171 36.5091981439 32.6024713311
5080 1 6.7603662112 27.5861748795 57.2161318751
5081 1 5.9550152861 9.9604621951 50.6780395963
5082 1 15.926213173 19.3315268706 38.6998959211
5083 1 9.304200912 55.1476272101 59.1863202431
5084 1 29.2874564706 45.3587767935 18.3009028776
5085 1 22.4564050351 38.6521422911 18.078813385
5086 1 42.9928653297 32.7928421135 38.0877599284
5087 1 21.6004095126 10.9126672369 59.5407856071
5088 1 3.7424532519 7.1610343827 12.2624095442
5089 1 25.3602470959 23.7690446446 26.4858516545
5090 1 28.0307049943 22.7339730095 55.0760552866
5091 1 28.4977659271 56.7134312846 37.0728197257
5092 1 9.0054890814 25.7550923676 57.3786463734
5093 1 47.7581626156 52.2832872329 60.7288912403
5094 1 58.8185704747 6.6084265671 5.6841948527
5095 1 37.5682051155 9.4997215957 50.3782334118
5096 1 25.3627635249 19.4474581709 55.7103124461
5097 1 17.4613519263 38.5173670338 54.9564371252
5098 1 55.3811284157 57.6311671008 18.0934437864
5099 1 16.8545999213 32.180530556 21.652259655
5100 1 15.8977716727 44.7995443321 42.6987942625
5101 1 21.8351396719 19.202135601 39.7374254635
5102 1 17.3990264165 59.0602647051 20.7863154597
5103 1 27.2796387103 35.0276066596 29.3960725703
5104 1 29.591885862 36.4192504364 6.9351819509
5105 1 37.5552718407 7.3061972249 29.8148531786
5106 1 11.8429851982 35.95242359 47.0242431621
5107 1 59.4744806282 55.1146210246 12.6221418527
5108 1 3.9717824523 24.0744689032 19.7283033553
5109 1 43.7676913854 38.3306245909 25.5727390451
5110 1 41.8085636009 32.6079138404 31.6118761162
5111 1 33.7975410353 11.6096010358 15.5297878179
5112 1 46.0991921453 52.7423307058 5.9217633099
5113 1 19.5447210791 54.8101331116 52.3522256841
5114 1 29.0193104746 10.8535018938 14.8361897505
5115 1 22.6363589717 51.0361918215 60.6306919864
5116 1 8.0296179025 15.0851991815 30.6436361545
5117 1 7.8086695812 4.1937607538 31.3030576044
5118 1 7.9174144284 14.2338853875 37.8007114539
5119 1 38.9377277255 26.57609197 60.810060707
5120 1 25.4752420505 42.7787347755 43.702790925
5121 1 13.2115129409 3.4696588848 11.4298226639
5122 1 54.4210229572 7.3247602782 59.7603001491
5123 1 35.6094869822 29.5815860594 8.6979931579
5124 1 54.6642972709 35.4226274961 18.3992191747
5125 1 24.8164058167 39.1468254217 28.2797729469
5126 1 59.3085718768 46.6010734333 7.1205432839
5127 1 45.9005112949 34.6137418661 39.6837026298
5128 1 22.3966544759 11.3272928112 15.8645899225
5129 1 47.9656217068 7.751687094 37.0879768215
5130 1 27.2684025621 29.067590799 53.2571452687
5131 1 49.1360538152 32.0890612867 47.4076767208
5132 1 12.9932273527 33.4627974523 54.7257449566
5133 1 49.2667910817 12.3354445078 58.6881258162
5134 1 26.348735533 58.1177742498 21.6845635812
5135 1 34.3831082191 26.0350012063 59.5540700116
5136 1 52.5898234021 13.3238744233 48.2429555949
5137 1 48.8093276921 43.4328892808 34.5352643932
5138 1 37.3155088234 32.0561721445 16.8150978376
5139 1 54.3359910645 15.058279243 36.4860821098
5140 1 53.2436267778 50.4587006192 39.1268110326
5141 1 16.1845275393 3.1774095951 31.1625472298
5142 1 52.7106119957 52.4290060304 27.386616205
5143 1 14.7125335982 40.0065663269 44.3931117825
5144 1 29.0918772653 43.4486315927 14.4364871855
5145 1 31.5908668598 51.5148400322 25.2014779804
5146 1 42.9596835794 23.7669378668 27.6831451797
5147 1 9.4595757743 7.2823262621 42.9512564683
5148 1 39.2443809379 10.9938367036 52.6445996248
5149 1 23.4403873085 50.2020833795 32.0373281876
5150 1 8.3774176556 17.438996673 26.6266546371
5151 1 13.8319004799 54.1639960662 26.738489425
5152 1 13.1239646192 25.77194659 4.6713965407
5153 1 42.9607369683 58.2023379696 7.2860482362
5154 1 54.7625550464 13.1037161437 38.0922660921
5155 1 56.0321227543 58.0548050024 61.0769192277
5156 1 8.5176412744 40.9890855602 28.9360927517
5157 1 5.8404943565 4.1176651103 51.5100997821
5158 1 20.6805083971 5.4551178805 10.030336992
5159 1 54.2779961536 41.9297618457 56.22261058
5160 1 50.0930576286 11.7706524939 4.6420421034
5161 1 43.119037911 36.1367081254 21.6310748339
5162 1 34.2464602705 24.6430648215 52.595031825
5163 1 25.5203036867 16.1501753569 6.9633601039
5164 1 33.9160472863 33.7953757359 21.6646662354
5165 1 18.8315182739 4.5685857843 7.9276966745
5166 1 60.5757401989 31.661443916 28.9831441224
5167 1 44.1923241543 21.2427839819 49.6879710759
5168 1 48.899216878 20.1913262974 42.7977542972
5169 1 49.6268159982 52.7433840947 52.6334219981
5170 1 47.8159819618 38.1709191297 10.6192399073
5171 1 22.2006656194 8.8465561054 56.6882669943
5172 1 9.3187727917 19.2157126135 32.4593860058
5173 1 21.6477534914 61.535611571 52.8449190801
5174 1 33.4539021683 9.5704742166 24.4350205142
5175 1 53.5256423943 20.0504647931 24.304985507
5176 1 36.2316301694 5.3209453957 35.0943798113
5177 1 49.853177568 9.0981463393 53.0414931527
5178 1 3.8087400891 12.3851293508 42.8713159553
5179 1 41.2097120126 33.8139270848 11.6112981623
5180 1 26.5325518956 32.3791528848 47.511611092
5181 1 49.0836769783 22.4658270135 41.1831432038
5182 1 47.321474396 5.4075105545 8.1061583102
5183 1 22.462491282 24.4457884896 4.1135861544
5184 1 40.5178695934 22.3818485098 28.66701041
5185 1 22.9881323419 45.014026016 46.9359340595
5186 1 20.8847488 24.5542290244 39.7664521798
5187 1 47.4664324126 49.7339105361 44.42582536
5188 1 58.1644159693 61.125667725 30.9413355613
5189 1 23.2447495816 20.9361307695 22.4235744144
5190 1 32.6308543097 36.9666615335 57.9200882667
5191 1 36.8094139797 55.8844142223 54.6854235705
5192 1 47.3498573746 16.0486988931 9.1084461418
5193 1 10.2126317929 32.2588324641 33.0553700354
5194 1 16.998211941 11.856503689 28.84854443
5195 1 40.8404992041 4.2468222934 58.3526214523
5196 1 20.5542772942 3.9159235799 46.8754227195
5197 1 19.4227620534 17.2762480883 6.5262329722
5198 1 57.115591757 13.9475391722 39.2422741601
5199 1 22.3245558581 36.9304951813 49.0894120957
5200 1 44.9706029848 25.2652080087 58.0694939253
5201 1 27.617835068 4.2989299309 35.9695118988
5202 1 40.3225829961 35.0651775302 39.3263697071
5203 1 36.8015720846 58.7458866407 48.692928219
5204 1 45.2020559342 28.6391541258 21.9276038085
5205 1 35.2099014604 25.3861721671 33.0788957208
5206 1 13.3756075225 5.3904749151 59.2620472005
5207 1 35.0801590612 27.503191243 55.9647643865
5208 1 28.4082278708 34.5122068807 40.3155604035
5209 1 29.7274804217 41.969322451 33.0392180723
5210 1 57.8764311491 18.2498135161 61.4293363356
5211 1 18.3870466808 23.6225650662 38.5100518331
5212 1 34.9477246682 8.3400047933 50.8141608505
5213 1 28.5739025357 18.3927232765 24.3041662045
5214 1 21.0983526597 47.2775246703 41.9838943307
5215 1 9.0034057123 41.8048767397 47.3482187697
5216 1 12.2285840563 54.7168496726 20.5817239271
5217 1 46.8846691332 23.3402568417 26.9505132015
5218 1 21.7272843532 25.0070692072 16.236026552
5219 1 36.4919342703 49.7502965856 23.4601090896
5220 1 59.7196861549 8.4025760938 30.6842501487
5221 1 31.1211139331 32.6625730198 12.0176136687
5222 1 53.1972776663 61.1803269045 27.4389345203
5223 1 34.6044954524 33.3875386677 6.355806353
5224 1 19.3342188644 21.172616577 37.6684526256
5225 1 56.2912564231 50.5405138236 52.7229015328
5226 1 59.4058933066 39.952258277 23.4938175343
5227 1 43.8815744296 51.2805780457 54.8629195997
5228 1 11.0054239814 9.3902276719 16.2844239197
5229 1 61.3894246007 55.2310790194 61.291049782
5230 1 45.0253206858 23.0070348204 24.731081316
5231 1 10.2567570833 54.8838703344 9.5884988711
5232 1 43.3175431966 55.5726111086 35.7794337244
5233 1 34.8350705777 61.3590518874 59.303656062
5234 1 58.299132705 11.9865972179 10.9955338301
5235 1 58.4399356876 22.7962399977 18.6532029422
5236 1 41.2108239231 4.2855050746 19.8725005911
5237 1 54.0984518681 4.6641398616 41.7351775077
5238 1 6.4391820842 28.3995666732 13.8877886131
5239 1 20.292978326 16.020081828 33.0921801252
5240 1 34.4773865254 34.0866962877 35.1997187011
5241 1 26.9985009179 36.3604947445 38.2703473373
5242 1 4.3139114619 49.5307820437 34.1825546773
5243 1 24.834606036 3.4502659952 33.3888261431
5244 1 30.5821884689 25.1806442888 29.663516307
5245 1 43.3178943262 53.3551104361 40.6102752083
5246 1 37.6211671684 53.611259503 26.4694656049
5247 1 49.1325425188 56.1797727648 8.8556035456
5248 1 11.3768020894 28.4924989826 25.5946846472
5249 1 18.1275618823 52.7159374618 37.197061094
5250 1 9.592361297 46.2314509735 20.912780649
5251 1 43.6455567949 29.6903777239 29.2019564051
5252 1 47.377830702 43.4979653061 23.3656552184
5253 1 38.2889572079 32.0239852615 29.0223535981
5254 1 19.8938024554 19.7490200036 27.7462899919
5255 1 13.638486574 47.327853251 10.043972526
5256 1 37.26617511 47.8221267303 16.1216168134
5257 1 61.3543116374 21.8374220146 8.8118118283
5258 1 6.7944140812 29.3089338998 5.8764851438
5259 1 55.6231737757 49.523466843 38.2697035997
5260 1 6.1745122715 36.5381663386 18.6825807881
5261 1 6.3772896343 47.866369064 61.1869398459
5262 1 60.9564817638 54.0411592164 27.9945971637
5263 1 31.5750660264 51.7563586977 8.5705916229
5264 1 39.5459427706 6.5339578242 18.9912237351
5265 1 12.1024699966 11.761289037 34.4695446303
5266 1 24.1560480212 7.5683740172 11.3913739692
5267 1 40.0945828214 27.2193029352 35.4566870705
5268 1 53.6505275003 15.0927484686 14.4868157661
5269 1 6.3769736176 47.6998750966 56.7062331271
5270 1 35.8172386815 13.9425648357 38.8435664624
5271 1 10.5371926165 58.1427629753 38.8083364559
5272 1 30.1770433946 14.627735792 46.8091177406
5273 1 47.2683367783 49.2212027511 12.8217005272
5274 1 49.2152335473 49.9847341369 21.7456601373
5275 1 12.074379626 54.5277078439 24.5158388513
5276 1 49.7039474741 45.0045455159 57.94718377
5277 1 52.3714792923 7.1745938387 12.2528120009
5278 1 49.3398845668 51.4685494423 33.1312725576
5279 1 18.2693012107 38.1749571205 10.4344286774
5280 1 19.1745719249 56.8246223349 58.3036388686
5281 1 19.51048594 44.8141747335 55.0304084344
5282 1 11.6452406935 10.0040607911 32.2370039052
5283 1 27.9150077804 29.7079342055 12.3286560015
5284 1 51.1590286712 58.3893144989 34.2526635606
5285 1 19.8702767701 25.3263630863 48.7546099911
5286 1 35.3127824428 44.8227774095 26.2438062945
5287 1 44.1892810309 7.8409559509 9.1071586665
5288 1 10.4921309803 26.0976778457 13.0865693133
5289 1 49.9730298159 39.4336398098 48.0209831456
5290 1 15.1434281789 26.29905069 21.8325647213
5291 1 43.6265957948 34.753901111 26.8911722936
5292 1 8.0769677334 4.1103265009 15.7267715417
5293 1 40.1092717444 14.1138575748 33.5319114683
5294 1 41.4547419745 10.616313827 7.6897302704
5295 1 37.0251246173 36.3831426058 16.1331455697
5296 1 20.1359648587 53.9270420859 40.085746059
5297 1 53.6009011789 20.7905290152 33.912828598
5298 1 13.6723120619 17.6599742551 4.6484326627
5299 1 27.2671736084 44.6540596211 33.1653906536
5300 1 39.3405319356 28.0858908682 45.8125533219
5301 1 42.7040026854 42.3600712103 29.0301369716
5302 1 31.179577017 27.5521738268 57.6526445299
5303 1 9.6444455259 15.1840421731 59.2798377686
5304 1 14.0741799263 14.6870181782 53.4883056101
5305 1 32.4392545736 55.2406180411 43.4030432621
5306 1 26.6928425728 33.9513943359 31.9386022392
5307 1 30.3440640564 41.2524327846 6.5090744375
5308 1 11.2723410238 52.5899989669 41.2458783648
5309 1 41.8229599158 61.2641883651 6.5280588463
5310 1 29.9417865408 41.9208080401 17.0306329104
5311 1 14.9291220599 8.6523697143 4.7168736803
5312 1 5.5109123791 36.6451438333 14.7719915493
5313 1 14.4763989204 50.2064724999 36.8766553043
5314 1 36.92060503 50.6800878525 56.9478103143
5315 1 49.0505537497 26.5731073681 31.8287571858
5316 1 36.3300049881 17.6715030113 59.0087071707
5317 1 46.3470896658 25.5715100914 32.7885115147
5318 1 54.903065421 17.8482967813 39.1723408416
5319 1 20.7954448301 50.2197569043 7.6448559033
5320 1 17.4177533302 36.5513922214 25.4850736802
5321 1 20.634393372 49.6405685755 43.7182991505
5322 1 59.4767044492 57.0222497964 42.3515270559
5323 1 38.0606644251 45.661860188 33.3190098678
5324 1 11.8968835968 28.6729210921 29.1899009544
5325 1 57.132797109 50.3379705472 5.955231816
5326 1 58.4794377713 7.3888414361 49.7596600425
5327 1 47.1423397618 40.7741942251 18.3277057729
5328 1 14.9767586467 30.2615485928 14.4649286857
5329 1 31.4978175072 35.2950503963 48.9077025108
5330 1 49.0991266822 19.3713215623 36.4742607455
5331 1 48.6474569315 5.907659603 19.3977148063
5332 1 59.258711469 40.7556428762 58.6987182268
5333 1 45.0293586766 3.4703336389 61.7327708596
5334 1 18.1901214785 17.8589477135 51.7862632381
5335 1 8.5328627439 52.3808427491 20.2109895568
5336 1 24.0603066747 10.2692807069 58.2167342846
5337 1 36.6188676325 12.4056704343 19.9639113387
5338 1 15.4036152366 8.0048105939 54.429215982
5339 1 27.1948409041 39.6487067097 29.6076281738
5340 1 38.3176913161 22.1650844833 51.1665194367
5341 1 43.7724316355 61.0629910856 15.2922486215
5342 1 30.2441091544 5.439317047 22.5269820912
5343 1 50.1825956849 39.5188472673 10.6475643643
5344 1 28.267600453 16.0443682943 6.0977904468
5345 1 43.4033943917 10.1644685116 21.099054919
5346 1 57.7513119567 40.7334046661 37.8921807231
5347 1 21.9720802286 45.1933947366 56.3406486581
5348 1 19.4640197853 9.0487541043 59.010287254
5349 1 25.0556421397 57.8485748649 56.4277873286
5350 1 20.5767495907 9.053336346 21.7080892666
5351 1 46.5615713497 36.2923170742 54.2353339032
5352 1 52.4123858945 22.1312004738 43.7590887094
5353 1 43.64865844 20.1792123251 31.5599674522
5354 1 17.145627865 22.3988197753 43.8836812074
5355 1 26.1282846454 24.7647312391 41.0610086133
5356 1 30.6971834235 32.9205947781 8.0615999598
5357 1 13.625436256 17.7681221819 39.5682395023
5358 1 15.1802382687 6.1151772158 5.8706212789
5359 1 3.7047448555 37.8539661148 49.2443187852
5360 1 60.3474474162 16.118866298 57.5425653902
5361 1 19.3238605403 24.8003708968 33.3472758032
5362 1 19.7507756518 15.023575931 4.6969821866
5363 1 13.6306446789 53.7817914612 6.6546878961
5364 1 53.5610479656 29.244677177 8.155690997
5365 1 30.9597113454 37.5928427114 60.232979156
5366 1 10.1703206721 38.9580932442 17.3785438546
5367 1 53.9036919653 20.482822414 17.1970683562
5368 1 57.320417376 3.6017041091 61.7193108904
5369 1 6.0412819846 9.4657790645 22.8295973128
5370 1 5.5506544013 19.2490114069 4.1212934498
5371 1 7.2178413051 14.3445497433 60.5729311619
5372 1 29.5345346887 60.4779505963 11.499521896
5373 1 22.4910498255 6.5853573502 29.3238569092
5374 1 3.6762928213 11.6428998293 32.0847892095
5375 1 46.4715065989 29.2806679644 48.2618580734
5376 1 30.5591894779 53.3198219081 16.6809077964
5377 1 26.9697668097 38.2334787259 25.7146539383
5378 1 55.1233992654 46.8476834785 10.0014858405
5379 1 43.6054694952 45.4957758718 33.4757307271
5380 1 56.903802067 6.539967993 43.8183125741
5381 1 35.1910575035 15.2774426553 33.007382319
5382 1 30.6920335222 31.9740078105 56.7442136491
5383 1 20.3177914867 37.1286493373 4.0982710502
5384 1 50.0437824368 25.1991371161 14.2516174339
5385 1 31.6535434992 20.7520803205 22.0528400441
5386 1 26.9909516308 60.7343337496 27.502606027
5387 1 21.8130770267 36.1487635761 26.368164706
5388 1 41.6756025134 30.0958739278 59.4834344338
5389 1 41.5868252379 59.690308309 26.9489331181
5390 1 49.5122306948 50.5728762714 50.7180683744
5391 1 34.9292903625 14.4447972534 18.8405306011
5392 1 19.3415925867 30.4534994585 30.2502539229
5393 1 5.6046815474 50.1167003572 58.234758939
5394 1 54.1099221028 58.3778442643 47.5375361632
5395 1 44.696780393 28.3703058705 50.2671594047
5396 1 44.8606994098 20.3064382952 7.7460807242
5397 1 42.3738237876 46.5643218651 45.8649886804
5398 1 17.9498317667 8.9154477393 8.5930522151
5399 1 57.4047470094 38.9741281641 6.9843927689
5400 1 7.5496353991 53.6085675092 15.3184077791
5401 1 27.1943142096 22.9503273848 57.9370010107
5402 1 37.8839876984 56.9352281691 36.0926413566
5403 1 27.5848288826 4.7506582031 16.3976632262
5404 1 38.1360402529 21.0921493696 48.5294188534
5405 1 35.7869244899 25.6935276387 23.1518757938
5406 1 14.602220372 58.8894401388 50.5206164777
5407 1 38.8107943634 34.4761575717 31.7863875435
5408 1 29.8113418823 13.2061874748 29.1835220994
5409 1 40.6406479216 9.0264105554 58.1343358641
5410 1 43.5636265473 42.393194439 48.3880306547
5411 1 60.9080258745 56.3209853987 10.2613217686
5412 1 31.7510990155 14.8798468681 6.9647178052
5413 1 34.8086773337 38.8254247647 43.9269286738
5414 1 59.8103361217 54.461988081 50.2860618832
5415 1 52.878159352 56.3007954448 33.2069409934
5416 1 16.1961148171 42.5738506349 26.977725748
5417 1 11.4448627165 50.2250238488 44.1560992806
5418 1 35.9000467531 25.23208478 40.8834540624
5419 1 37.7124608729 26.0570638516 4.8243252
5420 1 37.6058930294 10.0274109117 28.6715750952
5421 1 30.8893683757 25.7765112752 43.3261458726
5422 1 53.6938920099 52.1186074353 35.1401437068
5423 1 17.4740511146 16.9641523666 49.0999459846
5424 1 50.678683334 23.4319601974 54.2030884986
5425 1 28.786394485 15.6612273436 28.5461047732
5426 1 57.642695857 41.8150594991 31.8419830687
5427 1 15.6995589952 42.045400538 42.5901781628
5428 1 58.1313512623 51.5259006156 45.6675953053
5429 1 37.6061856375 52.7986284902 32.1207799969
5430 1 35.4292989591 16.2696764752 52.4194084871
5431 1 23.2666366621 21.5271404626 18.4606083388
5432 1 17.7569445552 23.717077459 19.876655625
5433 1 32.5496263214 51.1453346156 32.6784908965
5434 1 16.155500823 11.0092864074 51.9874605175
5435 1 21.1668229381 30.6041925925 61.2257396703
5436 1 17.1012684881 38.1400197221 57.782855102
5437 1 30.4977417922 48.5306478071 31.1186560257
5438 1 45.7581282289 58.584191445 9.5750974234
5439 1 55.2724537944 49.6099032542 32.0022737459
5440 1 27.2621992719 27.8708824899 8.7020604095
5441 1 48.4830112203 20.0934196515 53.1125969033
5442 1 52.5167884385 36.6573748488 24.289711368
5443 1 43.1713562262 29.928853266 5.4596825657
5444 1 45.7082092995 33.0599347206 37.3994288055
5445 1 59.7458453125 23.4763195743 36.7561007972
5446 1 17.5387760102 35.3817794155 60.6594846163
5447 1 22.8126260472 40.6645832582 5.2694580873
5448 1 18.927318142 37.354718299 40.9003668064
5449 1 39.628048583 42.6421453484 20.381814123
5450 1 39.8999984834 9.162110454 16.8382723934
5451 1 38.3976318291 43.3672280396 31.5499602576
5452 1 33.1498239065 22.0731470412 20.0049349841
5453 1 20.7897097128 56.8244467701 24.6674683309
5454 1 9.0648358415 37.4094945217 21.4264833013
5455 1 56.8905761842 52.6565380323 54.7233455708
5456 1 56.7405853095 10.2419511172 46.0581684999
5457 1 32.217457689 32.529963062 44.8572466351
5458 1 40.8871409236 44.3513273563 42.2759171417
5459 1 24.7645556743 45.1736729556 50.5186267432
5460 1 17.2162049212 37.5185787942 52.0103424652
5461 1 52.1458199818 21.7317319952 8.7485792337
5462 1 45.6765491109 20.9186913311 38.7516290203
5463 1 16.9968074225 43.5659088899 36.1565469497
5464 1 7.3265627436 50.5850487653 47.9784379384
5465 1 59.3414024975 7.5921806063 53.8866036565
5466 1 25.188486184 24.8198585914 23.7362140239
5467 1 35.9797531797 29.7513572367 17.918932359
5468 1 44.5341488516 58.9136095619 5.0721876076
5469 1 12.2047657629 22.4452274084 22.6374123606
5470 1 4.017920886 29.2892706404 16.8812272518
5471 1 55.3638060205 4.4462171074 34.1156644823
5472 1 47.1407011569 28.9299479831 7.5292230632
5473 1 52.4624803887 42.4107509206 9.5675481363
5474 1 17.6420666438 31.4641090625 3.9387704146
5475 1 9.7278388136 8.1974812754 52.6295010506
5476 1 58.5000373764 8.2638272195 24.7046295504
5477 1 49.5219452813 49.425443154 36.5585318573
5478 1 41.3701197331 19.0526714208 53.5738641972
5479 1 56.7711921092 53.920195058 23.4423185215
5480 1 28.6197249528 19.3949057693 36.2416373639
5481 1 10.2772981668 32.9297241486 58.0385945177
5482 1 13.3308384943 53.8314763042 49.1996668003
5483 1 30.1837733792 36.8025084303 41.1658793302
5484 1 35.9779390099 18.0589745608 50.0837526933
5485 1 55.2231786027 60.9959253258 4.5643137071
5486 1 31.9181781989 34.5850077578 3.7479068803
5487 1 56.7332115872 29.4040900302 52.387982385
5488 1 3.3149810147 4.5121358437 52.8256069503
5489 1 37.3015221597 19.3994704545 42.1028687545
5490 1 38.6591063621 38.0282434557 29.590247257
5491 1 37.5977585263 49.888466096 3.9038505727
5492 1 39.9763691785 59.1066138165 53.4398497208
5493 1 33.0222468067 40.5663840043 47.1975841573
5494 1 53.6374186607 44.7778913381 30.9392873051
5495 1 37.9405780908 22.827490535 58.6231668342
5496 1 28.4232094018 24.3440779394 51.5178246341
5497 1 50.5246544685 17.2215303873 47.4473543693
5498 1 9.4915870925 25.3229688332 37.3819308455
5499 1 27.4303903659 54.5387099057 14.1494387109
5500 1 11.2046315263 11.2787784003 44.1877594691
5501 1 59.6210772498 58.5477324848 8.8417573338
5502 1 54.3038041815 27.8952274777 27.0964660854
5503 1 24.4186344647 35.4364971166 20.9728238161
5504 1 47.8096616284 52.9562856952 56.7684415937
5505 1 49.0780003826 16.006153686 45.0772878715
5506 1 17.4937143741 42.2951122283 20.426758716
5507 1 38.6856166494 6.5485648169 34.5767562114
5508 1 24.9002672773 15.4105793076 49.2504050322
5509 1 34.4595959574 25.5811661563 38.6331227693
5510 1 54.0721756673 40.1810777542 5.4040109624
5511 1 5.121813929 25.69066008 44.5508275091
5512 1 54.3195464934 26.8290223486 15.185680778
5513 1 25.9605032026 31.7172735275 53.2522879754
5514 1 23.680442934 59.224008157 35.2506910194
5515 1 52.834853364 17.3084934929 49.2854594738
5516 1 53.4187819428 9.034562615 28.2810604222
5517 1 53.0707539554 41.310661782 48.9753534867
5518 1 45.7755676673 48.8042363125 48.2717482248
5519 1 56.4357462669 39.141734042 13.6199352251
5520 1 17.3089031442 21.436314931 8.6359251432
5521 1 56.0808712517 41.8787895274 34.4026544353
5522 1 12.4720339348 12.4992464813 18.7040582173
5523 1 46.5209573555 18.050781536 7.4665464238
5524 1 59.7016029788 57.8982597079 38.7247090818
5525 1 61.3011154981 61.1802683829 41.0991647
5526 1 27.0034167328 17.2345807053 49.2927746745
5527 1 7.7628530163 57.4944606305 25.936567866
5528 1 38.8210356443 17.365435015 49.2819481775
5529 1 50.4081964737 49.0171964346 30.1833052063
5530 1 33.7170738278 21.2291484478 58.6899985076
5531 1 58.3056286032 5.1690818297 41.7276867422
5532 1 39.6475362776 6.641959447 14.0830166887
5533 1 5.2797169247 27.5534613021 54.205253798
5534 1 19.4784161002 42.8369052513 29.3980623048
5535 1 5.606489865 57.4280386084 55.70024673
5536 1 30.3348176428 6.2167531663 11.7674338056
5537 1 42.8202851153 39.8671093412 49.2054604392
5538 1 56.8812127273 46.4329993826 35.0331662121
5539 1 50.6559184295 18.2820589206 39.9097715915
5540 1 17.2789986038 13.1975262772 39.0160881552
5541 1 48.8602414888 7.9879329629 41.8692505057
5542 1 30.3431862323 30.3742026832 38.4883988391
5543 1 54.813937016 15.5987847906 10.9922566202
5544 1 11.7773824785 60.8815155872 27.0347257917
5545 1 40.3780614781 55.6909417948 42.6757952716
5546 1 52.0974226141 40.2657585173 55.9153136299
5547 1 9.4654864565 42.1898903818 14.4821340377
5548 1 22.6265858636 42.58970999 55.4868769567
5549 1 11.2595833138 19.0217720131 30.223099898
5550 1 8.7633617912 21.0528813723 3.4644551436
5551 1 40.7881808888 23.8543106237 53.4934555113
5552 1 5.8235230909 10.2993608121 47.7916369739
5553 1 16.8416666465 18.2680137353 12.1210213455
5554 1 15.9001710585 61.1577960864 19.6618813332
5555 1 39.3702023896 53.2621781267 10.3321329111
5556 1 41.9229733395 49.6512780293 10.7596332387
5557 1 57.6053590728 4.882794136 19.3524190837
5558 1 59.0816836126 45.119774557 60.8967897263
5559 1 3.2154880822 18.6077316548 38.00980915
5560 1 43.6518186067 10.5725396662 11.3566121356
5561 1 44.1943138889 35.212183803 24.0216238935
5562 1 22.8133868281 5.4834189288 51.8216102878
5563 1 54.7033897033 56.1841618852 45.9208182919
5564 1 58.1252064937 22.8831445818 30.5440909037
5565 1 39.0201261459 41.7699978629 57.140814569
5566 1 22.4767120321 46.4144480336 49.4112809255
5567 1 51.3624497717 43.440731176 31.9376658935
5568 1 35.4659920057 61.0869264223 4.412666671
5569 1 40.4073222808 46.9435418682 18.4553413943
5570 1 60.0147520894 19.9677152431 31.3581849567
5571 1 7.7717951176 52.8958328768 5.1534858218
5572 1 30.7291947417 15.7447376746 11.3746953116
5573 1 49.6403930107 30.4873834681 51.554166551
5574 1 51.035372519 34.8048149077 51.8530363899
5575 1 60.9084355257 19.5179767054 7.0217471096
5576 1 39.7830137942 24.3193818219 30.711053044
5577 1 27.2445842687 9.6179937602 18.3351965384
5578 1 19.5880270671 15.0845554438 38.8503549686
5579 1 47.8762592154 10.4470693442 38.1240433238
5580 1 11.6382766224 11.4258431948 56.2089750459
5581 1 22.1827580081 31.1606160168 24.136794413
5582 1 47.6327508152 53.4815756254 40.1680859578
5583 1 47.0220193411 45.9431150236 21.6799403744
5584 1 56.5152771287 31.9364954614 50.6136073087
5585 1 59.0225182696 14.664370317 11.1378583745
5586 1 12.3216334089 56.3492513341 48.0006176269
5587 1 48.5412987393 30.4572448413 57.7336969535
5588 1 15.291721927 16.5642157152 31.4049437194
5589 1 19.9039266932 42.190007425 41.2194265991
5590 1 37.1518824146 51.6456358203 54.0669672444
5591 1 17.6902299251 14.7777851883 21.1537140985
5592 1 30.6307614014 22.7051803797 9.6739989366
5593 1 40.7483861971 26.3262632365 24.4334404309
5594 1 39.1972710455 24.1202913203 8.1506522868
5595 1 10.2161430892 60.3535336632 21.4411722243
5596 1 43.8854953771 40.5540944671 60.7051899901
5597 1 15.6959306556 29.7634712091 21.0617766564
5598 1 14.8560285747 20.2675214276 31.6557087986
5599 1 52.945634763 52.9610844669 22.7485448893
5600 1 6.7840791657 45.9556386472 21.3186865041
5601 1 28.5881232859 52.1007583456 18.3720066282
5602 1 31.6069603013 18.5181350769 11.2521510699
5603 1 35.4180628109 16.4827536405 47.8175035235
5604 1 20.7143924066 57.089491121 47.2473275219
5605 1 28.4747669362 35.8150148605 9.7115112857
5606 1 3.7442715182 61.0622303048 30.7258004885
5607 1 42.6803014352 52.7206777118 4.4337929706
5608 1 13.9693092094 39.3777516767 51.6238072615
5609 1 56.2736414199 56.0057880319 14.2124664799
5610 1 40.2668704278 29.4923991328 26.4110610427
5611 1 35.3680853599 7.7494691252 34.1211655133
5612 1 19.1769127891 9.7235082148 30.5816032528
5613 1 4.1611349588 43.7524172464 30.4406247053
5614 1 24.0809648014 49.4637162839 3.8539257911
5615 1 3.4741316911 46.3709664808 20.1813776245
5616 1 57.8959773653 39.7792684114 35.0951991138
5617 1 41.1848403303 41.4340838478 60.6730031071
5618 1 32.6283378807 51.1182976339 51.7177929598
5619 1 42.6569513146 52.3012533658 16.451971276
5620 1 23.8653712071 28.5975452643 20.3244629497
5621 1 51.9310456899 51.0226733306 36.8952066532
5622 1 44.2421260405 50.8763107955 31.4728873033
5623 1 22.5569451532 31.0801488093 13.113313687
5624 1 4.1554349544 29.1427325404 58.7050970818
5625 1 14.3038772276 38.552187389 7.924290717
5626 1 16.2828438364 21.2301433151 27.3098943803
5627 1 23.9000159975 40.0996742011 31.6358114528
5628 1 35.471141907 7.6440483052 14.135042396
5629 1 40.1089791363 26.9783694857 20.3744404007
5630 1 60.0770190776 45.133117483 30.3461123126
5631 1 25.3704883768 16.8090115907 22.1747990698
5632 1 43.3944991077 10.0900875511 29.3441053846
5633 1 55.9745960162 12.5656099819 23.847580639
5634 1 35.6729244025 11.3117260642 8.1354717823
5635 1 34.945383804 31.2036293968 31.3803646451
5636 1 36.2735316389 27.8874441042 42.0101705315
5637 1 29.4257430242 39.095911625 32.623539109
5638 1 8.2667591519 6.9165837847 10.633519179
5639 1 22.1009448038 48.795106942 46.1629221736
5640 1 54.0846992909 10.0880392949 49.3385970915
5641 1 39.2962896019 19.4178462386 20.3538993172
5642 1 47.4993215549 46.8864247813 57.5936547517
5643 1 14.9249670259 58.7173866189 18.3507632854
5644 1 50.2577959478 55.3241868936 42.1507394277
5645 1 3.9300799562 14.4404666546 32.4651211232
5646 1 14.7780777963 32.9087734138 9.4617410737
5647 1 56.9149796937 29.2476617789 30.7759535044
5648 1 7.8533917921 5.7248439598 38.9956641149
5649 1 9.0124531525 8.7278625853 14.4628804295
5650 1 4.4078796037 34.7764904507 35.0108109588
5651 1 50.3752488099 33.5400459715 45.4854175476
5652 1 58.9917359051 41.7459454831 42.8264884055
5653 1 37.5530480197 59.6263441943 56.6687792997
5654 1 11.8177038646 34.1921522206 52.4218663945
5655 1 33.9976264042 12.8872447252 47.9078023607
5656 1 19.9103640698 3.3582776392 50.4778371842
5657 1 35.8727171634 16.276230895 14.5738373934
5658 1 44.802821542 18.3954152703 39.4890597702
5659 1 13.9979262745 33.6531097131 43.3549385024
5660 1 47.8025805141 57.4118866453 11.0930308248
5661 1 34.3431964842 43.2719548659 23.9457798929
5662 1 26.921369442 59.1005860912 41.3868569122
5663 1 58.8896742253 24.8572538973 60.4596918554
5664 1 14.7998478335 24.2935737939 40.7885905401
5665 1 57.2432273784 47.3970257886 32.5049158148
5666 1 38.0568605208 15.2331418 16.2115059994
5667 1 52.5538326148 21.5169577033 49.4103445798
5668 1 38.2519130316 18.8593745581 37.7364547311
5669 1 56.6415082315 27.3821100414 34.2166727733
5670 1 49.9729127726 50.964619898 55.7265229308
5671 1 44.8401583263 29.1741586425 57.4526176826
5672 1 17.7241139346 37.7529578238 13.1342644217
5673 1 24.4771560701 60.3413026476 12.8270259933
5674 1 13.3088928923 32.5232330773 4.280782381
5675 1 52.7602383171 23.6339767793 33.9545545026
5676 1 37.0285188704 39.3680956118 40.6074076497
5677 1 14.3055158325 50.2357333026 44.190451463
5678 1 13.3950366955 46.6205026063 40.2922688045
5679 1 28.9291872022 14.3292170827 60.5921847701
5680 1 50.7613743624 46.2053503375 31.0662791889
5681 1 42.274102972 32.9598627754 28.9167221003
5682 1 26.4790046266 14.2781277212 21.0740076719
5683 1 11.4814387199 20.5248409267 47.1439783668
5684 1 25.9655360607 55.2554240072 41.4086269495
5685 1 61.5386546945 17.9557424488 59.4324035939
5686 1 55.9493732043 26.5480015994 31.4528143926
5687 1 33.389879532 18.4358536997 34.3034017925
5688 1 59.8503648998 24.6382075282 54.5088638869
5689 1 20.3802925613 18.3526944984 18.554301429
5690 1 17.5099833804 19.7083474879 32.4576888793
5691 1 7.8855084491 26.3304182705 44.1567430182
5692 1 52.6287987913 40.0839904108 14.7520356819
5693 1 11.6688834221 15.788862965 29.2200395812
5694 1 47.550762046 55.1092955585 28.9035547391
5695 1 37.1833670383 43.6062887977 35.2694764548
5696 1 51.0904998713 50.8945110148 23.6995209773
5697 1 25.407239945 18.5918722997 28.5887670235
5698 1 34.4920754484 32.1445397687 8.9068158025
5699 1 39.5229437797 7.5336941138 26.5878548127
5700 1 44.8587096752 14.0621244756 50.3855486124
5701 1 12.4386180981 11.6396226194 11.9355078563
5702 1 21.1555282682 52.9027384263 42.4535887358
5703 1 9.1025939813 43.1572525193 4.0572298483
5704 1 41.2045621114 52.2567184241 28.75777742
5705 1 31.7886113645 6.2276089241 48.6856715399
5706 1 19.437802106 25.2786094563 45.2698824749
5707 1 26.0991408859 4.9268843135 18.8975891664
5708 1 50.7913374244 10.8748037582 11.2545504557
5709 1 49.9471047447 37.2727295298 6.7368931953
5710 1 27.9124913513 50.6753476025 49.0424192465
5711 1 25.0129798893 7.0726726107 5.3829080715
5712 1 37.3017562461 51.2740821475 48.5263757299
5713 1 20.87673134 16.6635268796 40.9886173874
5714 1 55.7007149029 31.507941745 6.3543901301
5715 1 52.9029725127 18.2099603028 30.4362355849
5716 1 48.7459487935 52.5442350715 10.788367347
5717 1 17.8875647785 60.3269648543 52.0649431231
5718 1 34.820791306 24.1122738603 36.430135455
5719 1 61.2215261147 41.0351420637 18.7498806343
5720 1 44.7908246129 42.4764121619 55.2088408093
5721 1 61.3459430478 58.5571544633 18.2073268305
5722 1 16.000067439 54.5945980389 49.9218234111
5723 1 12.7876994744 10.6932697381 53.7592021215
5724 1 32.2705953067 15.8744215522 32.9332354449
5725 1 22.8926836034 23.1333829665 57.0817662691
5726 1 33.0721072145 41.8512843728 59.1923479685
5727 1 42.8254350166 57.6066465481 56.1893117865
5728 1 48.6125195331 35.3053501989 35.6588792172
5729 1 50.4387447518 4.0042326825 31.9970068014
5730 1 11.7645077253 24.8475978324 10.6789319448
5731 1 33.6846528584 45.4660468962 38.9981220223
5732 1 8.1381988891 16.876896653 57.425873309
5733 1 12.7837785269 15.5358740648 56.0940386129
5734 1 33.7643007634 46.8353939414 46.1391624018
5735 1 37.5274740782 40.3237534282 7.8314403379
5736 1 18.2049274447 51.271331632 16.4321909734
5737 1 42.5427756624 18.3907335419 43.1928336554
5738 1 29.3133230202 22.8892893503 6.2903909024
5739 1 19.5946985301 34.4563772691 57.1193956614
5740 1 41.488040768 13.5248961379 21.5474474597
5741 1 17.4588940188 22.5273332208 14.9128530536
5742 1 14.1748956092 9.5512206084 24.5168337186
5743 1 8.3310978049 40.2387215356 57.0642097875
5744 1 29.4860202778 53.2388865278 3.404957983
5745 1 13.8962157242 59.5315391935 23.4568318797
5746 1 9.2260745687 9.5152883427 41.1080014624
5747 1 42.9476866503 24.953697503 42.1817558786
5748 1 17.6085922855 52.4964814414 28.0383713246
5749 1 61.5330366204 46.9086044698 58.026831675
5750 1 23.4551932747 17.2090067637 16.6444488362
5751 1 20.3673592865 32.3652247427 15.7933106071
5752 1 8.4584408183 23.3996562712 55.7245331963
5753 1 56.1169205606 52.4881713735 44.194899105
5754 1 10.404231529 48.7450709694 42.0074200161
5755 1 40.0362953024 31.2011714894 34.7210119688
5756 1 57.6672164097 51.6153216287 40.7317660612
5757 1 60.7242680335 49.0492077527 47.1140153048
5758 1 43.15181001 22.1034027112 58.1174816418
5759 1 57.750375611 16.5644498016 25.9540073044
5760 1 48.9063565139 35.0420614961 39.7407611951
5761 1 42.8856537486 27.9351392126 23.5828874177
5762 1 18.3637550818 52.9322333154 4.8584725567
5763 1 60.6879846381 57.465024263 6.5563130774
5764 1 50.5629861201 12.9979676027 7.2766028491
5765 1 52.7522793787 23.4880238954 23.7400179283
5766 1 33.7375563897 22.0811059795 25.8610164734
5767 1 54.6487305239 20.3347042307 9.3315890233
5768 1 7.0927923386 43.7219860116 13.5557955455
5769 1 56.3504802878 16.7918647603 29.4901167902
5770 1 27.6747180685 51.839517899 44.0231967147
5771 1 12.4419538296 56.7706654147 6.6052254352
5772 1 27.6367960682 35.4337466012 53.1944101077
5773 1 26.2116194115 32.6846941867 10.2322950523
5774 1 42.5246924864 34.0900320192 54.5751688659
5775 1 17.3837522775 35.5226409198 42.4702088717
5776 1 27.9371874688 47.8053895512 49.5935757263
5777 1 30.4613413537 48.5108089829 37.7315389163
5778 1 53.7472051924 24.6405483924 6.3906384125
5779 1 8.5433615199 39.5494540669 48.9432251253
5780 1 12.4238121319 7.8342552271 53.8258582301
5781 1 13.8479353998 27.0387637824 25.7342586761
5782 1 40.5997413194 44.5981129663 46.8129216449
5783 1 11.4112127934 57.0394551484 33.4389206373
5784 1 39.5565351812 53.0726851684 19.51522619
5785 1 24.9066461323 10.3262807506 38.3207344396
5786 1 60.8373317752 14.8236076053 38.3963443538
5787 1 8.9055517359 6.9609665703 6.3461736967
5788 1 40.811589531 44.9215618794 33.5536229839
5789 1 16.3929814978 51.8016544203 52.5492094079
5790 1 54.8497522385 8.6400684729 11.6242899587
5791 1 29.4382666478 42.3375989138 58.1142044319
5792 1 15.9588682288 19.6236082032 35.9027972686
5793 1 4.656350636 29.2757521495 39.4846706498
5794 1 54.2279016593 16.025875467 41.3345971186
5795 1 50.8711608942 20.6666972982 34.457723266
5796 1 38.4639368081 28.2017051253 48.4067575685
5797 1 11.5617303625 51.7771338677 31.5162518129
5798 1 43.3108717335 57.480005794 49.1690600006
5799 1 6.2347953773 29.7067637734 20.4323767901
5800 1 50.7682799119 13.5855245211 54.49001993
5801 1 58.2977867081 54.9128385291 27.2493830403
5802 1 56.3927328869 48.44034897 7.9568170253
5803 1 14.4451483831 15.0888860426 33.8581108969
5804 1 9.7136180635 36.1875048789 45.1085384087
5805 1 8.635222884 24.6349303183 49.1579994172
5806 1 20.2795768783 23.6778094617 18.3142458036
5807 1 10.1939048791 34.7503312931 14.8555604019
5808 1 52.846265077 15.0125153476 34.0442681237
5809 1 45.4578538715 47.0882072768 39.5469961595
5810 1 44.8367055516 45.7286333398 44.9558555402
5811 1 57.0360608953 24.0864658323 51.6044366101
5812 1 55.5973072261 27.0951786101 12.8822118672
5813 1 60.5763839366 5.237516995 43.3261458726
5814 1 31.0446847165 27.0693120605 25.7443829138
5815 1 21.3881516498 13.3589873865 6.3906969341
5816 1 21.7410369304 36.0160950967 29.1146421698
5817 1 59.2941755619 55.5654714727 39.9300785886
5818 1 6.9590529138 42.892559298 51.3168029194
5819 1 46.1423810901 58.12397754 61.3411442762
5820 1 35.2165144019 58.0262464589 56.1201977705
5821 1 32.7762804992 9.2374277602 59.3165893368
5822 1 41.5245582498 20.3055604712 37.1860590322
5823 1 50.8657183849 37.2663506748 29.5508622166
5824 1 14.5520088346 24.5110986013 57.471695726
5825 1 9.9992620195 48.6639600243 57.8334762907
5826 1 28.4415266643 56.054712094 43.9394522973
5827 1 49.656662017 3.5853186448 11.7592407808
5828 1 8.8627782945 35.6464141152 23.5975178191
5829 1 51.4182208616 58.3270475108 54.2246244494
5830 1 34.4133053675 51.9512356438 24.5874107747
5831 1 39.9577007863 13.0142951306 30.8292081653
5832 1 10.2733772193 22.9653089158 36.0213035195
5833 1 6.0032429411 36.6407547129 50.4543114988
5834 1 59.4981818784 56.5290882275 21.7034660598
5835 1 20.0612912901 13.7426550316 31.4432168494
5836 1 16.5987434624 34.785795386 39.6625178086
5837 1 56.465241156 27.9353147774 21.1951473951
5838 1 51.1078807881 28.343093324 8.5635924389
5839 1 20.1536969051 23.0660245987 43.3730802001
5840 1 22.200431533 6.9325426265 13.4559576867
5841 1 31.2086037332 6.0815448492 57.0794254049
5842 1 53.1428525733 47.9945313799 19.2523471385
5843 1 59.1948643975 28.5360975786 20.3922894904
5844 1 27.682501442 51.1151959888 4.7607414757
5845 1 19.7338043862 28.9297724183 18.3663300324
5846 1 43.6588411994 17.5762298377 11.4686810099
5847 1 61.6864217482 46.2804335572 23.0927689724
5848 1 19.137176619 41.3076186585 47.2861858679
5849 1 53.6095623765 56.5804701971 58.5403587625
5850 1 39.1954568758 16.1303365327 46.6687829308
5851 1 11.6335363724 45.7233078737 43.8310117625
5852 1 47.7767139645 36.9602241569 37.8296211269
5853 1 55.6462898098 34.5305241431 58.9872297415
5854 1 5.6765987483 60.8455833215 41.2699892662
5855 1 32.044526345 23.9976300353 3.7183558104
5856 1 15.7383588196 37.5390028344 48.412609729
5857 1 25.2846957033 42.1953914127 48.4771590598
5858 1 17.5076425162 15.5701677256 11.4955424268
5859 1 15.1600483148 13.80310785 60.1752768531
5860 1 45.3261802593 40.6171807578 38.7049287792
5861 1 20.0240130275 8.7474497667 43.354411808
5862 1 30.7610890166 19.3444016238 44.9028934873
5863 1 33.3945027388 53.3579194732 56.3324556333
5864 1 34.7704042038 7.062770755 46.0199538915
5865 1 34.2468699217 9.3321742394 44.3459433686
5866 1 36.7042506548 16.8939264401 36.4502083657
5867 1 44.257634266 7.3865181284 41.4563805795
5868 1 61.4075077767 56.7921428439 28.3254783208
5869 1 30.750203998 30.1507671937 54.6472089621
5870 1 21.4513549836 55.5690412907 56.8843143724
5871 1 59.4999960482 24.4160009925 16.4073778127
5872 1 40.8070833674 3.8831631852 54.4429685592
5873 1 28.6389200394 14.2176163812 40.500722763
5874 1 61.0165834525 24.1998807036 44.6915134485
5875 1 19.3500782195 45.0912745352 4.5432693378
5876 1 5.2681472033 30.9014238264 37.1257817786
5877 1 3.5551267634 60.8289631856 37.4814175747
5878 1 39.9307808478 41.490557197 6.705900153
5879 1 23.406210691 30.6334533952 42.1304909523
5880 1 59.9314758449 16.6297599133 52.8955402688
5881 1 43.8739080993 52.9330526179 28.2134094464
5882 1 26.5207890529 16.8572919151 56.4548243103
5883 1 36.4694619738 8.9525153242 31.8265918864
5884 1 44.3986128134 24.3095501922 30.1233790824
5885 1 15.9359862811 22.3524706638 21.6546590408
5886 1 32.2003108586 51.2327073725 14.1277271953
5887 1 12.2222637229 54.6670477864 58.8203261228
5888 1 18.6520325101 31.5194705012 41.9471427625
5889 1 43.9498691431 13.1244913136 5.2828361263
5890 1 20.5311027384 17.3548426044 16.0152830564
5891 1 25.5497985758 44.258219482 19.4095946922
5892 1 51.3279805461 8.2281700053 40.645037042
5893 1 61.7198375848 14.8371260961 10.9394116105
5894 1 32.567475411 54.3682949907 48.2843888915
5895 1 51.3778409539 33.9315555117 33.8084260539
5896 1 44.9861112102 36.5921232588 37.7599218949
5897 1 33.3970776894 12.0540141073 44.9217959659
5898 1 8.461489794 41.6964362049 54.6955478082
5899 1 39.0349906337 4.8666597293 26.001526848
5900 1 12.2183427753 42.2846368609 59.4916274586
5901 1 29.2354307634 3.9444645669 60.8231695466
5902 1 14.6120520017 24.7436634612 50.0125904211
5903 1 26.6487758039 57.6361999588 16.2865892191
5904 1 27.3780720507 49.1785405007 6.8929703169
5905 1 49.0792878579 61.3344142916 55.7724038695
5906 1 6.1224982686 29.4892389661 9.5705327382
5907 1 56.2299843023 36.9051553262 5.2144594825
5908 1 31.7842807657 53.5482902556 29.24186814
5909 1 10.8868006873 42.4113946583 55.9340990653
5910 1 6.4284667782 22.4249204113 57.914411671
5911 1 56.7137238926 54.2529489064 40.295897144
5912 1 59.4395432298 36.2732975525 19.5100177671
5913 1 56.6407474507 28.8909725939 42.0900525229
5914 1 12.6245997601 46.1292137288 23.1404055592
5915 1 18.0145566623 23.3881860365 26.7373189929
5916 1 58.9431629726 28.1591013966 32.4556406231
5917 1 10.2237508979 28.2201979526 58.7911238417
5918 1 47.9126596539 13.3396752567 3.9669836806
5919 1 38.8552707835 21.4741784097 40.7161993142
5920 1 60.6198654894 51.5380145879 44.093305598
5921 1 35.9432942195 40.485448624 38.2369315006
5922 1 18.6212501456 9.3882379373 34.1339817448
5923 1 8.4160828803 43.9757356927 49.1149860372
5924 1 23.0516868054 32.5016971265 18.0481480638
5925 1 22.7468477627 36.6525175556 44.3574721248
5926 1 38.9561035096 35.3501777486 35.7408679864
5927 1 12.8222857432 31.065811016 43.7592642742
5928 1 59.1948643975 44.302871467 49.743273993
5929 1 43.0980871762 43.2866437889 52.8854745527
5930 1 55.48371679 14.8533365808 31.4119077905
5931 1 26.4940446792 32.0376793172 44.5706663334
5932 1 11.350174759 48.8429776152 38.3466595108
5933 1 13.9958194967 7.1398320051 39.3986438898
5934 1 53.6136588889 43.3034394897 6.9226056579
5935 1 24.7244683746 23.984930847 47.6593196241
5936 1 21.0098094707 19.1663203785 22.1712877735
5937 1 22.906845832 48.0961834085 58.2771285814
5938 1 46.3257878014 57.0430249663 58.677767492
5939 1 45.2074399219 7.5399208126 18.2671359113
5940 1 58.7197274831 17.5802093069 41.2080148861
5941 1 36.0932850942 41.0282950358 42.6545519288
5942 1 7.5067039494 45.3653897349 45.5885326164
5943 1 26.1140053736 25.0764173096 54.4485866334
5944 1 28.3065758422 32.5952731736 12.3375512856
5945 1 50.1626398174 44.9787374879 5.4373448689
5946 1 23.719886496 30.0478276898 52.2625705846
5947 1 44.9608883983 12.1114238022 57.2294748012
5948 1 55.3589487272 17.7948665555 36.3017975743
5949 1 19.2508840983 43.9350631769 43.367754734
5950 1 20.0215551201 30.7772409797 51.6351019313
5951 1 20.5371889854 39.6055177649 6.5724884492
5952 1 8.4380870039 54.5948906469 36.3305316826
5953 1 39.9932819224 44.4706529097 15.0768891135
5954 1 29.0948618672 26.9649095164 41.3614585355
5955 1 59.9924553577 32.5209507347 49.7524033634
5956 1 19.1506951098 24.6545350561 6.0005919124
5957 1 56.9358133852 34.5993455511 14.6554750329
5958 1 6.4725101385 20.8015895987 60.400877642
5959 1 3.8903496383 58.3961030052 11.5462806587
5960 1 3.9493569731 30.0007177974 27.4636891594
5961 1 8.1941865091 10.7860264827 35.3718307426
5962 1 57.3293711816 19.2072269807 26.8778878891
5963 1 18.0050176406 25.6805358423 59.927906027
5964 1 22.2132477645 6.1684552854 20.2209382297
5965 1 45.2626843174 46.4314778208 16.430318282
5966 1 39.8507818132 14.4964133094 7.2674734786
5967 1 39.0388530597 45.0561615719 6.1000844938
5968 1 20.4705913984 50.7891136034 36.8510813628
5969 1 14.468439982 30.9113724993 17.3923549535
5970 1 34.7021094902 29.2686125137 5.8522923121
5971 1 51.0758694699 12.9163884847 60.8111726175
5972 1 20.5912044272 16.7611409174 43.8301339384
5973 1 48.5080584674 45.2422017555 51.575819545
5974 1 41.6530131737 7.6821809833 40.5684907821
5975 1 29.5400357196 20.9760425044 25.6963951974
5976 1 15.9773025345 41.4062860852 16.2132616475
5977 1 35.646297072 18.3975805697 26.6648107238
5978 1 23.9144123124 8.1863680226 23.3729118975
5979 1 51.5832517889 41.0423402211 25.737828494
5980 1 12.7726594218 21.7371745045 61.0879798112
5981 1 40.7670545893 32.7141305542 17.0200404998
5982 1 32.0382645332 45.9054856313 17.9169426244
5983 1 55.5504314201 59.0755973657 28.9772334403
5984 1 36.9460619284 12.7268370048 53.2916730159
5985 1 6.839025101 11.5629007947 55.6340002727
5986 1 22.332865926 53.5975069258 26.8945080251
5987 1 42.6938784476 40.6401797487 33.37741443
5988 1 50.7452223993 12.1978016918 46.4931595929
5989 1 60.3882369752 36.5565421227 9.6676786032
5990 1 12.6107886613 9.1405745032 57.575513054
5991 1 9.6616508779 5.6885254515 59.5926357495
5992 1 14.3552006755 11.0535872627 42.1433657055
5993 1 53.7875265786 14.3511626848 18.9328191729
5994 1 31.3006582186 34.8080921176 22.5080796126
5995 1 15.4769428082 41.7465892207 31.6669449469
5996 1 7.272008903 55.3375298196 41.7374013287
5997 1 20.5573789393 23.9541484825 25.5858478847
5998 1 12.7762877614 59.1189618753 48.438125149
5999 1 41.8179270577 44.408912616 49.6321414643
6000 1 56.1495170948 41.2674143156 15.408589573
6001 1 10.4221976619 38.2207795376 25.7451436947
6002 1 59.8123843779 58.9887513032 12.7323380357
6003 1 59.1296128075 36.1887923543 36.1089688845
6004 1 54.8032860838 54.4452509018 55.1336405464
6005 1 12.9818741612 18.1568812067 54.4219007813
6006 1 7.4127241033 8.652030289 61.5218589937
6007 1 59.7188668524 45.641085018 18.9780563739
6008 1 39.0372729763 18.3883341561 25.5454094554
6009 1 59.303363454 21.8248398694 21.0816154806
6010 1 21.8700185488 15.4409520208 9.2743548932
6011 1 55.0502472586 11.315764055 31.8266504081
6012 1 4.8660745133 15.8881156078 28.105202998
6013 1 53.2656894231 39.7967663714 19.0462340442
6014 1 51.1083489609 25.8494877172 5.9300382649
6015 1 32.9730886582 34.2970229375 32.7081028288
6016 1 46.4348720739 45.3152952407 47.2954322816
6017 1 11.6570620578 20.3691734562 33.618874574
6018 1 13.4821168443 48.7488163521 27.6121584723
6019 1 12.3833737026 12.0086598631 9.055706471
6020 1 12.6399909424 21.7841673536 15.5809942226
6021 1 38.5781124602 51.9641689186 36.2696106913
6022 1 51.0960009022 42.3190475649 54.1748225632
6023 1 37.7077206229 56.5519116537 29.7467925515
6024 1 13.4263457543 10.278761207 50.8785346165
6025 1 24.8255351872 12.1708817533 32.7404652766
6026 1 26.4895970372 15.8521248205 41.5568036544
6027 1 8.4298588662 17.0532222501 22.6395191384
6028 1 22.8102266614 55.2105964575 6.067722046
6029 1 16.7727867169 35.9366812781 5.4636386262
6030 1 5.9567943429 37.6723735732 9.8486274072
6031 1 51.46591597 8.2347478338 16.9867417063
6032 1 14.5345693961 24.3590594704 28.1911712363
6033 1 42.6658465986 55.8489501294 19.6574922128
6034 1 31.1882967362 23.5888566215 16.8158586185
6035 1 57.6185849556 14.595841517 45.6578807188
6036 1 53.0167385136 3.8266020535 35.6137005378
6037 1 41.395635153 45.9802177214 60.8415453307
6038 1 55.9013854878 33.1150620729 36.1832913233
6039 1 44.5129640304 15.053831601 57.0547292874
6040 1 12.2404639422 32.1561270466 6.8539481104
6041 1 25.7306888582 22.2933638424 6.1497166673
6042 1 24.2121117192 29.0546575243 26.832533645
6043 1 11.0487884911 8.4962750362 27.2300123889
6044 1 36.5794240704 58.1551695557 18.7427995201
6045 1 53.7505994455 17.9124364608 13.5826569624
6046 1 5.9369847795 46.4791144076 18.6038107072
6047 1 3.7722764472 16.2975327593 13.2308250706
6048 1 44.4139454741 7.5097412207 6.375820742
6049 1 54.4174531393 19.7139070404 58.975291334
6050 1 56.5239383263 30.6323414847 59.814140026
6051 1 23.2666951837 59.4048399177 26.3167827364
6052 1 4.8103677971 43.8095928549 20.8125916605
6053 1 46.16315626 14.5141453558 36.2710737315
6054 1 29.5699987816 32.6255873652 26.0627404473
6055 1 25.6882021726 48.2701096198 34.6722634715
6056 1 53.4216495015 23.9271115008 50.8173795388
6057 1 15.4979520645 30.8650819094 60.8362198647
6058 1 21.8839466909 22.9732678541 14.269408002
6059 1 24.8908452988 22.8966630726 37.2720857921
6060 1 57.1383566615 17.4396989323 6.5436724107
6061 1 26.2992262548 60.3571034811 24.6541254049
6062 1 36.1704750918 54.8106012845 41.7264577885
6063 1 31.5412405384 34.2319469123 14.5119800564
6064 1 59.6904253522 57.4204307997 60.6662731225
6065 1 46.294712829 54.2513103015 20.928054788
6066 1 14.9645276311 27.394926273 58.1748328151
6067 1 39.7400589358 13.9744005891 40.081883633
6068 1 18.725008952 28.6435432462 15.5623258305
6069 1 14.185019847 51.7135794042 33.0266359271
6070 1 12.2046487197 35.036150814 12.6066921489
6071 1 58.381589647 49.2868639923 13.9251253973
6072 1 23.0025871784 42.6302654625 50.3073637476
6073 1 14.5452203283 13.9618184439 49.6148775907
6074 1 29.0568228237 51.8412150256 26.3370897335
6075 1 20.8341276113 58.7971515671 6.3698925034
6076 1 27.1452145827 23.3902342927 17.4435028366
6077 1 10.133861712 36.2766918056 33.1902038143
6078 1 10.6977173802 40.3234608202 5.519368751
6079 1 9.4808776387 29.4057871568 21.9907486207
6080 1 44.1047758326 5.0132914639 11.9777604555
6081 1 41.6926908221 45.5704494403 5.2197147227
6082 1 16.2315203884 25.3899760714 26.1755701025
6083 1 51.9884553848 33.6785080899 16.7917477171
6084 1 4.3191023283 51.5727764215 54.0467772906
6085 1 12.7338010758 61.6806866308 17.5178252755
6086 1 49.6666106899 34.1785166866 49.399635126
6087 1 38.7510438042 3.9689851195 48.3283386172
6088 1 46.379393592 11.5397847605 5.6280960417
6089 1 20.9471913529 43.0256959503 53.3557541738
6090 1 22.0595115071 52.6067946677 32.4427073483
6091 1 47.9515179999 35.1721550249 17.923380001
6092 1 9.3881208941 51.3988502102 51.5862363908
6093 1 57.348741833 59.0167831522 4.9380443836
6094 1 30.3603330627 15.106032873 26.2225629517
6095 1 34.9343232205 20.3639650334 18.5634893211
6096 1 19.7917992972 15.1844518243 35.9321165929
6097 1 11.2089036035 55.3601191593 39.9151555792
6098 1 19.9390396564 38.2175608493 22.6722912374
6099 1 49.2581884057 52.3321527734 26.6447378132
6100 1 54.788714204 31.4958862942 3.4997641542
6101 1 48.633294703 34.0047660401 29.2103249947
6102 1 19.3136777809 59.5410196936 16.7593267477
6103 1 15.6400425225 30.408496344 43.5302107106
6104 1 33.4549555572 47.7246297357 31.6610342647
6105 1 9.6277668683 47.1941899042 13.3348179635
6106 1 47.5441491046 13.5058180945 44.9141296356
6107 1 48.5692135451 29.9329497784 24.6153255805
6108 1 58.2198359297 38.8437420272 20.0088559317
6109 1 9.1153516913 53.8571087674 47.3914662361
6110 1 10.4872736871 23.1423952938 29.4269719779
6111 1 19.6230229872 51.9845344373 30.0350699798
6112 1 35.5475126021 13.6796272626 41.6480388372
6113 1 17.9390052697 36.5001858167 29.6872760788
6114 1 31.4182281238 3.3017170928 4.3158719356
6115 1 37.9242505629 13.1946001969 9.0205408383
6116 1 7.7436228168 32.7996891413 39.093980412
6117 1 55.1496754663 47.159662157 30.3323597353
6118 1 38.631250078 7.0615944708 58.5444552749
6119 1 59.6420279845 30.268044491 3.9830127483
6120 1 30.8085500386 36.3831426058 12.6394057263
6121 1 60.1099082198 24.4405800667 48.3570142039
6122 1 30.5817788176 36.6354877684 31.2784200085
6123 1 24.3836385447 7.7986916475 48.626038024
6124 1 11.0472084077 4.8134226249 19.102473307
6125 1 31.7429645123 55.2004136981 37.1254891706
6126 1 25.3393548827 47.9017746353 50.9049863821
6127 1 59.2859825371 48.1356269706 17.5921477144
6128 1 44.786962187 12.5763194357 45.3032983116
6129 1 55.3172813442 29.5560121179 15.4380259406
6130 1 32.0343435857 42.0366808188 54.7138650707
6131 1 27.6734891148 41.2036257657 43.0414967838
6132 1 40.0200262961 19.2027208171 58.1519508674
6133 1 7.1635449596 61.6645346677 33.8550677734
6134 1 19.7212807627 48.8652743469 50.6829554112
6135 1 15.4803955829 3.7870256475 17.3023487243
6136 1 4.9392733373 57.7058406693 38.6227644452
6137 1 36.2136640366 43.4980823493 16.5674929251
6138 1 42.0869508778 25.5540121314 58.725228514
6139 1 58.3400978288 38.3555547948 32.3472586098
6140 1 15.7357838689 39.7114418707 13.9459005672
6141 1 26.2045968188 21.2530837845 49.2216124023
6142 1 26.4026339316 19.7731309051 46.9292040749
6143 1 27.6812139667 15.4291306565 31.4526973494
6144 1 17.5933181465 48.8253040904 14.798735923
6145 1 19.9418486935 37.4993837076 19.057236106
6146 1 46.4109952589 51.6951450985 47.4433163785
6147 1 57.8685892539 43.4901234109 40.7736675307
6148 1 34.381645179 39.2593624689 58.5046605832
6149 1 46.2772733905 43.07380071 6.1821961583
6150 1 42.0336962169 30.5186340054 36.6295770863
6151 1 14.4062315155 57.4560704574 8.4841669161
6152 1 18.3387078347 17.6656508508 41.4318015052
6153 1 56.0135128838 46.9746168407 24.0071105354
6154 1 5.7272433456 47.7052590843 13.7304240161
6155 1 19.4927538935 22.3670425436 12.7800916657
6156 1 8.8822308761 14.6604493694 52.2226588497
6157 1 33.7801015969 53.569884728 18.8576774315
6158 1 42.8009729855 16.9115414434 60.5504588654
6159 1 8.2836484873 16.8382138718 4.6944774619
6160 1 32.314603554 9.808306021 26.9405645286
6161 1 3.2303597681 10.6318220525 55.7644449312
6162 1 59.6994376794 13.0154070411 44.3526733532
6163 1 30.0279888656 23.0497555924 49.3972357402
6164 1 54.7311874659 8.0705420611 42.7466064141
6165 1 9.0557474362 15.7782705545 8.7924879942
6166 1 30.2590906853 45.7517493739 47.7650096435
6167 1 50.1837075954 35.9750714513 21.3791978441
6168 1 30.2475619291 10.4703024215 35.7038238102
6169 1 28.9952580948 48.3169269041 13.705084161
6170 1 50.0571253628 3.6814122914 36.2318057342
6171 1 32.4426488267 19.4519058129 56.9350526043
6172 1 55.6720978378 5.4934729406 22.8271394054
6173 1 60.6059373473 60.8488605314 43.8818670376
6174 1 59.2635687623 53.0417857607 29.9839220967
6175 1 21.5981856916 12.9342375744 35.6516810597
6176 1 9.0320344817 26.7682184006 54.5848249308
6177 1 41.4163518014 48.2699925766 5.2888111822
6178 1 49.511762522 6.5655302303 23.5934213067
6179 1 14.5415919888 36.7514775903 23.4074396447
6180 1 45.5274360603 29.5523252567 24.7897199646
6181 1 49.056288867 37.5013149206 14.3906062468
6182 1 15.8533537742 61.2938002974 50.0266356064
6183 1 35.0340440362 22.5392716283 40.0417963333
6184 1 17.0478382624 21.9033173423 11.4782785532
6185 1 19.0100091704 22.8585655075 3.9183054092
6186 1 30.1547466629 57.6346198755 21.7900195142
6187 1 34.4351924479 58.1714970836 32.3905645979
6188 1 41.1187694378 37.9498245045 5.2656424786
6189 1 13.4568355108 4.4566163967 55.9236236979
6190 1 6.0677981241 31.1286046986 52.731328644
6191 1 56.9488637032 33.8209496775 18.8838951108
6192 1 23.5745188282 40.8795916365 40.1570253744
6193 1 41.0209213136 60.2311649862 15.8202305455
6194 1 48.0741792849 9.4462913699 32.0090037305
6195 1 20.0398723826 31.1767094583 47.0572493475
6196 1 49.5094801793 57.3181350334 14.9065327202
6197 1 60.5717022082 41.0322159834 49.8250286758
6198 1 19.1556694463 50.6329779601 24.8312703045
6199 1 52.3519330761 56.8492014092 43.434352321
6200 1 24.944802219 40.4863849697 25.7193356667
6201 1 20.3591662617 8.3421349797 9.8575226912
6202 1 47.6379007165 43.183996893 57.480005794
6203 1 15.5208340122 51.169738125 8.5949717238
6204 1 40.3431240796 15.0393767645 23.6520599553
6205 1 56.6502864724 33.6310470679 61.7204228009
6206 1 61.1243802497 6.5729273612 19.303729108
6207 1 27.0938326131 22.2917252374 41.5703806668
6208 1 15.7275323226 54.9089175816 57.3396709842
6209 1 52.6223614147 49.6784905758 7.0593882062
6210 1 41.9637043768 7.765831766 46.057700327
6211 1 31.8973445074 44.015588906 8.2469495885
6212 1 14.1524818344 46.8305366482 30.415460415
6213 1 43.8796432166 10.322067195 61.7034515353
6214 1 35.622127649 23.4528524105 55.9642962137
6215 1 49.834333611 47.3474579888 33.4862060945
6216 1 54.1734765663 45.3568455805 12.283945495
6217 1 50.5151739684 8.5619304253 59.9842038114
6218 1 48.6105297985 59.0366219765 53.9124702061
6219 1 29.6165819795 55.8406400614 4.3268447367
6220 1 35.1564127131 23.1724753989 21.554821182
6221 1 16.996280728 58.0797937279 16.336742235
6222 1 42.8759976837 49.4467450183 45.697148716
6223 1 32.4928018425 4.0986104755 19.0838634365
6224 1 27.500382206 30.4103105137 35.4388965024
6225 1 10.5226207368 37.285604283 13.4278087945
6226 1 46.7305232245 38.4361975671 50.4896000269
6227 1 12.1849269386 16.5190955574 17.8299209972
6228 1 49.9546540318 53.8233418011 4.8752741097
6229 1 57.4569482814 56.6570749786 48.5633613846
6230 1 6.4055965348 8.5048425992 31.1623131434
6231 1 39.0126353805 50.4084305602 10.7955655044
6232 1 9.801634558 24.4453788384 60.8938051244
6233 1 19.5835209035 22.1824068785 30.4664912549
6234 1 60.4055593704 11.7632787716 48.9201090912
6235 1 24.7677743626 50.0128245075 6.4446480021
6236 1 45.3144174166 45.8512361031 26.5544974976
6237 1 29.2057603094 57.2869430177 9.1997983679
6238 1 58.3165136218 17.5390686183 36.7513605471
6239 1 40.6521181562 21.7842258752 33.3102901486
6240 1 6.5440059838 40.3945645708 21.3260017048
6241 1 24.6608553895 57.7702729568 40.8331254818
6242 1 37.4021207994 12.4668840335 43.4396192655
6243 1 24.9198720151 37.0059880523 8.2030642366
6244 1 27.9897983921 26.4180251138 36.1341331748
6245 1 59.7993340599 32.4623120861 11.4562744296
6246 1 8.1972588933 22.8987113288 45.4541670103
6247 1 43.9438999393 50.4177354954 59.4142033746
6248 1 6.1985587992 31.1179537664 32.2224320255
6249 1 31.4443287599 3.6978808564 40.840206596
6250 1 14.0858257258 53.8697494342 22.4956730323
6251 1 48.5460389894 27.4282835881 43.6604212827
6252 1 23.2223943284 5.2763577845 4.126694994
6253 1 30.5815447312 55.2018182167 31.5445762699
6254 1 32.4834969073 7.6696924727 30.1955362219
6255 1 16.831659452 41.0710743294 58.1043142806
6256 1 44.294268791 48.0536382014 10.0713021158
6257 1 28.3110234842 11.6442458262 60.2187584059
6258 1 42.8261372759 24.3244732016 17.8399867133
6259 1 19.99457666 13.0079162756 14.7807697901
6260 1 58.3492271992 4.5551024064 25.6058622738
6261 1 35.6792447359 35.4910392529 46.7730684316
6262 1 18.901802722 5.5413085009 24.0040674119
6263 1 3.0678893367 20.9074551829 23.9001915623
6264 1 58.1047824534 46.8142676418 38.4213916009
6265 1 40.7674642405 31.7758536546 5.5703761823
6266 1 20.5782126308 30.0466572577 55.7439038477
6267 1 9.8577567776 3.5875143755 53.9112412524
6268 1 25.7732340653 57.4358805035 34.3267519131
6269 1 4.1118773235 37.8361755468 46.4839131793
6270 1 56.7342064545 36.8462825911 45.0167765315
6271 1 35.9952614051 47.3626736062 53.4066094489
6272 1 5.9183573525 38.843917592 39.9584030456
6273 1 48.2809946384 5.7238607969 43.4698164139
6274 1 22.4403115936 18.873770873 28.3593038087
6275 1 55.1336405464 61.2127478739 17.2127521465
6276 1 57.9900215852 16.2667503949 20.5510586059
6277 1 25.8399486955 46.7482552709 18.2142909016
6278 1 53.6113180246 38.7803631286 12.4231098727
6279 1 12.2066969758 46.3065927149 28.4687977324
6280 1 28.8515290318 43.5019447752 54.0052269507
6281 1 53.2370138364 4.4600340584 32.1918252259
6282 1 51.6652405581 7.7129106783 54.7877778584
6283 1 56.4758920882 48.0449184822 17.957790705
6284 1 41.9319271451 48.7296212656 60.9980906252
6285 1 8.8673137189 11.04182442 25.9909344374
6286 1 35.373996042 49.2971052733 45.8496560198
6287 1 33.7719670937 26.9034618307 30.9076856382
6288 1 39.5513852799 54.578563119 35.634592751
6289 1 46.9908273254 4.4410906147 50.2638236732
6290 1 50.0895463322 24.9528196789 11.3491798917
6291 1 37.1465569485 39.7748207694 33.1638105702
6292 1 19.0052103988 59.2257052836 47.8836329376
6293 1 59.0842585633 19.8377972791 38.229908908
6294 1 10.9305163265 33.5660880859 10.5808497341
6295 1 3.7565031189 55.3007197298 48.9264879462
6296 1 12.4507320704 34.4781473063 8.5296264991
6297 1 51.404819414 53.9251693945 60.9974468876
6298 1 48.8515217696 31.2982003111 15.6731657511
6299 1 28.5540637115 53.9267494778 45.9412423322
6300 1 16.6305792158 4.3094813763 42.1750844156
6301 1 52.2292132695 23.2628327577 58.511215003
6302 1 60.4727421734 44.0110242208 39.5595783047
6303 1 15.6550240535 34.5336257882 55.7693022244
6304 1 49.2042900071 33.517573675 22.9262164833
6305 1 56.0684061497 24.1830264813 36.2154196847
6306 1 31.8332048279 31.015540957 9.9606377599
6307 1 36.7981193099 6.1732247962 6.7206534498
6308 1 24.2351107101 49.4470376264 39.1747402275
6309 1 29.7635882523 50.3256810101 61.4144133262
6310 1 30.0779663166 61.5679740188 38.4650487186
6311 1 23.0853367285 22.9787103634 24.4152402116
6312 1 61.3882541686 52.3540398539 25.8368470504
6313 1 14.6076043597 42.8806794121 24.7761429522
6314 1 28.738348247 53.5547861538 24.0672707458
6315 1 45.9308254865 49.6676640788 56.0026278652
6316 1 14.1259130255 36.8715639247 55.1780584449
6317 1 44.0239574956 27.4033533842 16.558012425
6318 1 56.9666542712 44.2733765778 38.3889121099
6319 1 22.7179380897 17.0178166788 21.3387594148
6320 1 24.5221006631 36.8589817795 26.6353743563
6321 1 12.699214807 55.9746545378 10.0186911925
6322 1 24.4294024401 37.1600754394 10.7732102511
6323 1 31.6345239775 12.9993721212 38.1939766423
6324 1 58.9745305531 55.7139993073 24.3719927452
6325 1 15.3439231991 30.6445725002 38.0495453201
6326 1 14.6014010695 40.2431691776 59.8231523533
6327 1 24.2090100741 24.6623184297 21.1078331598
6328 1 39.9445334251 53.1691872957 54.5542766527
6329 1 29.4287276261 34.9519382238 44.7348194366
6330 1 10.6444627192 28.1655972948 19.9089010296
6331 1 22.8492605722 13.2246803021 51.6576327494
6332 1 30.6799780715 42.1664817396 52.0683373762
6333 1 12.4019250515 20.9539798592 54.8756773097
6334 1 6.203509727 32.1807646424 59.5120514989
6335 1 9.9618667136 13.0729923008 35.8352048143
6336 1 11.9288949149 30.6617193306 31.250914854
6337 1 12.4290205548 35.1537207192 5.0234917797
6338 1 48.1096433778 58.1819139293 28.7085022282
6339 1 12.2871056617 30.6912142197 27.1397135518
6340 1 52.5163202657 29.5993181059 30.5672654595
6341 1 40.1561475503 13.6189988794 17.75712012
6342 1 44.2650665099 53.8173140757 22.8889967423
6343 1 25.5853797119 55.7799531566 44.1336855057
6344 1 13.335637266 60.203016094 9.186279877
6345 1 60.0977942475 8.2176536728 58.1112783516
6346 1 54.1781582947 43.6871656564 58.4652755428
6347 1 32.6023542879 55.490680861 10.9507062804
6348 1 39.1797730855 60.8240473707 18.8791548607
6349 1 26.1366532349 4.7265414495 49.2146483312
6350 1 46.2835352023 24.6957342663 13.5082760019
6351 1 52.2832287113 50.8503272027 44.9768647966
6352 1 24.9393011881 8.2115381651 40.2871189032
6353 1 31.1122771707 27.7330641091 39.3038974106
6354 1 19.4835660015 8.3861666356 15.4187138108
6355 1 15.2305083278 58.2773041462 12.3727227704
6356 1 20.9826554458 15.4670526569 19.7138485188
6357 1 14.0978811765 6.5173552447 23.1643408958
6358 1 56.2669114353 9.5791939358 56.7830719951
6359 1 48.1108723315 13.4103693561 37.8957505411
6360 1 49.5774822848 48.0151895066 27.7156246707
6361 1 9.5630419727 26.1553216271 31.115495859
6362 1 18.0253831593 14.3783752313 7.0446817268
6363 1 22.0777117264 55.8363679842 53.1971606231
6364 1 39.0313037726 31.6224100051 31.9022018006
6365 1 9.3229863473 31.0869373156 3.3274689401
6366 1 52.950082405 7.7439095726 36.4948603506
6367 1 50.4259285202 25.8597875197 40.7775299566
6368 1 4.0509153671 20.505060624 36.0052100781
6369 1 54.574115477 58.6341103744 14.6623220608
6370 1 55.7774952492 23.4843370342 43.1776765596
6371 1 31.2863204252 3.9497315113 9.1185703796
6372 1 3.8557165522 27.0767443044 56.640103713
6373 1 4.5762755233 58.7362890975 53.3761196925
6374 1 14.3225456197 38.9495490898 31.7420281666
6375 1 16.9851031014 23.3509077739 36.2044761445
6376 1 28.6783636014 42.4005681613 24.9697909445
6377 1 33.5357153727 52.1746126117 11.7336083177
6378 1 9.8934549569 49.4153189162 28.1133375011
6379 1 25.3326834197 57.7871857008 11.9305920415
6380 1 29.1223670217 5.7534025033 37.8313767751
6381 1 45.0649398127 19.8572849737 10.5854144194
6382 1 16.7936204085 47.286771084 54.7679975557
6383 1 9.2308733404 28.6833964595 51.2222905267
6384 1 30.0003666678 33.9136479004 30.1427497338
6385 1 28.6609826846 37.3293784438 29.1443126238
6386 1 32.1251105957 34.5814379399 41.6233427197
6387 1 42.065122319 16.6611274938 51.1842514832
6388 1 30.9954680463 19.3336336484 53.3940858253
6389 1 33.7760636061 59.2161077403 16.6557435061
6390 1 55.0871158701 13.3552420038 54.1618892884
6391 1 5.4782222103 13.8925873847 30.0395176218
6392 1 3.8706103008 46.7699667865 4.186188058
6393 1 46.6519287084 45.4366690503 11.4155433922
6394 1 34.7847419971 59.2621057221 29.6170501523
6395 1 10.8298006436 18.465465632 21.7821190974
6396 1 39.2255955026 4.0336163805 16.514706437
6397 1 49.8664619724 28.3143006941 53.3949051278
6398 1 3.6850049327 26.7312912676 6.247945182
6399 1 43.6877508724 42.3851184574 6.7322641363
6400 1 46.4630209661 29.3494308507 28.3037082835
6401 1 53.0287939643 27.5107990517 36.7686244207
6402 1 20.7664181138 54.8124154542 61.4182757521
6403 1 59.5538944467 38.1317096541 59.7440896644
6404 1 59.8402406621 14.9549886095 61.3414368842
6405 1 48.2612143358 33.2317541541 43.7508371631
6406 1 50.9200849563 14.2832191009 51.7189633919
6407 1 50.7253835751 30.8481691655 5.0691269276
6408 1 36.6689621267 56.443002946 32.4871252468
6409 1 5.6770083996 5.9299797433 47.5601255029
6410 1 44.7826315882 50.6217418119 37.7545379072
6411 1 18.9146774752 10.0880978165 45.6526137743
6412 1 56.9746132096 45.1639583691 54.9996845916
6413 1 27.152588305 37.9691951559 6.7123316775
6414 1 43.8194830062 61.6431742817 35.9160231514
6415 1 11.4064725434 23.7343998542 26.8551229846
6416 1 50.5789039967 55.2589353036 32.0146803263
6417 1 32.0565232741 34.8101988954 6.6085084973
6418 1 51.9694358631 17.63135719 42.4951975972
6419 1 33.3534205718 45.6049771875 28.3158222559
6420 1 35.068922913 36.5017073784 20.9322683436
6421 1 34.7188466694 38.1363328609 33.3871290165
6422 1 3.7098075595 18.7801363043 22.1292692608
6423 1 42.8694432639 52.3474269124 50.9012409994
6424 1 43.8712161054 4.5216397524 28.6708728359
6425 1 34.5896894862 21.0593772705 46.3568042523
6426 1 45.1997735916 31.0047729816 51.1614280571
6427 1 38.182155278 15.3628256776 52.9280197598
6428 1 41.9864107597 5.1297143457 8.100756766
6429 1 50.154388271 13.7864291925 25.7578428831
6430 1 40.3305419345 37.5269473837 40.7767691758
6431 1 38.9502513491 44.6683974144 50.4910045454
6432 1 31.79610213 5.1140539641 29.4864884506
6433 1 35.0606713666 16.5781438573 30.440975835
6434 1 48.2654278914 34.7421967899 25.3066998269
6435 1 37.5092738589 11.6038659184 31.0466159294
6436 1 52.9509017075 50.466893644 57.7338725183
6437 1 37.8506303833 38.4434542462 21.9363235277
6438 1 12.6873349211 21.5205275212 30.2134438331
6439 1 55.5895238526 53.6774474388 46.8555838953
6440 1 38.8311598821 33.4304350045 59.6738637379
6441 1 39.891746937 60.3627215552 8.5440988922
6442 1 28.6998995522 31.8263578 61.4781433545
6443 1 41.643474152 42.8956609431 4.485245166
6444 1 53.1282221719 39.0095337354 45.9883522246
6445 1 55.1640717812 50.456359755 59.4391335785
6446 1 54.6156072952 39.1296200697 16.654280466
6447 1 40.6103922516 4.0865316162 10.4489420355
6448 1 23.5457847199 10.2805168551 25.433340581
6449 1 4.5362701538 60.4634957597 13.2723168889
6450 1 29.7384239619 33.1723547246 42.2818863455
6451 1 28.4743572849 32.8150218019 53.9885482932
6452 1 7.4561763953 24.480140672 59.4981818784
6453 1 6.6907547616 16.4593449983 10.2957324725
6454 1 21.0122673782 24.4347279062 22.6803086974
6455 1 9.8499734041 59.1186692673 4.4024663552
6456 1 53.9657248671 22.5122931682 53.089949042
6457 1 23.9161679606 14.812078849 30.5845878547
6458 1 39.2797865092 36.1586537275 21.5352749658
6459 1 51.6733750613 18.5971392442 17.6177216559
6460 1 57.5670274212 54.7889482905 43.1172237412
6461 1 62.0159569083 24.2144525834 29.8430605924
6462 1 30.0903728969 16.6370165924 53.8308325666
6463 1 4.5767495483 44.4145306901 61.2382632939
6464 1 43.8117581543 30.6826700654 39.8760631468
6465 1 57.1123145471 6.5392072122 7.8403180654
6466 1 23.4657271637 25.6577709378 40.6424620913
6467 1 21.8033039186 27.7679429859 31.3991500805
6468 1 8.0354759152 5.2849194954 8.3402330275
6469 1 15.3852979741 18.5768322471 29.3871187646
6470 1 57.8256929172 51.9026627113 19.1784343508
6471 1 40.2013847513 50.2616583738 46.0488635646
6472 1 13.9427404006 52.0330488481 47.1706642188
6473 1 15.5289685154 6.1179335834 25.6996138857
6474 1 45.0330455378 27.3705227636 13.7367443495
6475 1 50.5928906604 42.2232476969 4.6295711493
6476 1 5.2962668347 33.9721109843 50.3877724334
6477 1 38.0770504746 56.9774807682 60.3682811077
6478 1 13.5186928477 24.3142319206 46.1196747071
6479 1 19.1240677794 32.513050318 58.9670397876
6480 1 47.8809994654 5.2992572887 35.7498803136
6481 1 28.0320509912 57.068130735 25.022811519
6482 1 53.3178906951 40.6507136377 42.2687189843
6483 1 50.1583677402 28.6162721781 40.0576556884
6484 1 7.2369544614 15.1352351541 6.6599606928
6485 1 8.798059251 52.4913315402 59.8749439741
6486 1 46.8404267995 61.356301372 30.2150824381
6487 1 3.1461338935 42.0195339884 52.3910255085
6488 1 32.5586386486 54.3260423916 8.2379489656
6489 1 50.2755279943 58.24974047 17.568622029
6490 1 7.3588257047 48.7762629851 18.2156954201
6491 1 13.1601309713 61.3681812579 39.8608475294
6492 1 34.7937543243 32.5256909848 51.0687883557
6493 1 8.2848715888 40.3958520461 40.1278230933
6494 1 39.0571118006 42.1052096187 52.8063533421
6495 1 8.6430940399 36.8156757915 11.0480277102
6496 1 3.3315151239 28.7876234387 9.8659498024
6497 1 42.9466332614 56.1742717339 23.5171091332
6498 1 49.1973844577 22.1565988505 16.6961819354
6499 1 36.9522066969 57.2923270054 27.0737597025
6500 1 40.4863849697 40.0175683887 31.5311748223
6501 1 12.5955730438 18.4222181656 58.6571093653
6502 1 50.2200495123 37.0257098333 41.4341423694
6503 1 57.189153415 53.2396473086 34.2547703384
6504 1 48.1691013289 4.7285370362 47.5467825769
6505 1 29.5589967197 5.8584429328 28.0716115965
6506 1 37.9057577356 14.5867121466 27.4596511686
6507 1 29.5165100342 28.6411438604 5.9296988396
6508 1 29.5400942412 29.2905581157 9.7348614062
6509 1 58.8924247407 48.9903935393 58.6138618989
6510 1 28.248756496 20.8424376793 45.1907612644
6511 1 60.6102094245 43.8023361758 22.1241193595
6512 1 20.011782012 13.9914888979 51.35291075
6513 1 48.963883252 39.0565851061 36.2493036943
6514 1 19.4987816189 42.1335340758 58.0576140394
6515 1 42.1822825731 5.0885912136 14.2643751439
6516 1 8.086612094 4.2527037148 24.017410338
6517 1 43.6222066744 54.0144733644 55.9335138492
6518 1 32.0342850641 12.1935881362 34.7228261386
6519 1 17.5387174886 35.203288519 53.6421003891
6520 1 52.9668195842 22.4858999242 55.7602313756
6521 1 47.0658520235 12.0137512428 15.7827767181
6522 1 10.5707254964 7.422848341 21.7934137673
6523 1 57.242993292 44.36203681 47.6484346055
6524 1 44.0515796933 59.403318356 33.9786068825
6525 1 21.419109579 38.6042716179 25.1555970417
6526 1 59.7914921647 3.600780053 54.836175226
6527 1 25.8810308625 35.9685755531 16.8505034089
6528 1 61.1813217718 11.3855803302 46.289211798
6529 1 50.3004581982 56.2367728085 28.6482249746
6530 1 32.9438863771 27.8046945541 23.5648627633
6531 1 59.0040839639 23.0216652218 56.6817125745
6532 1 51.0456137999 41.6407821581 29.7378387459
6533 1 32.8489058115 16.822764168 46.8356280278
6534 1 40.4238253735 10.2533043086 29.3964236999
6535 1 41.1013299994 47.0468910234 11.683864953
6536 1 35.7449644988 12.7975896257 26.4283834379
6537 1 48.2980244256 23.1480133679 60.491644652
6538 1 51.964988221 11.8610098526 13.781454856
6539 1 11.9597943226 19.2509426199 50.9439032497
6540 1 60.6683213787 26.2519993192 19.1738696656
6541 1 9.0433642645 48.262969984 60.4656025375
6542 1 54.7673538181 10.0816604399 60.9163359425
6543 1 17.6069536805 31.3580679135 15.2714734516
6544 1 60.2169442361 32.1840418523 18.2596451458
6545 1 51.1233304919 37.4214914508 12.2105008802
6546 1 19.1201468318 7.0326379804 52.2312615257
6547 1 12.3051303162 24.7613955076 35.0138540823
6548 1 19.9550745763 38.4419326844 57.5225510011
6549 1 38.3020660475 51.7389777809 5.9757436387
6550 1 27.6345722472 22.1221881465 8.4083580284
6551 1 12.3330451219 42.4572755969 53.3770560382
6552 1 57.1484808993 10.0608267484 23.0021190056
6553 1 31.8491812261 26.2812016003 49.4858374508
6554 1 9.4654279349 55.1152062407 44.835008425
6555 1 45.3375334507 44.0172860325 18.3478957267
6556 1 24.4950636814 16.0540243592 27.9000262494
6557 1 8.992169564 26.2181153097 23.8874338523
6558 1 39.3281253553 14.2542509062 13.6041343916
6559 1 8.8539122712 22.0026870283 12.4503809408
6560 1 14.8368334881 4.7015819848 33.100665758
6561 1 5.5074186392 16.5598265948 35.948853772
6562 1 18.6848046091 57.5810726065 4.8273273583
6563 1 50.6449163676 12.9437180745 36.4636098133
6564 1 31.8498834854 4.3032078602 24.3521539209
6565 1 9.5560193801 51.5468513503 16.4072022479
6566 1 16.3386149263 35.0171898138 17.4226106235
6567 1 52.3604187089 15.9719185468 20.6064200446
6568 1 5.1784686952 48.7359415989 47.5415156324
6569 1 56.369441288 35.8624758824 56.3761712726
6570 1 12.8680496387 10.8046363533 46.5409132229
6571 1 52.4943746637 60.9083184825 60.157193677
6572 1 51.5480803041 42.0438204547 51.4456674946
6573 1 23.1006108675 12.4669425551 29.0230558573
6574 1 35.9522480252 43.3382013233 39.1502781964
6575 1 56.0417202976 50.6183475588 49.7868140674
6576 1 5.9167948256 6.4375961487 14.0075823394
6577 1 48.6837403269 24.8280516162 42.8189391184
6578 1 10.4983342705 32.1313724075 29.0334141815
6579 1 53.0634972763 42.9382646718 22.3837212011
6580 1 10.0382959303 54.3014047957 18.7378251836
6581 1 41.9739456578 33.5329648572 14.5778753841
6582 1 31.8247191951 8.905920422 33.6371918365
6583 1 42.9596250578 17.8720565531 37.224800335
6584 1 13.7526622262 42.2127723295 50.9455418547
6585 1 17.8467752195 26.6300488902 20.6887599434
6586 1 13.4344802575 8.4647845603 17.4378847625
6587 1 16.604595623 41.1600271696 9.6113808188
6588 1 37.3456474501 42.0737835166 21.9403029969
6589 1 27.1133203077 13.6168921016 48.9877015454
6590 1 31.0248458922 57.9613459985 11.4706707445
6591 1 27.1723686076 42.225295953 50.7670509582
6592 1 51.8495250936 19.3326973027 5.6163917207
6593 1 48.4189300624 17.112855766 16.2836046172
6594 1 58.1077085337 50.735624856 35.2378747878
6595 1 45.2396853265 10.6064821973 13.8216006773
6596 1 27.9941875125 54.5151842203 30.9032965178
6597 1 31.2377474927 15.4173092923 36.6233737961
6598 1 39.2234887248 56.8407157764 7.992128962
6599 1 11.6294983816 58.5381349415 10.5536371876
6600 1 53.9989066173 29.6858715603 39.6451954134
6601 1 28.2247041162 23.7957890182 45.2922377282
6602 1 34.1262568929 47.8517386627 61.6444617571
6603 1 39.8939122364 17.8557875468 34.4996832571
6604 1 22.8104607478 29.3502501532 48.6337628759
6605 1 42.7370673924 57.0000701079 31.1122186491
6606 1 39.1214855665 35.9928034977 44.9869890343
6607 1 47.7199480073 56.9588708977 46.7100406626
6608 1 55.7481759249 49.6395737082 26.3998248945
6609 1 24.9338001572 52.4814999105 7.5569740085
6610 1 19.9069698167 39.8208772729 13.0067458435
6611 1 22.0825690196 40.3620850798 52.6002402479
6612 1 4.1502967574 52.7195658013 9.6823675262
6613 1 5.6795189764 14.5971289923 43.7383135395
6614 1 12.267032751 54.8117717166 45.5816855885
6615 1 25.4075910746 50.251534136 55.7307364864
6616 1 16.2764064598 48.2658960642 31.9638835728
6617 1 48.2321876195 61.379592971 58.5290055711
6618 1 46.0932814631 25.7034763116 17.0038300151
6619 1 32.2664987944 31.3609939937 51.7410845587
6620 1 57.3911699969 55.7024120294 31.3539714011
6621 1 54.678518021 55.9283054263 36.5455985825
6622 1 37.4460120034 56.5929352991 38.9556938584
6623 1 17.1482613373 8.6774637787 50.977377608
6624 1 17.0476626976 30.0728749369 8.8083941665
6625 1 33.9069764374 58.8588333392 53.4866084835
6626 1 50.277634772 13.4768498998 22.9933407648
6627 1 20.7810485152 48.9379581808 19.116108841
6628 1 5.8204097415 36.2484843918 59.6496943148
6629 1 5.9951494031 31.3805987316 45.6142821228
6630 1 41.3933528104 51.4081551455 31.430225053
6631 1 41.0879870734 16.3827987384 26.2706677113
6632 1 25.4791629981 14.8504690222 33.0485815292
6633 1 27.6530065529 8.6844980757 13.657915747
6634 1 40.2132061156 55.2716930135 22.6804842622
6635 1 46.6233116434 4.2893323876 27.9311012218
6636 1 28.0848960009 61.7654844371 21.5641261173
6637 1 49.7875748483 49.4242142002 6.2891795052
6638 1 9.6258941769 35.7113145757 38.1758934662
6639 1 56.5950420768 5.6706295446 31.7774922595
6640 1 33.6536949292 49.6853961252 22.9317760359
6641 1 51.6776471384 21.7129465598 11.5429449272
6642 1 38.1874222225 41.2180220806 44.5747628457
6643 1 52.3114946467 29.1167489476 20.9690199118
6644 1 53.2611832594 35.8008526319 48.0763445843
6645 1 45.4058866859 39.3908605163 56.7213317013
6646 1 42.9029176222 6.1178223924 43.7401277093
6647 1 6.5484302172 15.3401778163 54.0480647659
6648 1 23.4073811231 53.3541155688 16.4029886923
6649 1 29.5053909292 24.1892297715 32.1565952194
6650 1 28.1314206772 14.6764257677 56.9617384564
6651 1 43.7788104905 26.4670662191 3.5937820394
6652 1 36.0390940876 5.9045052885 50.2426973736
6653 1 3.3585901446 9.822702336 41.6280244482
6654 1 18.8332154005 44.6683974144 11.2495761192
6655 1 46.4150917713 42.4136184793 47.452738357
6656 1 46.9275069483 51.1864167826 30.354656467
6657 1 41.077219098 9.7940267493 60.9073236152
6658 1 25.5835070205 41.1944378736 22.8345131277
6659 1 56.4472165016 45.5968426844 14.1009243
6660 1 10.8590029247 35.040598456 61.2452858865
6661 1 60.3440531631 50.1099118509 54.8724000998
6662 1 12.0210664435 58.7084913349 51.7218894721
6663 1 39.8141472883 21.9513635803 6.4423656595
6664 1 20.5720093406 27.3299087694 33.8785349372
6665 1 22.6011289653 37.3756690337 57.2250271592
6666 1 61.3805293166 14.3381708884 26.7892276569
6667 1 52.538675519 51.1184731987 13.9945320213
6668 1 3.7748525683 40.9721142946 43.4843882936
6669 1 9.9896644762 26.2357888345 26.4083105273
6670 1 31.4459088432 44.2907574946 32.6399251585
6671 1 36.6834754848 21.3253579672 28.6374569992
6672 1 18.2362365036 17.2469872856 29.5836928372
6673 1 59.3273573122 11.290541243 21.6644906705
6674 1 6.032181875 18.4207551255 38.0017331685
6675 1 31.1719106866 13.948007345 53.6399350897
6676 1 45.0402436952 21.3082111368 14.0823729511
6677 1 28.2534382245 6.3386595226 44.8201439373
6678 1 17.9662178162 33.2438096048 7.4687585405
6679 1 38.7686588075 9.8097690612 33.0550189058
6680 1 47.7050249979 29.9040401053 61.8193243141
6681 1 32.3587873661 22.5276843505 38.8188118233
6682 1 57.3562325985 16.6494816943 39.1677176348
6683 1 40.7998852099 60.9918873351 31.5281316988
6684 1 17.3889021788 14.8461384234 26.7948457311
6685 1 53.6872205469 26.7293600546 10.9869311541
6686 1 32.1421989045 47.7152077572 55.6495084981
6687 1 48.0964760165 19.9539041442 48.6723871355
6688 1 19.115523625 17.316335388 20.8429643737
6689 1 25.1039809857 26.9518006768 35.5728524572
6690 1 9.3593867859 24.8876266105 40.0699452255
6691 1 22.0411942446 25.0545302292 46.7929657775
6692 1 52.8841870773 57.2034326868 24.8056963629
6693 1 16.3150307194 5.4882586656 49.2777931435
6694 1 44.8758565056 31.389142886 46.9310182447
6695 1 20.2142667667 34.6423004095 46.5357633217
6696 1 40.5865739582 22.5852110886 43.8698115869
6697 1 15.0616149745 36.7745351029 29.8277279318
6698 1 37.7997165866 32.3185245016 46.7251977584
6699 1 51.0958253374 43.953438961 41.4987502218
6700 1 40.8707548741 44.042274758 57.7579834197
6701 1 14.2415517178 24.6079518582 43.5397497323
6702 1 15.3351449582 44.0118435232 3.5933513204
6703 1 8.5264019587 50.3616132758 13.8228296311
6704 1 34.916005958 8.569134435 9.2250211798
6705 1 57.2558095236 42.6967460063 9.2738867204
6706 1 7.3775409141 60.258787184 50.7341032943
6707 1 27.6973074082 23.5357190038 36.8843801562
6708 1 21.7892587333 30.1989889966 16.5914867833
6709 1 43.4077835121 3.3717106886 42.8800941961
6710 1 22.477472813 47.1736488207 11.3000217431
6711 1 45.6829864875 58.4814275059 23.3156777674
6712 1 52.7718841165 45.8713675354 6.3057703803
6713 1 27.5124961783 30.7716229056 21.2887234422
6714 1 55.2867330661 11.5134500381 35.5526039818
6715 1 6.5688132924 55.6101234577 44.4051087116
6716 1 46.9266876459 7.348338633 30.3482190904
6717 1 10.2514316172 12.8645383423 22.2130721997
6718 1 17.7535503021 14.3011267121 47.9113721786
6719 1 43.5416224237 34.021093568 61.2351031272
6720 1 48.7139374753 12.6356603436 34.5215118159
6721 1 41.5048949904 27.4640988106 60.8481582722
6722 1 13.8495154831 38.9096373549 36.0140468405
6723 1 12.1558417007 34.3939932377 25.5068437174
6724 1 59.5798780396 57.3011052462 50.3040280161
6725 1 12.0379791874 34.2321809987 29.6691343811
6726 1 25.8252597725 38.1476860524 46.2828914647
6727 1 24.7822291992 49.2063967849 17.3913015646
6728 1 40.2253786095 6.1156922059 42.628860944
6729 1 39.7684419144 31.9956022829 25.5414885078
6730 1 21.6147473059 24.8934202494 36.9286810115
6731 1 30.9491189348 14.4591935684 4.2230800781
6732 1 53.8523685174 12.5730422258 15.7837130638
6733 1 9.9918882972 40.9686029983 26.4887777347
6734 1 30.3976113254 57.9477689861 31.1255615752
6735 1 53.0644921436 47.8301441903 48.0875807325
6736 1 49.313608366 19.9553086627 30.916463879
6737 1 14.4000282253 38.072544311 15.8213424561
6738 1 44.8312045207 41.1015640858 45.4027850408
6739 1 13.7704527942 29.9152177319 33.4088990537
6740 1 7.8339626191 3.7422858801 42.3831287229
6741 1 11.4786882045 60.1329072107 57.3699851758
6742 1 35.0734875982 20.2190655383 30.909499808
6743 1 50.9612256449 41.1530630986 12.7329817734
6744 1 41.9687372349 4.8219609271 46.0143358174
6745 1 35.2003624388 41.7874958229 57.154450103
6746 1 54.167741449 4.4458718299 59.3002618089
6747 1 16.7267887351 42.3472549787 38.7755058353
6748 1 10.6063066325 10.4028855321 18.9009834195
6749 1 46.6931864402 26.4372202004 21.210889707
6750 1 38.7457183381 59.7662693528 27.4695998415
6751 1 36.2651630493 24.4086272702 15.1587023179
6752 1 44.9369530617 44.1304668174 57.4018794507
6753 1 24.3087894113 51.3904230991 26.642982165
6754 1 18.8867041478 58.0666848883 50.6224440712
6755 1 13.085867054 49.9763070258 49.1107724816
6756 1 36.0006453928 4.7854961148 60.9345946834
6757 1 23.3874837772 6.5945335379 43.7946698455
6758 1 32.2511076121 59.4701500294 22.9119372116
6759 1 28.5276119459 13.4636825386 54.684604268
6760 1 23.5821266369 12.2627021522 4.742160866
6761 1 10.0019540134 52.1365735681 10.5470242462
6762 1 46.593407103 9.8419559441 58.0134302273
6763 1 37.3571762064 29.8835575434 20.595535026
6764 1 61.2651832324 9.6878685571 33.8141026496
6765 1 21.1741381388 60.2733590637 20.5504733898
6766 1 4.9500764257 47.477200388 8.0287342262
6767 1 53.0630876251 28.2249382026 23.6202827236
6768 1 43.1423880315 10.0775639276 44.8330186904
6769 1 11.7401627375 39.4760679738 60.1409246707
6770 1 29.0033340763 17.7704045245 8.3270598142
6771 1 51.9895672953 52.5964948651 6.7416158888
6772 1 18.0126839709 3.3084903834 48.3470655309
6773 1 46.9269217323 54.6195282428 49.9077782258
6774 1 58.3461840757 48.6581078637 22.1117127791
6775 1 52.585083152 5.683112203 20.6937342799
6776 1 9.4224145549 19.7969491985 25.5163827391
6777 1 61.5847111979 28.1273241648 29.6530994612
6778 1 22.945996786 6.5448369906 35.4357363357
6779 1 60.2799720052 59.3106786546 31.6455260393
6780 1 40.5294568713 23.6936688168 15.0256827088
6781 1 36.6670894353 3.5706823913 17.9416972635
6782 1 37.5816650848 11.0637115004 14.288544567
6783 1 37.5351404085 61.2209994203 50.5922469228
6784 1 41.6319453957 54.3746153241 25.3800273985
6785 1 18.0920392678 44.9941871918 30.2947888646
6786 1 29.0541308298 47.6074109601 61.6385510749
6787 1 42.6276319903 6.1358587512 38.542999497
6788 1 54.1768122978 7.299894448 8.0843999773
6789 1 41.502729691 47.7334664981 15.8884082159
6790 1 12.24257072 9.0845634747 5.3497848429
6791 1 26.3894080487 57.2709666194 9.2116782538
6792 1 35.1112340337 15.6020620006 21.4274781686
6793 1 50.2921481302 50.8524925021 58.5947838556
6794 1 45.713768852 16.875550656 15.9228774415
6795 1 3.6963165738 7.7404860587 4.5379380196
6796 1 12.5514477534 44.5511201171 6.6465241322
6797 1 31.3025894315 29.4126927062 35.8040713202
6798 1 58.063758808 36.931138919 28.0809750533
6799 1 18.1986656329 24.8322651718 22.891864301
6800 1 38.7168086651 27.6286030434 8.9118135476
6801 1 43.0489875493 46.5588208342 21.263383587
6802 1 19.3188862038 32.472553367 55.1926888462
6803 1 20.2900522457 31.6663012092 35.9492049017
6804 1 29.9558317261 12.9895404915 11.7864533273
6805 1 54.6115693044 49.6391640569 4.8706450507
6806 1 48.959143002 37.3692901787 54.2750700733
6807 1 47.2537063769 47.409724977 54.8882009332
6808 1 28.1273826864 4.7153170056 58.1885853924
6809 1 7.7209398425 17.7633819318 54.7586340989
6810 1 42.8532327792 36.9093688818 41.913258753
6811 1 31.5677508257 29.9153347751 25.0492632847
6812 1 49.2252992634 46.4033289286 18.1723309105
6813 1 43.7991760091 28.0681003001 19.4708668131
6814 1 13.9142989003 23.5950599117 6.2119719512
6815 1 59.476587406 16.8507374953 4.9731456426
6816 1 50.0232413533 52.8066459502 45.3274677346
6817 1 26.601899998 20.4166929998 17.7714579134
6818 1 13.8057998439 28.9846656842 6.7258560205
6819 1 7.8300650801 35.9628989573 41.81254307
6820 1 49.3878722833 47.4492270606 4.328787654
6821 1 38.4167098725 48.9691501965 18.3731185387
6822 1 15.5741471948 56.1980900273 41.0694357245
6823 1 37.4447245281 57.9501098503 52.6542556897
6824 1 20.6874724681 39.7547478588 45.6867903919
6825 1 19.010067692 16.6593718456 23.8056791696
6826 1 45.4788631278 48.2864371477 45.6042164066
6827 1 24.2917011025 55.8630538363 17.0790887997
6828 1 38.7470058135 39.7930209887 60.3545870521
6829 1 41.2496237475 29.7386580484 13.7536570934
6830 1 51.9052376619 31.7012386076 46.9168560161
6831 1 43.6834202736 35.0525953851 47.4229508598
6832 1 26.0763759814 11.6513269404 19.9348846224
6833 1 59.2780235988 50.5679019349 28.2406219929
6834 1 49.4726115679 58.6696915105 40.3751353978
6835 1 9.0112066423 12.452429197 3.2972919231
6836 1 46.2270033315 30.3126964759 32.4081210795
6837 1 7.8620003202 30.1930197928 56.367802683
6838 1 50.1270586813 4.3120329183 41.6049669356
6839 1 20.1093960498 13.2352141911 21.1567572219
6840 1 35.0004526346 55.3655616686 7.5215157677
6841 1 5.8873818667 26.8377420678 50.1332034499
6842 1 51.8616390659 23.3108789958 41.2811083712
6843 1 60.3441116847 6.4895106649 25.8800945168
6844 1 39.5258113384 55.8654532221 26.569420507
6845 1 31.8838845382 18.2495794296 8.3368738874
6846 1 59.0133303775 35.7960538603 13.3030407317
6847 1 9.397776959 21.0155445881 43.8669440282
6848 1 59.628158364 43.1462504575 28.5846119895
6849 1 38.2669530842 21.0584409248 55.2155122723
6850 1 19.4523154642 21.6792966367 21.4131988969
6851 1 56.3681538126 24.3459506308 57.1124901119
6852 1 49.8304126634 28.5335811496 19.6155907433
6853 1 17.8554364171 23.3770084099 56.2409863641
6854 1 48.7554878151 42.2898452838 31.9378414583
6855 1 41.0553905392 20.8114212284 8.802395702
6856 1 16.5264692797 31.1051375349 30.5195703511
6857 1 15.9276176915 13.7147987475 14.8748725316
6858 1 11.2974467925 23.4594653519 49.8974199017
6859 1 60.3510172341 22.071684001 29.2477203005
6860 1 49.0928063488 11.1554148561 44.3105963189
6861 1 33.4549555572 40.3581641322 21.5736066173
6862 1 16.674587463 29.591885862 35.8604276263
6863 1 42.8813816714 12.0812851754 14.5998209862
6864 1 34.7475807776 49.9785308468 53.3400703835
6865 1 50.6761083833 24.0703138693 44.7642558041
6866 1 25.0953783097 28.922398696 30.1356100979
6867 1 27.4830012892 44.4410409774 60.1531556862
6868 1 46.7667480982 53.8839701843 43.6320968257
6869 1 16.3987751367 35.1176714103 8.9581509548
6870 1 59.0319987696 47.9677870062 36.019606393
6871 1 51.6266748201 30.7314770843 60.8221746794
6872 1 14.5282490628 21.0110969461 12.4473378173
6873 1 10.5148958848 30.8908314158 40.958712847
6874 1 58.7063845571 29.4018076876 14.278303286
6875 1 58.8942389105 14.591686483 14.0102158116
6876 1 22.3540507472 34.1145525718 11.6256944773
6877 1 23.1287012381 37.935954884 60.0520303521
6878 1 47.2790462321 45.4304657601 4.9662166845
6879 1 58.7392736993 32.2561404702 60.4386825991
6880 1 46.1202014016 27.7077827756 52.454579972
6881 1 3.6093698542 26.2849469831 33.3692214052
6882 1 52.9873606677 33.4946332057 41.7764937611
6883 1 26.0929961173 53.8178407702 54.2032055418
6884 1 51.0813119792 47.5222620242 50.0856253847
6885 1 21.2971505533 52.5346960498 54.8541998805
6886 1 7.1556562472 16.2400060212 50.5127745826
6887 1 26.0310802588 11.3948267439 3.4915430391
6888 1 55.9390734017 9.6811385725 53.8766549836
6889 1 11.4442775005 37.6379628692 28.2804166846
6890 1 8.1168385032 36.5684805302 5.4523146956
6891 1 21.7468305694 10.5821372095 9.1741073831
6892 1 52.8256654719 58.7179133134 19.1598830019
6893 1 9.4074330239 36.5942300366 58.5419973675
6894 1 9.1681381794 22.6888528518 25.779203269
6895 1 33.2273650337 59.6162784781 57.5990387394
6896 1 25.1324810076 12.8992416544 45.7012452284
6897 1 48.974709749 42.1667743476 25.5059658934
6898 1 47.5601840245 6.9391263071 39.655495216
6899 1 5.6776696937 8.5737576418 40.4079660184
6900 1 16.5041140265 18.5019831138 26.7039616778
6901 1 11.0217515094 61.2257396703 61.3026370598
6902 1 55.2300841521 21.0552222365 56.7753471431
6903 1 29.8009835581 28.7784940683 14.2910024744
6904 1 22.9591641472 43.9955745169 61.2686945287
6905 1 37.0603546237 39.2547977837 16.5732865641
6906 1 56.5169157336 50.2167723024 42.6463003824
6907 1 16.3229896577 47.7187775752 59.8375486682
6908 1 47.7162611461 31.331440583 49.7319208015
6909 1 32.1503919292 35.4633000119 36.0926998782
6910 1 3.6362979858 30.5037695176 31.1080050935
6911 1 33.4712830851 16.3419506578 55.702763159
6912 1 6.6695465318 4.4455499611 56.1120047457
6913 1 35.3549179987 51.3382803486 33.189208947
6914 1 27.5653997096 42.2714694997 34.8238929511
6915 1 39.1138192362 13.2475037282 59.4738368905
6916 1 54.3754346266 40.3613242989 27.854554962
6917 1 9.6130779454 52.5065471576 43.6560321623
6918 1 46.8531259878 37.7396734194 60.9974468876
6919 1 50.3278463095 3.8435030932 20.239431057
6920 1 12.4706879379 58.420155385 13.1179368938
6921 1 43.7233905301 8.2874582438 23.1553285686
6922 1 45.5460459308 10.7371609422 47.5338493021
6923 1 26.5626905224 54.0035883458 28.3552658179
6924 1 22.6841711233 59.6129427466 22.7574401733
6925 1 53.8900564312 6.8596071497 16.427801853
6926 1 53.4814585822 52.7479487799 31.4230854171
6927 1 46.5498670286 34.3033432709 22.7273600681
6928 1 49.726068641 57.8224157073 31.9052449241
6929 1 34.3970948828 3.5810459824 14.442631954
6930 1 3.5940664544 17.7794753733 54.4928874887
6931 1 27.9416351108 11.2373451037 34.2187795511
6932 1 58.5776955468 22.0372732971 59.5469303757
6933 1 58.5686832195 6.2260639537 10.2547673488
6934 1 44.3504495322 18.1790608951 48.7592917195
6935 1 24.9837190866 56.2969915405 14.2742652952
6936 1 27.7119378096 61.5585520403 4.6081463896
6937 1 45.2185005053 15.9575807535 31.8557356459
6938 1 55.9069450404 60.5843428749 32.3935491997
6939 1 12.9202509107 15.1952197997 43.5002476487
6940 1 30.0778492734 53.1065691779 13.8859159217
6941 1 40.8444786732 40.9656183964 54.8924144888
6942 1 23.2484364428 12.9585825622 8.675321888
6943 1 52.8213933947 38.5260282314 26.5925365411
6944 1 14.4880447198 54.620230502 32.1051547282
6945 1 16.6407619751 16.9818844131 54.8529709268
6946 1 46.6196833038 7.7045830538 20.6850145607
6947 1 5.4207188808 50.5533300552 8.2061015079
6948 1 26.2428114272 61.2265004512 57.739549114
6949 1 44.1654627374 60.9726337269 24.1961938425
6950 1 49.5089534849 61.4882090706 24.8654469221
6951 1 28.1321814581 7.7044367498 29.5920029052
6952 1 42.941951533 42.0179539051 13.6232709566
6953 1 48.8144775934 39.136993792 52.2216054608
6954 1 49.5737954237 54.4362385746 48.8009591026
6955 1 34.4151780589 53.3355056983 43.1818315936
6956 1 57.4274533923 35.5881851179 31.9851854371
6957 1 23.7139172923 54.7985458337 21.3702440385
6958 1 8.7981411813 13.9549714161 33.3095878893
6959 1 52.4969496143 22.0420135471 5.7913245036
6960 1 60.7526510121 24.4128993474 26.3248001964
6961 1 46.3933217341 6.9509769322 47.1909126943
6962 1 40.8239375897 50.7743661588 43.2477269213
6963 1 34.8200305251 47.2031437098 56.3103344665
6964 1 37.4703569913 42.6608137406 11.1181365935
6965 1 7.6766331351 21.7683079986 31.7205507374
6966 1 57.7921015157 39.4474509087 11.0741868678
6967 1 25.0218751733 5.6980000994 41.4389411411
6968 1 20.3666570272 33.8709856501 30.019912884
6969 1 54.3694654228 57.4007675402 27.0988654712
6970 1 10.8429680048 6.2943059978 50.9261126817
6971 1 28.5804569556 46.0658348302 45.3990981796
6972 1 10.819208233 38.7472984215 57.4146371607
6973 1 23.0833469939 51.601920181 10.0015443621
6974 1 21.1458136817 32.4873008116 44.7163266092
6975 1 30.395446026 39.0418961832 11.3913154476
6976 1 54.2397815452 61.2813937171 30.1089827674
6977 1 45.6134628203 48.1408939151 22.8449299734
6978 1 10.1503648047 38.5546452965 41.6630788898
6979 1 47.9752777717 49.1066759693 31.9822008353
6980 1 48.8475423005 30.741016106 35.7866318818
6981 1 33.1576072801 57.7640111451 44.6316458462
6982 1 41.4588384869 29.3973600456 44.4962853729
6983 1 9.475786259 40.8450053677 12.0411393541
6984 1 37.2812736842 22.1212518008 14.0830752103
6985 1 21.5866569353 35.0817391446 50.9389289133
6986 1 15.7375980387 18.3160014518 42.7646895902
6987 1 40.7692784103 36.6636366606 11.8423414605
6988 1 47.1942484258 23.4163934503 22.8754782514
6989 1 29.3198189184 59.6701183551 52.3384145852
6990 1 44.8101952643 42.3848258494 20.6874139465
6991 1 57.9958152241 11.0642381949 36.1710603078
6992 1 61.6147913031 15.2297475469 44.8446059683
6993 1 12.4341704561 34.6419492799 57.2609594249
6994 1 14.8515809327 51.6502005055 30.0616973103
6995 1 51.7297313673 56.9296686166 21.0231523968
6996 1 59.6501039661 44.3911220479 16.4513275384
6997 1 58.6878917298 20.3371621381 24.6745494452
6998 1 33.5652102618 12.7931419837 9.5701816086
6999 1 12.5141694907 56.114638218 3.8858083617
7000 1 50.8552430175 27.359930353 30.0066870012
7001 1 27.5900373055 20.321302783 51.3840442441
7002 1 6.8593964719 43.8777705252 34.9660419307
7003 1 7.6839132228 37.2876525392 25.6432575797
7004 1 4.2283002053 54.8995541247 55.1570491885
7005 1 13.7695749701 48.8804899643 33.2487254197
7006 1 45.5944432985 55.1930984975 41.2926371275
7007 1 50.7432326647 51.8855158809 18.8350880918
7008 1 55.9496072907 48.3994423678 61.1423463826
7009 1 44.0533938631 18.160977719 20.1694977386
7010 1 58.5076451851 12.4942136233 61.4653856445
7011 1 48.8481275165 43.1032370775 28.20041765
7012 1 45.7889105933 51.5909181192 13.4386352915
7013 1 45.2205487615 19.4496819919 36.2861137841
7014 1 12.3478510881 36.7067670838 59.2180389533
7015 1 7.8756007413 29.2627018315 18.0913370086
7016 1 27.9236104564 21.9862424571 29.1774358524
7017 1 7.7323339991 24.7500423162 27.3177947971
7018 1 53.1238915731 32.9412529048 25.7915513278
7019 1 28.7956408987 61.6191219019 46.7908589997
7020 1 19.8085949979 38.7674883754 52.3314505142
7021 1 28.2907750087 20.5100349605 15.4444633172
7022 1 40.7747794412 39.7110907411 58.2354611983
7023 1 8.346483135 55.7660835361 30.3321256489
7024 1 57.9705338906 31.8705416121 15.0440584929
7025 1 49.0011615147 7.5329099243 56.1384565114
7026 1 55.4757578516 13.6270748609 26.2662785909
7027 1 27.2448183551 51.2912289779 41.2698137014
7028 1 50.4700538107 56.4076558963 5.5722196129
7029 1 15.4432343635 36.5296221842 35.8518249503
7030 1 46.8758908924 41.7746210697 13.5930152866
7031 1 26.3039079832 39.2945339538 11.2138194183
7032 1 60.8391459449 17.5180008403 28.360298676
7033 1 59.5813410797 29.7484896781 51.94052619
7034 1 12.0901804595 46.5883157233 32.5170297872
7035 1 53.8518418229 21.7875616067 14.7603457498
7036 1 43.769388512 48.6314805333 17.4642780065
7037 1 51.3914179664 58.4739367404 51.2592176597
7038 1 8.4720880567 13.3613282507 24.3602884241
7039 1 45.5132738318 20.0403405554 55.4786254103
7040 1 19.3771152012 34.7935787595 39.6372364751
7041 1 10.2733186977 53.4605078475 22.2574315766
7042 1 23.9718220073 51.9089245231 53.9829887407
7043 1 55.5137383736 10.1632980795 25.4640059023
7044 1 46.3620126752 17.8508717319 27.1483747494
7045 1 6.3623081033 49.3983476507 30.5322695394
7046 1 39.3112711329 25.2751566816 33.4114740044
7047 1 17.5270716892 22.0592188991 46.7510057864
7048 1 25.8485513715 11.2348286747 49.6417975292
7049 1 27.589218003 57.8536662446 18.9508438273
7050 1 18.8354392215 29.0339408759 61.2939758622
7051 1 51.5955998477 3.0928593353 39.4250371338
7052 1 44.9034201818 26.3007478165 9.9571264636
7053 1 46.8988898833 44.470009172 8.6484546189
7054 1 46.8925110283 47.0173961343 7.4753071081
7055 1 31.0598418123 18.1794120247 14.8467236394
7056 1 49.762410558 21.7362381588 38.2638514391
7057 1 7.9192520068 58.8897912685 18.5638989723
7058 1 37.2942654806 51.4818923683 18.2179777627
7059 1 31.5789869739 59.1867298944 38.5901679109
7060 1 46.9764310105 60.0101288826 41.3008301523
7061 1 14.90032943 16.5348378693 8.3306413364
7062 1 25.1090723654 49.0115198388 43.4104169844
7063 1 42.1269211343 7.5795867568 25.4869463716
7064 1 5.8933920356 6.22315543 28.1973745265
7065 1 13.7845565011 21.2121186607 35.4695618237
7066 1 38.8204504283 23.57750343 47.1762237714
7067 1 38.6141617692 10.5015529588 7.8649849221
7068 1 20.2720861129 46.3751215148 24.1981835771
7069 1 35.9377931886 35.9200026206 50.7887039522
7070 1 20.6932075854 57.6623005948 14.9902771375
7071 1 27.1477895333 43.6083370539 45.7877986828
7072 1 35.9478589048 56.5694681353 10.1382508324
7073 1 4.6023820114 24.737167563 48.6346992216
7074 1 52.4253191693 34.6099964833 44.2012194384
7075 1 7.8349340777 44.4286929186 58.5188813333
7076 1 19.8449954365 45.6107708264 13.5600091011
7077 1 55.5158451513 13.5277051749 41.5406516913
7078 1 57.5171670134 42.6651443394 17.5184104915
7079 1 60.179139279 28.0636526581 59.234249438
7080 1 9.7479702458 12.4032125268 58.2585187108
7081 1 6.8672559235 35.5311850742 39.1571252242
7082 1 53.6061096018 60.4548345621 21.2009995556
7083 1 4.3760789633 8.7936818349 57.6132594895
7084 1 36.2410521479 59.3978173251 45.9476797088
7085 1 58.6071319143 56.3726599763 4.6884614408
7086 1 23.9694811431 23.9408640781 51.8445507571
7087 1 40.727201376 15.0112278723 9.9926490781
7088 1 4.9165728066 21.9286571974 5.3500189293
7089 1 45.5842605392 28.6697609254 11.3115504994
7090 1 24.8427990608 8.1503479744 15.7789142921
7091 1 27.4379981746 57.471988334 48.8157650687
7092 1 7.0913878201 27.964751145 47.8075548506
7093 1 43.5080310222 31.2694076813 61.3858547827
7094 1 4.0032261109 36.1466567984 6.1154639717
7095 1 11.5452272698 42.5566452829 48.9733052305
7096 1 22.9353458538 38.2285629111 46.6456668966
7097 1 29.8049630273 34.8734022293 17.6743120484
7098 1 36.2903273397 13.9292804313 46.4751934601
7099 1 21.9602003427 30.4244142206 19.5449551655
7100 1 47.2623675745 27.6733720716 4.8786917714
7101 1 28.8280618681 4.067131704 42.2436132155
7102 1 14.1543545257 42.3416954262 5.4955972749
7103 1 55.1046723517 4.160707751 20.3818726446
7104 1 24.6239282565 45.9507813539 39.325491883
7105 1 9.8917578304 51.7185537406 6.8089274394
7106 1 58.1700340434 38.8634638082 25.8245575132
7107 1 14.8305716763 44.8036408445 13.1409358847
7108 1 24.1426465735 27.8225436438 6.5285270192
7109 1 6.3878001146 57.6608375547 46.2785023443
7110 1 12.7174735479 57.5609996959 56.7607752634
7111 1 18.4694451012 52.8578523549 10.3549563372
7112 1 33.2357336233 21.1530118392 51.2952669687
7113 1 24.9830168273 56.6952310653 19.731463522
7114 1 51.0330316548 48.5213428719 54.6949040706
7115 1 45.8259547696 50.7235108837 24.2926959698
7116 1 16.3140358521 19.9763764407 56.728646902
7117 1 8.6130900128 47.4668420639 5.4776194377
7118 1 31.1799866682 44.8690679994 10.9343202309
7119 1 29.4654206727 46.2041799054 15.4853699194
7120 1 15.2603543465 29.8610267253 46.4695168643
7121 1 36.9675978791 43.1924240042 8.1269159236
7122 1 61.381816792 6.0093467446 23.2807988906
7123 1 8.4882809849 38.6253979174 45.1071924118
7124 1 10.5989914318 14.0445094724 19.8620837453
7125 1 22.89438073 34.1200536028 24.6650104235
7126 1 59.8295897299 42.5938065024 37.1257817786
7127 1 51.6776471384 20.2926271964 58.5590856763
7128 1 7.9021285851 45.2884338238 30.7582799796
7129 1 46.3134982643 34.0018399598 27.3807055229
7130 1 15.2959354826 56.3151917597 19.538810397
7131 1 58.344077298 24.2426599972 46.1433174357
7132 1 46.8303025617 14.4488352442 33.4316054366
7133 1 4.0468012983 40.7149118388 39.7225024542
7134 1 50.9543786171 29.6717093318 56.8637732889
7135 1 56.0571114799 13.8208398965 17.426531571
7136 1 54.6214594558 18.9515460866 52.3892113387
7137 1 9.7448100792 4.5025792656 29.2491248191
7138 1 15.6732827943 21.8840637341 4.7384096311
7139 1 20.8024089011 25.906312196 60.6903255023
7140 1 47.053913616 31.4301665314 26.4610384938
7141 1 6.2345378822 59.7229048432 16.3357473677
7142 1 7.6537102222 38.5980098061 59.5440042954
7143 1 22.4583947696 43.4611552163 40.8766655562
7144 1 45.219436851 29.7138448877 44.7019888159
7145 1 60.8265637998 22.1482302609 33.1931298945
7146 1 26.5234225251 14.5723158316 52.8186428793
7147 1 43.1821827232 31.1520718624 15.1020534039
7148 1 36.2303426941 24.7926460449 47.6752960224
7149 1 32.7559735021 56.3715480658 40.8871409236
7150 1 46.1726952817 36.9641451044 33.4598128504
7151 1 23.9806002481 18.3920795388 3.8061709907
7152 1 6.3586270943 53.5894894658 61.1647016359
7153 1 6.8071717912 49.0744890863 35.52082675
7154 1 39.0774187977 8.687277852 10.1928514902
7155 1 14.3453105242 7.9557402278 60.5794855817
7156 1 20.6501356839 34.6285478322 23.1212689942
7157 1 6.1640837214 14.6488035699 34.1008585162
7158 1 41.1079429408 30.8581178384 49.225357785
7159 1 55.938137056 7.5992149033 46.3348001287
7160 1 31.482718933 38.8430982896 17.8053419229
7161 1 60.5736919427 7.0936994235 32.9816328126
7162 1 42.0593286801 11.0336899169 42.2734007127
7163 1 26.2767539583 59.1923479685 7.1869887147
7164 1 31.9313455601 50.3982478008 4.7693031866
7165 1 30.5810180367 6.5018704279 61.1560404383
7166 1 54.7053794379 50.6591956394 8.7006441867
7167 1 18.6347686365 13.8977958076 54.1745884768
7168 1 22.0935710815 8.9185084193 50.1003728292
7169 1 32.2080942322 36.9838668855 33.6103889412
7170 1 20.251603551 51.417577124 21.5141486662
7171 1 7.6671936001 6.7873856364 16.1503509217
7172 1 5.3219110022 45.0235650377 42.8363200352
7173 1 57.903585174 36.8940947427 47.5076316228
7174 1 20.3598099994 36.235258509 10.3501575656
7175 1 31.5914520759 59.0110480349 35.7495877056
7176 1 46.6360108317 43.4911767998 53.0533730386
7177 1 17.196951313 45.4359667911 32.817245623
7178 1 33.6298181142 6.7283256322 54.3663052561
7179 1 33.0785445911 12.4579887495 3.8823146219
7180 1 28.7995618462 33.1738177648 50.3681676956
7181 1 10.4057530907 30.3814008407 38.2872015597
7182 1 47.0488222364 50.7878846497 9.1958188987
7183 1 4.9000111923 12.936227309 25.1193136464
7184 1 14.6842091412 33.1527499868 40.6713132428
7185 1 49.3083414215 31.2897732 19.4084242601
7186 1 30.9172246599 26.6875756283 36.6896202534
7187 1 14.1917498316 44.787547403 8.7466129077
7188 1 40.9248288375 7.5417876519 22.7974689514
7189 1 59.7221440623 26.3296574896 38.843332376
7190 1 15.8711443423 28.8064673957 31.7307920184
7191 1 6.7999560773 28.5939754464 60.0643784108
7192 1 7.3478938688 60.1938867236 3.0023100256
7193 1 19.3407147626 49.7643417709 33.1303362119
7194 1 36.6046468823 44.6093491145 54.4309716301
7195 1 38.1481542252 6.808365632 16.4993152548
7196 1 61.527301503 27.6163720279 22.9011107146
7197 1 25.8776366094 37.53847614 4.2613005386
7198 1 38.6153907229 33.6120275461 4.6877416251
7199 1 60.153331251 20.6713790266 17.4315059075
7200 1 32.6276356214 59.1384495699 8.1612271409
7201 1 39.8178341494 36.8726173136 58.1310001326
7202 1 20.9972858472 44.2924546212 34.9554495201
7203 1 11.1142741675 28.8352600255 13.0768547268
7204 1 38.4775723421 5.5715115015 31.8489471397
7205 1 28.6596366877 26.6550376157 21.9202886078
7206 1 51.9203947577 39.6625178086 38.9067112746
7207 1 34.7724524599 38.1195371602 46.7745314718
7208 1 47.3393820073 22.3913875314 19.0731539827
7209 1 5.0691327798 14.2483987456 37.585644554
7210 1 35.6527929702 56.6524517718 45.5901126997
7211 1 5.1709018516 4.4584598272 5.8634699387
7212 1 45.8138993188 36.2124350828 9.3290725943
7213 1 26.7717882185 47.5813103241 55.812081518
7214 1 23.1009034755 34.6709174745 47.3558851
7215 1 17.3687122249 13.2176577094 50.7061299669
7216 1 8.0553674088 16.1858735362 46.563444041
7217 1 17.9934888843 20.7560012681 60.871918044
7218 1 59.4829077394 49.4243897651 40.7953790463
7219 1 57.8722761151 34.1802138131 37.8593501025
7220 1 38.6311330347 8.0658193676 52.665023665
7221 1 19.3322876515 32.0124565053 39.3553379018
7222 1 17.1491391614 47.5426275429 7.9783705326
7223 1 29.1206698952 45.4045406889 50.2751768646
7224 1 15.569816596 49.9599794978 16.8395013471
7225 1 49.9686406954 19.2549806107 21.2585262938
7226 1 19.985973984 55.1867196425 5.5987650131
7227 1 28.7560217718 39.2922516111 17.3075571472
7228 1 43.6495362641 36.7272496457 5.7558955237
7229 1 27.3754971 26.8577564569 59.6374632993
7230 1 46.4993043615 13.9397557987 13.707893198
7231 1 35.2172166611 33.7907525291 53.585158867
7232 1 53.5687142959 46.8274935247 33.8616807148
7233 1 36.231103475 39.7493638711 5.3593531254
7234 1 46.8825038338 8.1252070927 10.3227109326
7235 1 2.9154862014 8.0616409249 16.8952139155
7236 1 25.9781767275 39.8581555355 35.2966304797
7237 1 5.6416906107 33.3441156365 4.2138629252
7238 1 44.8156377736 48.1094092913 61.3806463598
7239 1 5.0690859625 40.2857729063 34.1196439515
7240 1 43.4631449508 57.4971526244 59.0002215379
7241 1 39.1612217366 11.2065627393 39.0343468961
7242 1 49.9524887324 7.4083115742 5.7864672103
7243 1 42.6677778116 45.2940518979 18.8336250517
7244 1 48.3805398892 32.364581005 4.2954303389
7245 1 41.7455358318 11.7821812501 19.3308831329
7246 1 18.8026671224 46.3291235329 51.4827116708
7247 1 56.9740279935 59.2142935705 16.2608982343
7248 1 19.0842730877 6.0356990235 45.4782193902
7249 1 34.2604469341 4.9374299068 5.8426011342
7250 1 58.5570959417 51.009857099 60.693193061
7251 1 55.0258437492 16.3726159791 22.6814791295
7252 1 23.5133637505 14.3748054133 17.345713234
7253 1 45.0215167815 32.2595932449 29.220215146
7254 1 32.0406053975 45.3137151573 59.3830698805
7255 1 39.7273597474 56.6219620153 20.0155273947
7256 1 52.8367260553 25.253445166 30.5115528911
7257 1 30.7394360226 41.174657571 28.7808934541
7258 1 59.8103946433 23.270499088 51.9662756964
7259 1 39.6891451391 16.7562251026 12.2364259514
7260 1 26.5161073245 54.5706041806 18.5249235831
7261 1 16.1700141811 27.7146298034 14.2828094496
7262 1 20.9381790257 54.3786533149 30.5824225553
7263 1 9.9872065688 15.8045467553 24.5617197899
7264 1 55.6871378904 48.3677236576 20.7046778201
7265 1 12.7267199616 9.5175121637 14.0129078054
7266 1 3.4845731159 52.8081675119 47.8322509681
7267 1 46.0784754969 18.076589564 30.0408050971
7268 1 20.5864641772 28.6375740424 27.3071438649
7269 1 31.6539531505 46.6332017947 35.9737254543
7270 1 61.1985856454 35.2339538403 49.6478837762
7271 1 17.2493866714 27.4578369988 11.6978516167
7272 1 15.2957599178 57.4165683737 31.318097657
7273 1 5.6423167919 46.1625710439 59.0114576861
7274 1 44.4075666191 44.3804125941 10.0490639057
7275 1 43.9821145477 40.1261259667 8.7082812562
7276 1 16.5392855113 50.5713547096 60.5847525262
7277 1 9.9746244236 19.4793524459 16.2473797435
7278 1 43.047992682 17.5814382606 56.4017452142
7279 1 58.8662070615 8.5146566725 43.8757807906
7280 1 57.2556924804 46.6961710421 59.1746744436
7281 1 4.0373676155 26.1747508001 27.7905323256
7282 1 24.042164977 6.7074977929 38.1079498823
7283 1 7.7706305377 55.8136030797 54.6512469529
7284 1 39.8993547457 47.4674858015 49.7509403233
7285 1 23.812292111 33.2268968609 27.1431663265
7286 1 13.8745627302 47.7413083933 61.5048292065
7287 1 28.4043654449 21.6351128246 39.1241775604
7288 1 33.1080980019 44.3008817324 45.0175958339
7289 1 53.4639606222 55.3220215942 52.7863974747
7290 1 27.5579089441 40.7812753394 5.8362281314
7291 1 29.1887890439 14.0775741794 8.0848447415
7292 1 50.345870964 38.0940802618 58.9037779322
7293 1 61.4130673292 18.4055395081 3.7758591399
7294 1 58.4510547927 15.0753090302 51.1932638104
7295 1 6.5170099672 40.2181219304 50.9784895185
7296 1 28.334490648 35.3096807977 15.3690874894
7297 1 37.9209148314 45.8544547914 28.6893656632
7298 1 53.9355277187 51.355719787 47.0942350022
7299 1 37.4231885773 17.2799934711 3.1885722402
7300 1 8.392486969 10.7512646491 21.7009496307
7301 1 15.9044431357 60.7542896171 39.1198469616
7302 1 45.0231553864 19.4943924985 25.3002624503
7303 1 10.8055141773 59.9832089441 16.1257718474
7304 1 7.1076275656 20.2368561064 34.1710844427
7305 1 17.6053735972 26.3736657369 31.4765741644
7306 1 38.9877636982 30.8083744738 22.9941600672
7307 1 45.7523345899 24.9682693828 42.7084503274
7308 1 11.2082598658 43.3895832928 30.458473795
7309 1 43.4420771729 26.912766766 48.052058118
7310 1 21.1056093388 17.4899689913 60.5625728377
7311 1 61.0278196008 54.7575221883 6.8172023944
7312 1 31.2816972184 21.3370622882 61.2528936952
7313 1 55.1654762997 53.611259503 16.5625771103
7314 1 5.628651997 42.140907798 53.8281405727
7315 1 12.8316492001 12.9441277257 51.7168566141
7316 1 22.1386912392 13.4317882637 60.9537897699
7317 1 14.7999063551 51.2273819064 22.8632472359
7318 1 30.1497723264 14.1757734333 34.2267384894
7319 1 50.7551710723 43.6580218969 44.1934945864
7320 1 47.3325349794 37.8823490934 18.0205843876
7321 1 7.9557402278 43.3181284126 39.8342787205
7322 1 21.8775093143 56.1077326685 39.9197202644
7323 1 32.48250204 7.8545856328 52.0702685892
7324 1 50.476374144 25.7958819266 18.6159832012
7325 1 27.3101284668 11.8711340904 7.9287208026
7326 1 44.9861112102 11.923101276 36.7478492508
7327 1 59.4837270419 51.5467928287 48.1407768718
7328 1 26.3973084655 17.9819016065 31.1253274887
7329 1 43.6951245947 38.1019806786 32.8444581695
7330 1 7.3658073322 44.0044698009 18.3885097209
7331 1 5.0731122489 16.1382369494 41.3898415141
7332 1 35.5404900094 49.9830370104 41.7921190298
7333 1 39.3896900842 18.4971258205 55.5191223613
7334 1 21.5205860428 9.6176426306 54.0083285958
7335 1 38.9923283834 39.8613742238 4.6680256962
7336 1 46.2632867268 39.8551709336 59.3521119513
7337 1 32.2149997816 32.1025797776 30.7933929428
7338 1 20.5972321526 22.2320917215 55.6580526525
7339 1 39.2364805212 41.8505821136 35.9351011948
7340 1 50.2811460684 52.3409310142 39.9351114466
7341 1 45.6979680185 5.9939145972 44.4892627802
7342 1 36.2414617991 41.749807909 46.5928218869
7343 1 14.9594947731 18.1619140647 45.4642912481
7344 1 16.4892495387 44.6978923035 51.6956717929
7345 1 56.5144578262 26.1062220001 59.459089446
7346 1 49.7858192001 58.6301894268 22.1220125817
7347 1 3.939876473 49.3038352579 20.6544662827
7348 1 57.6560387831 39.2168172618 51.1264906586
7349 1 28.1952092271 47.6681563865 19.2766336047
7350 1 60.1389934577 27.7504450259 35.0071826193
7351 1 32.0091792953 26.3890569191 14.0291182901
7352 1 60.2220356158 32.7774509313 37.5548621895
7353 1 36.9852128824 27.7700497637 6.8050591613
7354 1 45.9254414988 22.7257214632 58.9620069296
7355 1 59.0382020598 13.4279258377 32.8947282285
7356 1 20.709593635 59.6402723363 24.8789068913
7357 1 45.7525686764 42.2415064377 3.4551847361
7358 1 19.1219610016 12.6866911835 23.8805283029
7359 1 23.9643897634 15.7370128226 51.8659696647
7360 1 36.6121376478 47.7038545658 43.574804174
7361 1 28.6932866108 38.5417705433 49.795475265
7362 1 33.8732094711 20.225795523 14.8367749665
7363 1 58.5717848646 23.7909902466 43.0991990867
7364 1 20.8362343891 5.9827135619 15.9188394507
7365 1 24.3040491613 46.6624625974 61.5929042227
7366 1 26.8323580801 60.9000669362 31.5095803499
7367 1 8.253164583 44.5120862063 25.2668466136
7368 1 43.0888407626 40.1155335561 4.8006590628
7369 1 43.1720584855 14.3045794868 24.5375503669
7370 1 36.7947835784 59.0185388004 37.7781806358
7371 1 23.3578718449 3.7853729973 49.5814032324
7372 1 26.3287211439 17.151714112 16.4241149919
7373 1 57.5697779367 36.5060379772 51.5590238443
7374 1 54.2269653136 25.9019230756 34.8697738898
7375 1 10.789245171 14.1784069056 31.3000730025
7376 1 8.290600854 49.4213466416 38.037255783
7377 1 57.1787950909 26.7572748604 45.2942859843
7378 1 51.2586324437 20.1021978923 61.2847294486
7379 1 43.5358287848 20.9485373499 23.3621439221
7380 1 21.9874128892 60.827266059 16.5755689067
7381 1 10.0073965227 32.0509637216 53.0501543503
7382 1 4.9376171759 19.8366853685 8.6687674682
7383 1 25.0330528 54.0315031515 57.9782002209
7384 1 60.5328438622 14.8460213802 20.977739631
7385 1 36.1313241377 37.9559107514 36.9448914962
7386 1 43.9189112138 57.2499573631 11.10233576
7387 1 33.7780533407 6.3689386012 17.8282238706
7388 1 10.510565286 4.9984562369 14.6885982616
7389 1 32.541667383 61.0009581839 55.1365666266
7390 1 21.8250154342 39.3675689173 8.9755669846
7391 1 36.4914075759 28.8610095319 34.0014303086
7392 1 57.7094690088 28.1698108503 16.6177629842
7393 1 60.5440800104 38.5174255554 30.5834759442
7394 1 49.4338702651 23.2054230628 57.9020636122
7395 1 57.6584381689 28.6046263786 58.1183009443
7396 1 13.0128320905 4.4770638456 44.0103219615
7397 1 26.7840192341 40.7411295181 54.2791080641
7398 1 5.1142529375 33.729070757 18.8625347248
7399 1 19.7638259698 33.6017277436 52.720502147
7400 1 18.5150919534 28.7868041363 44.7389159489
7401 1 23.6951903785 14.7958683643 39.0574044086
7402 1 32.7480730853 36.2116157804 55.2634999888
7403 1 44.4329064742 13.0802489799 19.3455135343
7404 1 42.8349155167 20.1113272628 15.2176920962
7405 1 61.0703062863 49.0973125124 23.2250863222
7406 1 10.1898083667 41.3807121437 8.0939155903
7407 1 8.8728732714 51.0124905713 30.2367939537
7408 1 32.0844966015 29.9481653958 29.0093032801
7409 1 50.8366916686 51.9040672298 48.6685832311
7410 1 14.2329490418 43.3018594063 35.4346829468
7411 1 10.0956471036 54.571891656 28.4321046858
7412 1 41.3161628129 7.2771588043 51.9079881774
7413 1 23.927521152 13.6071775151 14.6046197578
7414 1 52.1158569198 3.9712674621 44.7754334307
7415 1 49.2777931435 3.494638832 45.0974193037
7416 1 54.4763843959 33.3708014886 15.4218739775
7417 1 15.3316336619 60.669023638 5.5663733045
7418 1 14.0155412777 59.8754706685 30.7593333685
7419 1 31.7828762472 39.3779272415 30.74189393
7420 1 41.3067408344 26.2775147392 52.0687470275
7421 1 53.5994966604 17.8861017384 33.8818121471
7422 1 9.8613851171 54.6879399995 4.3182420607
7423 1 21.3628703162 7.8191039834 38.2758483683
7424 1 22.8448129302 9.3747194465 20.0332594411
7425 1 12.3977700175 17.4966989759 24.0535181685
7426 1 6.6457984643 59.5400248263 35.7422725049
7427 1 26.2290003283 12.4427731321 23.3485669096
7428 1 37.4984473619 22.9601004929 38.7059236465
7429 1 11.830110445 39.9876053267 37.6476774557
7430 1 16.3787607477 8.8643349692 48.343788321
7431 1 36.205002839 59.8813228291 6.9132480532
7432 1 21.8605965703 44.845249706 43.2408213719
7433 1 29.0883074474 50.6241411977 58.6557048468
7434 1 43.6274150972 51.7206605184 47.2150821174
7435 1 24.6068984693 18.8108016256 40.6477290358
7436 1 40.6290021221 45.8612432976 24.9994613985
7437 1 49.2766227114 8.5725520967 20.330198067
7438 1 6.2175139472 55.6641388995 21.950368713
7439 1 27.9227911539 5.1806925162 33.0889029153
7440 1 57.1749326649 60.0908301765 26.8687585187
7441 1 36.903399678 60.6569681873 30.5487726322
7442 1 33.9616356169 41.542465861 44.7730340449
7443 1 14.9862976684 31.0957155564 24.7675402762
7444 1 27.954802472 50.1721788391 37.8750924144
7445 1 10.0907898104 48.7742147289 45.9991787216
7446 1 61.0790845271 3.7979276373 12.6482424887
7447 1 11.8577911643 60.0722203059 54.4168679232
7448 1 46.6352500509 27.2921623339 26.5096699479
7449 1 61.1841893305 35.5169643241 59.908769462
7450 1 16.1358375636 51.0739967786 11.4068821946
7451 1 35.6051563834 28.1226424364 24.860706672
7452 1 9.9980915874 6.014502498 48.3013601571
7453 1 22.1084355692 10.3499820008 37.2778209095
7454 1 48.5108089829 22.9272113506 48.2407317739
7455 1 29.5213088058 41.0465537767 55.5641839974
7456 1 8.6797812343 34.520458427 9.4084864128
7457 1 40.4814691548 26.0926449877 40.9121296491
7458 1 15.6657920289 56.5055625422 59.8508330726
7459 1 21.6588725964 9.5203797224 6.6602181879
7460 1 27.8522726193 8.8903244141 23.0846344692
7461 1 18.8970039504 28.625928243 22.3304665402
7462 1 48.9882867615 27.6489685621 11.3498236293
7463 1 43.9819389829 15.2577793959 37.864617047
7464 1 14.5336330504 51.363444639 39.3751182044
7465 1 56.6927731579 55.1741960189 61.1373720461
7466 1 26.9553119731 17.7447720613 39.4647733039
7467 1 58.1225730214 26.4626770987 56.1779000734
7468 1 26.1743996704 41.9926725715 32.0397275734
7469 1 20.6808010051 54.2762405054 17.3565982526
7470 1 56.3157184542 22.5565355019 15.8448096198
7471 1 31.3729324013 10.4398126651 18.132360654
7472 1 33.0372868593 23.9961084736 30.3756072017
7473 1 41.9566817842 13.6790420465 12.3532350758
7474 1 11.6745600178 31.5541152916 17.2363363534
7475 1 15.6812417327 47.0940594373 11.9731372486
7476 1 30.9549125738 33.2077602959 34.4647458587
7477 1 35.0348633386 31.7002437404 20.0422717684
7478 1 20.4884404881 47.8324850545 9.3685746779
7479 1 61.0870434655 39.2214989902 10.3288557012
7480 1 25.1441853287 34.5383075167 60.554672421
7481 1 26.9377554915 40.56732035 19.2057639405
7482 1 20.7552990088 47.4206099956 21.6671826644
7483 1 20.7299591536 7.2467860911 41.0143668938
7484 1 10.3012335035 47.9810128891 8.808739444
7485 1 19.1614045636 18.3741719276 45.7531538924
7486 1 12.3221015817 39.7549819452 29.8389640801
7487 1 36.1837009746 60.4203068149 52.8383061387
7488 1 22.2356615394 45.0135578432 27.9450293639
7489 1 45.2941689411 33.9966315369 55.9008002718
7490 1 60.3933868765 13.2438168671 18.5395539845
7491 1 8.7988492927 61.6161373 38.3927745359
7492 1 32.833397586 38.6788866648 9.9966285473
7493 1 41.1734871389 21.9491982809 46.5598742231
7494 1 22.6794308733 8.8072412909 27.5124961783
7495 1 17.7529065645 50.0557208443 4.5818526323
7496 1 4.2796997313 19.6790281636 31.1245081863
7497 1 10.5414646937 28.8389468867 55.9249111732
7498 1 51.7072590708 50.1972846078 60.9639140077
7499 1 53.4283794861 7.2542944131 45.1785302488
7500 1 56.531546135 47.818615434 53.4972008941
7501 1 33.312455448 41.9855914573 6.6206751391
7502 1 57.1796143934 18.3682027238 55.0714320798
7503 1 21.0850682553 40.1079257474 59.5585761752
7504 1 41.6294289667 58.5915651673 9.958706547
7505 1 43.7434634408 31.6630825209 34.6620221905
7506 1 44.7792958567 7.0124889917 34.1847199767
7507 1 14.5475611925 6.8853215431 57.0971574513
7508 1 43.3884713823 30.4503392918 32.1196095648
7509 1 49.6492882947 12.8341071075 14.900036822
7510 1 10.8892000731 54.3181419749 6.9715940938
7511 1 43.882393732 16.4822854676 27.4042897299
7512 1 55.2103038495 55.9443988678 50.4792417027
7513 1 43.8811647783 35.4992322776 14.7316701632
7514 1 31.9522377733 32.0345191505 36.8665310666
7515 1 29.3691526318 43.9958086033 20.8344787409
7516 1 53.2284111604 30.4822335668 58.2965577544
7517 1 46.0381541108 59.1822237307 16.2732462931
7518 1 15.1845103459 41.5494299321 48.3475922254
7519 1 38.458611342 61.1421122962 54.4297426764
7520 1 34.3304387742 34.1175371737 14.4495960251
7521 1 49.7599526505 28.3732904724 6.0031083414
7522 1 23.0726960617 46.8636013552 24.3062729823
7523 1 19.3883513494 34.9028385968 5.6365582659
7524 1 54.0956428311 57.5462522513 22.2635178236
7525 1 8.3708105664 18.8755850428 59.3432751888
7526 1 30.9955850895 58.4308063172 3.7987715189
7527 1 31.6346410207 25.3859380806 53.6643385992
7528 1 13.0220199825 46.79378508 37.4509278183
7529 1 4.5372942819 6.321395649 55.8821318797
7530 1 39.4160833282 20.0293384936 43.9698835321
7531 1 28.569864545 45.0995260815 57.5597122205
7532 1 16.8073144641 8.6122531538 25.4493755009
7533 1 47.6881707755 41.02589565 7.6648410316
7534 1 55.0459751815 18.6844534795 61.6067738432
7535 1 49.1625055808 24.3388695165 25.6908356449
7536 1 47.3460534703 7.8331374644 24.8070423599
7537 1 47.727848424 54.0650945531 46.4976072349
7538 1 59.8597868783 15.8903979504 31.746124679
7539 1 52.2827020169 51.6314150702 10.1765239623
7540 1 30.3306040872 55.4885740832 58.9878734792
7541 1 56.3115048986 28.602929252 25.046395726
7542 1 21.4086927333 51.0316271362 13.1182295018
7543 1 5.62847058 7.5284037607 17.9799118719
7544 1 27.2471006977 24.5816756574 33.9327844654
7545 1 31.5621327516 27.9719493024 16.494984656
7546 1 56.473551224 28.025847701 49.7869896322
7547 1 17.8838193958 29.0821041572 26.4485148702
7548 1 54.8759699177 38.497469688 50.4623874804
7549 1 14.6568210299 14.2381574647 27.046547156
7550 1 34.2623196255 41.4435058263 17.6204136498
7551 1 28.3422740215 10.4605293134 56.5653131013
7552 1 60.310988456 31.5964264123 53.8073654028
7553 1 24.6600946086 45.0609603435 11.3681994134
7554 1 4.2013978233 36.6725319446 39.6693063148
7555 1 12.9510332751 60.6078685603 37.0258268765
7556 1 8.8432437826 26.0556008114 19.4688770785
7557 1 37.9027146121 15.7303998812 41.3351823347
7558 1 51.6238657831 44.6844908559 61.4713548482
7559 1 19.5846913356 36.9234140671 48.1579822238
7560 1 11.5500845631 58.2231716612 30.6292398396
7561 1 43.2889846531 28.4734794609 41.8253593016
7562 1 23.7716781168 54.2713832121 29.3902789313
7563 1 53.6064022098 58.9857081797 3.4525360482
7564 1 56.7336797601 30.501487175 27.1463850148
7565 1 13.2253825613 42.6403897003 41.3182695907
7566 1 28.5935657952 56.7496561584 29.1120086976
7567 1 44.102786098 42.0233378928 26.5422664821
7568 1 26.5911320226 46.0451767035 15.3931983908
7569 1 21.0291801221 29.9894231276 9.5617544974
7570 1 34.1620721154 7.8517883001 28.1104699424
7571 1 4.4979677631 39.2219086414 15.5822816979
7572 1 27.6765907599 19.7305271763 42.7968764732
7573 1 12.8017446597 6.313524493 12.18205938
7574 1 9.3875356781 61.2705672201 11.9765315017
7575 1 39.3460329665 30.1321573232 10.0230803129
7576 1 21.1088280271 43.2185246402 48.2066136779
7577 1 41.8070420391 60.5326682974 44.9740557595
7578 1 24.2284977687 9.9416767598 29.6165819795
7579 1 46.646954372 40.6376047981 53.379162816
7580 1 61.2634275842 54.2422979743 23.7022129712
7581 1 25.0679901984 11.6003546221 52.3491825606
7582 1 10.9731200553 26.5182726239 52.532589272
7583 1 26.31654865 34.0545094047 34.9245501124
7584 1 41.4538056288 4.8449482137 48.7653779665
7585 1 24.4642227953 17.3574760767 45.2994358856
7586 1 24.298606652 47.0716456625 45.3179287129
7587 1 37.5031290903 36.5879682248 41.1993536885
7588 1 20.2269074335 56.8533564432 9.4275644562
7589 1 24.1524782033 14.3783167097 10.9636395552
7590 1 56.2964063244 13.2167213637 33.489249218
7591 1 35.9833229976 52.6839846652 35.4873523917
7592 1 16.1818355454 55.2749702234 34.3781338826
7593 1 32.8690957654 44.6429990377 53.8909342553
7594 1 29.7363171842 37.8633880933 14.9225091184
7595 1 37.665877675 15.1715770711 44.1972399692
7596 1 37.7252185829 48.6462279778 51.2047340451
7597 1 19.7693855223 50.5169881382 55.5752445808
7598 1 14.7715233765 5.8267768921 8.527870851
7599 1 31.1046108404 53.2630559508 54.5203341216
7600 1 28.7079755338 55.6035105163 20.4224281172
7601 1 58.3571861376 18.50877162 29.4579884288
7602 1 24.6080689014 29.6901436375 35.536100889
7603 1 47.1474896631 46.7676844439 28.516609884
7604 1 45.5318837023 60.3475059378 11.9305335199
7605 1 22.6207337031 17.2225837762 34.5390097759
7606 1 3.8955463569 12.112945364 28.4728357232
7607 1 26.7638878018 21.1504368886 25.5201866435
7608 1 26.7026156809 58.7262819029 37.4950531088
7609 1 55.1331723735 54.5615918534 32.7000268473
7610 1 57.4917101151 57.0024694938 58.8299821877
7611 1 47.1094506196 57.9627505171 33.1018947117
7612 1 51.2535995856 42.2947025771 38.1418924135
7613 1 43.3095257366 31.0813777631 43.2379538132
7614 1 10.3756144639 34.9377759952 42.6039307401
7615 1 19.6434470275 10.3906545165 56.2426834906
7616 1 20.0086803669 29.1681894388 49.3363147489
7617 1 33.1539789405 35.7059891096 30.3015773709
7618 1 24.5889908581 9.3323498042 60.9515659489
7619 1 44.5436293517 48.7832270561 20.1827236214
7620 1 12.2282329266 16.4105379794 14.9572124305
7621 1 29.2898558564 19.2077536751 40.5796684087
7622 1 7.1565399234 4.6218287409 3.5732731428
7623 1 9.1988620222 18.7148847143 8.9728515821
7624 1 28.4417022291 26.124188133 6.810372923
7625 1 58.5827284048 5.2446273701 22.7239072934
7626 1 31.3057495982 23.1162361361 58.8616423763
7627 1 33.4696444801 24.3356508282 18.3394686156
7628 1 20.3127586286 22.2089756874 7.1461581906
7629 1 5.327880206 33.6206887437 37.5600120908
7630 1 59.4476777329 30.2460403673 38.0421715978
7631 1 32.3827227027 25.4439329916 11.1421889733
7632 1 12.1506332779 25.0604409113 30.7084195717
7633 1 42.9117543846 49.0456379348 52.2207276367
7634 1 61.3413783626 50.3408966275 60.7832578117
7635 1 29.2219122725 7.7466717924 4.6661061876
7636 1 54.598577508 55.4615371015 4.6052320136
7637 1 34.2831533171 15.0381478108 58.0983450768
7638 1 38.5749522935 15.7702530945 58.3719921037
7639 1 17.7980852438 51.3903645775 57.269093928
7640 1 37.6624834219 19.8080683035 15.4084725298
7641 1 26.0921182932 48.6358111321 21.2242911546
7642 1 5.1552765829 40.1298713495 31.3329036231
7643 1 61.5439801606 42.9779423203 26.3469798848
7644 1 47.0239505541 52.5338182257 37.4800130562
7645 1 21.4930223667 30.9288704593 6.8204269348
7646 1 54.7979020961 30.270853528 23.3540679406
7647 1 57.8053859201 46.0261571817 4.6578253804
7648 1 26.5780817046 60.1789051926 35.0535317308
7649 1 36.4386210878 51.201339792 51.2650112986
7650 1 33.371328183 36.7490196829 61.645515146
7651 1 26.608571461 43.8434183428 55.9791607014
7652 1 28.3475994876 28.6509169685 50.462446002
7653 1 29.9441859266 32.5579363893 23.1715390533
7654 1 4.7740726974 50.8064359986 28.5469240757
7655 1 28.0910992911 44.6111047627 36.6611787532
7656 1 34.8436147321 4.0944027721 54.4322591054
7657 1 61.2007509448 51.7771338677 18.1266255367
7658 1 56.0448219427 8.0391452198 21.2585262938
7659 1 28.3407524598 38.6859092574 9.2837768717
7660 1 5.8352332641 3.0848851813 22.55682811
7661 1 6.9012277154 49.0548258269 43.5181552599
7662 1 21.1727921418 40.9986831035 38.7188569213
7663 1 14.4020764815 60.4301384447 33.7853685414
7664 1 37.5730038872 39.0424813992 46.6203855631
7665 1 33.9683656015 13.6834896886 28.6500391444
7666 1 19.1854569435 45.5616711995 20.3559475734
7667 1 50.9089658513 27.0316241466 56.6339589444
7668 1 32.6191499886 10.0289909951 10.1304674589
7669 1 9.1243054969 3.174657324 56.6522762069
7670 1 17.6743120484 37.2703886656 7.7392219921
7671 1 10.6439360248 7.804432617 56.1010612055
7672 1 37.1161257137 42.0617280659 54.980489505
7673 1 30.3937488994 25.5842092798 8.9125743285
7674 1 36.5615164592 14.0035443486 29.9586992847
7675 1 32.3894526874 53.9152207216 33.2947819232
7676 1 21.16179008 57.7207636787 54.9831229772
7677 1 56.6889692535 10.9318623234 49.9764825906
7678 1 23.0856878581 4.2206748401 13.1745272862
7679 1 31.7288608054 42.5976689283 13.7719158343
7680 1 26.4118803452 56.4193016958 27.2502608644
7681 1 22.1259920509 40.9315588221 26.3829706721
7682 1 19.1817700823 36.4679404121 32.4146169777
7683 1 12.9955682169 36.0184944825 42.407883362
7684 1 42.2048719128 11.1255688374 57.1349624084
7685 1 39.8339275909 5.9245664948 56.1250550637
7686 1 5.6279438856 33.1914912896 47.679802186
7687 1 14.293577425 10.484172042 31.0352042164
7688 1 14.0155412777 40.8105361421 33.976148975
7689 1 58.5339213859 19.581823777 45.0566882663
7690 1 5.6695644513 8.6502746409 25.5138663101
7691 1 49.1163320341 40.3210614344 14.5914523966
7692 1 28.9151420169 4.9009885031 51.6097035546
7693 1 56.8630125081 10.3505086952 59.3332094727
7694 1 36.6083337435 39.9094204619 11.5129233436
7695 1 54.5406411187 21.1425364718 31.3372342219
7696 1 52.6945185542 17.4707739047 58.4213843387
7697 1 39.055122066 10.3234717135 26.1489427721
7698 1 48.2606876413 30.9136548419 21.9906900991
7699 1 20.8161614784 30.0130073346 43.2061180598
7700 1 56.6023572775 12.8842016018 14.5926228287
7701 1 19.65374683 3.3612552185 22.1781933229
7702 1 13.9947661078 42.4173053404 10.1966553946
7703 1 12.597036084 8.5416292804 20.1350870346
7704 1 7.5277775795 56.0436515106 61.5857060652
7705 1 41.3317295599 55.5102270772 54.9769196871
7706 1 15.3846542364 7.9926556565 33.8082504891
7707 1 54.7980191393 34.9202780352 24.4123726529
7708 1 45.7218448335 20.9498833468 29.7598428695
7709 1 59.3684394792 32.8800978272 31.3023553451
7710 1 5.3390461283 43.7183576721 9.2884586001
7711 1 35.8841288765 23.3651870456 50.3249787508
7712 1 61.3293814335 37.7325923052 37.4015355833
7713 1 21.1932161821 28.8615362264 14.2810538015
7714 1 43.1669671058 31.781120599 52.9355690469
7715 1 41.1686883672 49.1378094633 7.9362174202
7716 1 60.9618072299 21.0518279834 56.3151917597
7717 1 25.0547643156 6.3766868618 58.6183680625
7718 1 14.4514687164 15.4271994436 45.6983776698
7719 1 17.2637829864 5.3144787583 27.8687757121
7720 1 19.5137631499 5.2012745648 60.226892909
7721 1 61.2325866981 30.1143082335 21.3972810202
7722 1 58.4628176353 20.8622765035 15.0874230025
7723 1 58.3112466773 25.1178506062 20.0737563921
7724 1 40.6280072548 32.126105463 8.3363237843
7725 1 49.3421669095 39.8984769217 5.6318063115
7726 1 36.6929559849 31.6052631748 33.8162094274
7727 1 11.1058470563 20.3968541756 36.3621333495
7728 1 36.079825125 21.0249665665 57.2513618816
7729 1 12.7847148726 33.8193110725 22.5202521066
7730 1 61.4344862368 61.6532399979 6.9402850349
7731 1 25.783358303 18.3216780475 19.7671031797
7732 1 44.4473613107 31.2621510022 55.4934898981
7733 1 21.6162103461 56.3335675438 32.80729695
7734 1 43.0100121601 19.1943522275 58.7574739186
7735 1 4.6359909694 12.3499578659 49.4626043734
7736 1 11.5952632424 44.8042260606 17.2795838198
7737 1 51.9902695546 11.8121443121 26.2130824516
7738 1 56.3439843896 53.3009194295 50.3820373161
7739 1 13.4543776033 33.669144633 50.0676592518
7740 1 35.1545400217 5.0515236287 40.6799744404
7741 1 54.1820207207 28.5098798994 43.3316469035
7742 1 19.0006457136 54.3057939161 48.0246114851
7743 1 36.2309864318 49.3243763414 39.098720662
7744 1 13.7080687628 54.0011304383 38.9127975216
7745 1 44.6689241089 18.4617202493 33.5099073447
7746 1 56.9607435891 42.0349251706 20.9245434917
7747 1 44.9223226603 44.1426978329 14.3640959596
7748 1 48.9698524558 16.4829292053 33.6696128059
7749 1 42.4403043314 15.191767025 32.1434278582
7750 1 29.7865872432 8.9671047604 11.9783456715
7751 1 49.6474741249 59.6257589782 10.534149493
7752 1 45.4063548587 51.5311675601 40.5837063995
7753 1 7.1030043588 24.4469589217 36.2014915426
7754 1 46.0903553828 14.0170043178 24.8766830703
7755 1 47.2466252627 17.3938179936 35.9011586636
7756 1 11.2296202518 48.4807288777 34.5513578347
7757 1 57.95520123 51.2479815115 23.4709941082
7758 1 31.5669315232 30.7010458495 33.1696627308
7759 1 42.7113764076 37.234280835 45.5238077208
7760 1 7.3448683018 24.687775328 5.3081350163
7761 1 19.9454185114 35.9184810588 44.0746372058
7762 1 54.0498789356 25.6470029624 46.8747204602
7763 1 9.7257905574 8.2817992045 35.058389024
7764 1 18.9452842748 25.0506678032 41.665127146
7765 1 12.0726239778 4.3442666186 23.4273369905
7766 1 33.8901807367 25.2034677149 56.9167938634
7767 1 8.9305521657 49.3654585084 11.2923554128
7768 1 23.6370784243 40.6885771164 43.07854096
7769 1 48.8577250598 53.9781314474 16.1009586867
7770 1 37.7633746696 15.8377285056 34.0292865927
7771 1 26.6350232267 25.8598460413 3.5931827782
7772 1 36.4671211096 9.2349113312 16.3586293154
7773 1 51.6083575576 6.0642868277 46.9362851891
7774 1 23.4791286113 58.1270206635 48.0216854048
7775 1 52.3542154187 21.6414916796 27.5936071234
7776 1 42.3781543864 29.916388164 8.1833424556
7777 1 28.3673212686 26.4019316723 53.3878240136
7778 1 7.9185907127 58.8172244778 22.4712110012
7779 1 36.5997895891 8.5499042354 38.0766408234
7780 1 33.1158228538 18.7954104434 37.2815662922
7781 1 37.4087922624 58.7576494834 9.1119574382
7782 1 16.8067877697 49.6609340942 38.5239799752
7783 1 52.7479487799 16.4924097054 51.9987551874
7784 1 39.0974917083 60.6339691963 60.7077064192
7785 1 61.4596505272 29.5132328243 6.2455809091
7786 1 52.5420697721 60.9034026677 42.1400884956
7787 1 33.1291072582 47.4054528998 53.1188001935
7788 1 5.0436349163 16.9565445579 52.2590592883
7789 1 37.6623663787 53.9187905395 12.4497372031
7790 1 24.3465943684 18.1361645583 48.219956604
7791 1 17.3648497989 52.8868205496 7.4308892096
7792 1 17.2804031223 14.707676305 56.4822124216
7793 1 59.4386068841 21.1499101941 43.0592873519
7794 1 42.518079545 60.5432021863 49.0234582464
7795 1 30.8954546227 44.4038797579 37.8217792318
7796 1 37.3489831817 25.441650649 9.8635504165
7797 1 28.0744791551 50.2808534603 22.4911083471
7798 1 35.2075020746 6.4641649575 57.7812164971
7799 1 53.9337135489 25.3309277715 55.8239028823
7800 1 4.8562136228 40.3009300021 9.2433969639
7801 1 33.128404999 14.5743640878 51.6841430366
7802 1 35.4122106504 52.7236037921 6.017381761
7803 1 49.1270414879 14.9690337948 6.1019279243
7804 1 18.7506414152 48.6052043324 36.7658739053
7805 1 42.2863925091 6.7324455533 58.9057091451
7806 1 33.8479281376 15.868218262 35.5812210468
7807 1 32.6551407759 59.1960933512 41.2361637783
7808 1 4.2443877946 6.3072451248 39.599724126
7809 1 27.8797192523 10.1524715825 38.6213599266
7810 1 12.9529644881 4.8676838574 37.7915235618
7811 1 25.9348707395 37.3180252524 59.8644686067
7812 1 54.3264520428 33.8074897082 21.7242997513
7813 1 30.1196336996 31.9290632175 20.2224597915
7814 1 12.2193376426 47.328145859 6.7328200915
7815 1 30.0976880976 13.8952793786 16.3180738428
7816 1 20.7516121476 51.6624900426 5.1821145912
7817 1 52.3223211437 35.5311265526 35.894428679
7818 1 6.8485465662 26.6051772079 17.4061660524
7819 1 46.8691609077 60.2534617179 34.3159254161
7820 1 32.0883590275 19.8318865969 18.4338639651
7821 1 5.5037493346 50.5820056418 61.0852292957
7822 1 27.3726295413 43.3093501718 22.7036002963
7823 1 4.5972964839 18.6893692943 46.2876902363
7824 1 4.8942117012 42.6733373641 18.2984449702
7825 1 40.1646917047 40.9664962205 48.7814128863
7826 1 45.4632963808 49.7927832712 51.0448530191
7827 1 6.711330958 14.9563346064 26.1439684356
7828 1 12.7747661996 32.5443008553 34.5322797913
7829 1 33.8196036805 61.2362150377 39.2844682376
7830 1 30.3029818894 30.0309149458 18.0001018257
7831 1 30.0086182142 29.3960140487 45.2311996937
7832 1 12.6227270688 11.6653721257 4.3520616964
7833 1 43.045476253 47.4965125178 24.145397089
7834 1 37.9137166739 53.7656980197 23.4297363764
7835 1 47.3289651615 58.736055011 13.5286415206
7836 1 42.5334707272 31.9304092145 57.5113733745
7837 1 19.7460354018 55.77825603 20.8148154815
7838 1 4.1720024209 44.5239075706 13.0543239087
7839 1 48.0717798991 40.7425340366 38.2077877412
7840 1 20.8151666111 3.9240814917 34.4430343431
7841 1 6.7283607452 23.7106400824 16.7912795442
7842 1 25.7792617907 7.4122325218 25.4489658497
7843 1 48.9260782949 10.2914018737 56.5355256041
7844 1 6.1163008306 53.0503884367 18.8235593356
7845 1 33.7950831279 21.4425182212 36.4252781617
7846 1 41.0745271041 26.8002297188 30.2371450833
7847 1 60.081993414 6.1136673584 39.6079171508
7848 1 31.3299190213 6.4109571139 39.8005117542
7849 1 5.4923142129 19.0632638314 56.2588354537
7850 1 38.701241918 30.747687569 52.0973055709
7851 1 32.7833030918 16.6700812994 40.5234876675
7852 1 11.508124572 44.9243123949 56.8421788165
7853 1 30.1552148357 23.2000390751 27.5559777311
7854 1 41.4639298666 26.2084007232 16.0299719794
7855 1 13.9292219097 48.6271499345 23.8780703955
7856 1 18.2945240226 46.2511727545 42.2143524128
7857 1 6.0973983521 48.4831867851 5.454479995
7858 1 51.0946549053 9.2745889796 25.519952557
7859 1 20.5491859145 28.6829868082 40.7075381166
7860 1 27.8671956287 8.9577120428 59.781660535
7861 1 29.3164246653 29.8707998334 31.7701770588
7862 1 24.4236088012 31.8692541368 60.6354322365
7863 1 4.6719290873 33.226428688 30.5305138913
7864 1 49.6573057546 36.9767857712 24.0075787082
7865 1 25.8939641373 53.5108364281 51.2203007921
7866 1 37.7606826758 40.5556160289 30.5143034066
7867 1 42.2672559441 60.1251823588 20.3575276568
7868 1 41.8516355025 53.6417492595 21.204510852
7869 1 50.2799756363 7.8228727748 31.4264796702
7870 1 45.8224434732 36.594464123 57.0913638124
7871 1 36.7067085622 48.3978037628 48.2939279132
7872 1 32.2465429269 14.6980202401 44.8385197214
7873 1 38.2199602351 37.1165353649 32.2456065812
7874 1 12.349197085 3.3228498298 29.8994168985
7875 1 50.1369488326 38.5239799752 3.1739158553
7876 1 13.2582717036 14.5913353534 9.7773480918
7877 1 47.6711409884 31.7319039289 7.0268384893
7878 1 26.5698301582 47.3493892018 47.0609362087
7879 1 12.2582545102 32.5699918401 19.8994205296
7880 1 17.0457314846 53.913230987 44.4337842983
7881 1 53.7556323036 60.2096875571 51.3155739657
7882 1 28.7846973585 51.6913411941 31.0536970437
7883 1 44.2763026581 37.2166073102 49.2498783377
7884 1 48.525029733 49.1541955129 52.9810403343
7885 1 51.5259006156 29.7794476073 37.9196858777
7886 1 49.8000984718 42.0032064605 9.1537418644
7887 1 24.2142770186 54.4667868526 39.075136455
7888 1 44.6863050257 38.4290579312 54.1075812386
7889 1 40.016632043 53.9732741542 14.1773535167
7890 1 35.360360508 37.8271632195 23.3774765827
7891 1 13.3756660441 45.3117254228 25.7994517445
7892 1 35.3130750508 23.1196889109 31.6011666624
7893 1 57.1912601928 33.188916339 44.0643374033
7894 1 43.3439364406 7.7428620359 14.5210509053
7895 1 50.8386228816 22.1906584249 25.18433115
7896 1 32.8927384939 23.8304923303 50.102186999
7897 1 23.5292231056 50.0889611162 51.9631740513
7898 1 53.6566722688 7.6194165614 22.8393118993
7899 1 19.997093089 28.0391906271 58.9884001736
7900 1 7.8715861592 52.7253594402 28.1129863715
7901 1 25.7742289326 56.3476127291 50.9786650833
7902 1 55.4682670861 32.0458723419 57.5801362608
7903 1 24.1238026166 50.6608927659 58.3411512177
7904 1 6.8617783012 57.0923586797 15.788570357
7905 1 23.2827301035 35.9400755312 18.2724613774
7906 1 29.4013980363 57.7957883768 41.8450810827
7907 1 11.8349677382 37.0154685524 35.4027301503
7908 1 32.0328805455 23.4093708577 33.0992612395
7909 1 4.7767529869 13.7060205066 18.4877623637
7910 1 52.6011765935 30.2353309135 14.6417809773
7911 1 18.5627285402 11.1061396644 16.2168314655
7912 1 51.5020823222 35.1380954506 26.5303865962
7913 1 49.6795439647 45.5416568104 21.0469121686
7914 1 23.8383342254 37.5550962759 30.6047778085
7915 1 43.9146976582 56.1667224468 61.4135940237
7916 1 37.858238192 58.5129121296 33.7822083747
7917 1 31.7479388488 5.1686780306 51.4562599052
7918 1 42.501752017 58.7932891411 24.6332917134
7919 1 60.0589359015 50.5887356264 12.2161774759
7920 1 37.5452646462 20.6754170174 25.9808101997
7921 1 9.2660448252 30.092889326 27.18922283
7922 1 48.1624883875 14.0933164913 55.2299085873
7923 1 3.8047395522 10.9765143084 60.4517914387
7924 1 19.3106346575 52.1149790957 44.4306241316
7925 1 33.7154352229 39.731280695 55.7423237643
7926 1 57.4301453862 21.6772483805 46.5794789609
7927 1 18.6382799328 39.7123196948 31.0387155127
7928 1 30.0422681373 49.5364001178 7.658222238
7929 1 17.4470726545 19.8004019732 15.4736070767
7930 1 12.0394422276 19.2725370923 14.4287623335
7931 1 17.5551620598 9.4096568449 18.3267694272
7932 1 45.0438135132 56.2567871975 29.6159382418
7933 1 24.4807844097 9.799118129 6.2551901568
7934 1 57.0715249882 32.6362382974 12.4459918204
7935 1 5.5222246054 51.1389557606 5.3815971876
7936 1 61.296375248 44.1528220707 59.1692904559
7937 1 21.4569145361 33.6972350036 9.0148700948
7938 1 6.4971477344 14.139490038 20.6889940298
7939 1 15.0384989404 42.4285414887 54.4938823559
7940 1 43.5722877449 25.7858162105 7.6087948901
7941 1 51.9577900636 5.2476763457 23.1851745873
7942 1 12.8311225056 21.0323988104 57.5894997177
7943 1 50.2877004882 28.680645944 49.71108711
7944 1 30.7255078805 50.9464196788 19.9625653418
7945 1 23.0699455463 18.277845365 9.6738818934
7946 1 22.8423550228 48.4647524794 15.3759345172
7947 1 55.6193113497 54.9194514705 25.897124304
7948 1 52.1235817717 48.1924514494 4.6205120048
7949 1 21.0077612146 25.2615796691 28.9516009771
7950 1 26.4071400952 12.1169833547 14.2883104805
7951 1 9.6192227139 48.1743682734 54.3328894194
7952 1 42.7149462256 47.2213439291 38.6523763775
7953 1 49.7370707028 59.4045473097 26.7535879992
7954 1 8.1950350723 21.6480460994 53.4469893566
7955 1 16.5186859062 28.0813847046 50.6265991052
7956 1 57.7298345275 36.2638170524 61.4216114836
7957 1 53.0846235759 48.6453501537 11.0722556548
7958 1 12.5028162993 47.9978671114 58.9909166026
7959 1 61.3280354366 30.7524863406 14.9285368438
7960 1 7.0958413143 27.3832219519 11.3499406725
7961 1 14.3593557095 51.684084515 25.5939238663
7962 1 38.5662325743 36.7337455439 49.9951509827
7963 1 41.2363393431 49.2787294892 28.408637522
7964 1 9.7144373659 50.0411489646 32.9150352256
7965 1 3.5579240961 7.3341998131 53.2472551173
7966 1 27.8818845517 35.9342233707 50.2110957067
7967 1 51.1658171775 60.9884345603 22.697572571
7968 1 26.1694838556 51.6339900208 32.0390253141
7969 1 29.7464414219 38.0355001348 47.088031712
7970 1 59.9691637588 58.2588113189 44.7976131192
7971 1 12.4012813139 21.883478518 52.1207142131
7972 1 27.0428602948 8.4512368087 8.2646816349
7973 1 24.0702553476 57.9649158165 37.8413839696
7974 1 6.4868362275 25.3766331454 40.2596722703
7975 1 28.9666995513 6.5329746612 7.1663598488
7976 1 14.7254083514 31.1838490941 48.9404746099
7977 1 59.6014139903 28.2914187464 45.9658799281
7978 1 44.7157999148 13.1992234037 11.6281523847
7979 1 24.393821304 51.4015422041 29.5650829667
7980 1 4.7748919999 8.2485647848 60.4619156764
7981 1 33.1072201778 29.3204041345 11.9834955728
7982 1 14.4749358802 61.0790845271 54.1519406155
7983 1 44.5243172219 60.0650221485 59.7059920992
7984 1 27.1382505117 13.8421417608 4.4753784234
7985 1 30.2895804418 8.0833290319 58.8424472897
7986 1 49.257544668 36.3319947227 27.5661604905
7987 1 31.3421500368 7.6260763201 19.0560656739
7988 1 34.731662901 60.7872958025 49.1830466643
7989 1 17.2840899835 50.9575973054 46.4162622034
7990 1 30.9219063883 23.550817578 21.2330108738
7991 1 38.7780807859 41.8856365552 28.028071522
7992 1 36.8796399062 13.0515148717 23.6769901592
7993 1 42.211367811 20.1319853895 27.7455292111
7994 1 40.2872359464 37.830206343 46.7425201536
7995 1 7.9098768456 54.7291977313 24.9847724755
7996 1 51.1072955721 25.5491548381 51.333481577
7997 1 24.7210155999 60.3088816782 20.9471328313
7998 1 54.9375931682 44.9739972379 49.2308588159
7999 1 33.2954256608 36.115113653 8.7471161935
8000 1 9.0453071818 58.2994838346 29.369854891
